
     Program PWSCF v.7.3.1 starts on 19Apr2025 at  9: 9:54 

     This program is part of the open-source Quantum ESPRESSO suite
     for quantum simulation of materials; please cite
         "P. Giannozzi et al., J. Phys.:Condens. Matter 21 395502 (2009);
         "P. Giannozzi et al., J. Phys.:Condens. Matter 29 465901 (2017);
         "P. Giannozzi et al., J. Chem. Phys. 152 154105 (2020);
          URL http://www.quantum-espresso.org", 
     in publications or presentations arising from this work. More details at
     http://www.quantum-espresso.org/quote

     Parallel version (MPI), running on     8 processors

     MPI processes distributed on     1 nodes
     53387 MiB available memory on the printing compute node when the environment starts

     Waiting for input...
     Reading input from standard input

     Current dimensions of program PWSCF are:
     Max number of different atomic species (ntypx) = 10
     Max number of k-points (npk) = 120000
     Max angular momentum in pseudopotentials (lmaxx) =  4
     file Ca.pbe-spn-kjpaw_psl.1.0.0.UPF: wavefunction(s)  3S renormalized
     file Ce.pbe-spdn-kjpaw_psl.1.0.0.UPF: wavefunction(s)  5D renormalized
     file Se.pbe-n-kjpaw_psl.1.0.0.UPF: wavefunction(s)  4S renormalized

     IMPORTANT: XC functional enforced from input :
     Exchange-correlation= PBE
                           (   1   4   3   4   0   0   0)
     Any further DFT definition will be discarded
     Please, verify this is what you really want

     Message from routine setup:
     using ibrav=0 with symmetry is DISCOURAGED, use correct ibrav instead

     R & G space division:  proc/nbgrp/npool/nimage =       8
     Subspace diagonalization in iterative solution of the eigenvalue problem:
     a serial algorithm will be used


     Parallelization info
     --------------------
     sticks:   dense  smooth     PW     G-vecs:    dense   smooth      PW
     Min         708     353     99                40057    14171    2103
     Max         710     355    100                40058    14172    2106
     Sum        5673    2837    793               320461   113369   16831

     Using Slab Decomposition



     bravais-lattice index     =            0
     lattice parameter (alat)  =      10.5447  a.u.
     unit-cell volume          =    1172.4631 (a.u.)^3
     number of atoms/cell      =            5
     number of atomic types    =            3
     number of electrons       =        39.00
     number of Kohn-Sham states=           24
     kinetic-energy cutoff     =      80.0000  Ry
     charge density cutoff     =     640.0000  Ry
     scf convergence threshold =      1.0E-10
     mixing beta               =       0.3000
     number of iterations used =            8  plain     mixing
     energy convergence thresh.=      1.0E-07
     force convergence thresh. =      1.0E-06
     press convergence thresh. =      1.0E-01
     Exchange-correlation= PBE
                           (   1   4   3   4   0   0   0)
     nstep                     =           50


     celldm(1)=  10.544672  celldm(2)=   0.000000  celldm(3)=   0.000000
     celldm(4)=   0.000000  celldm(5)=   0.000000  celldm(6)=   0.000000

     crystal axes: (cart. coord. in units of alat)
               a(1) = (   1.000000   0.000000   0.000000 )  
               a(2) = (   0.000000   1.000000   0.000000 )  
               a(3) = (   0.000000   0.000000   1.000000 )  

     reciprocal axes: (cart. coord. in units 2 pi/alat)
               b(1) = (  1.000000  0.000000  0.000000 )  
               b(2) = (  0.000000  1.000000  0.000000 )  
               b(3) = (  0.000000  0.000000  1.000000 )  


     PseudoPot. # 1 for Ca read from file:
     /home/administrator/Downloads/BURAI/BURAI1.3/pseudopot/Ca.pbe-spn-kjpaw_psl.1.0.0.UPF
     MD5 check sum: b518bfa21c8e9f1b10ff1c7131b15729
     Pseudo is Projector augmented-wave + core cor, Zval = 10.0
     Generated using "atomic" code by A. Dal Corso  v.5.1.2
     Shape of augmentation charge: PSQ
     Using radial grid of 1169 points,  6 beta functions with: 
                l(1) =   0
                l(2) =   0
                l(3) =   1
                l(4) =   1
                l(5) =   2
                l(6) =   2
     Q(r) pseudized with 0 coefficients 


     PseudoPot. # 2 for Ce read from file:
     /home/administrator/Downloads/BURAI/BURAI1.3/pseudopot/Ce.pbe-spdn-kjpaw_psl.1.0.0.UPF
     MD5 check sum: 812d43270a30c3f31dcbe73ad7930501
     Pseudo is Projector augmented-wave + core cor, Zval = 11.0
     Generated using "atomic" code by A. Dal Corso  v.5.1.2
     Shape of augmentation charge: PSQ
     Using radial grid of 1255 points,  6 beta functions with: 
                l(1) =   0
                l(2) =   0
                l(3) =   1
                l(4) =   1
                l(5) =   2
                l(6) =   2
     Q(r) pseudized with 0 coefficients 


     PseudoPot. # 3 for Se read from file:
     /home/administrator/Downloads/BURAI/BURAI1.3/pseudopot/Se.pbe-n-kjpaw_psl.1.0.0.UPF
     MD5 check sum: a24196f260b4188fa853fb27ef2f7c98
     Pseudo is Projector augmented-wave + core cor, Zval =  6.0
     Generated using "atomic" code by A. Dal Corso  v.5.1.2
     Shape of augmentation charge: PSQ
     Using radial grid of 1211 points,  4 beta functions with: 
                l(1) =   0
                l(2) =   0
                l(3) =   1
                l(4) =   1
     Q(r) pseudized with 0 coefficients 


     atomic species   valence    mass     pseudopotential
     Ca               10.00    40.07800     Ca( 1.00)
     Ce               11.00   140.11600     Ce( 1.00)
     Se                6.00    78.96000     Se( 1.00)

     48 Sym. Ops., with inversion, found


                                    s                        frac. trans.

      isym =  1     identity                                     

 cryst.   s( 1) = (     1          0          0      )
                  (     0          1          0      )
                  (     0          0          1      )

 cart.    s( 1) = (  1.0000000  0.0000000  0.0000000 )
                  (  0.0000000  1.0000000  0.0000000 )
                  (  0.0000000  0.0000000  1.0000000 )


      isym =  2     180 deg rotation - cart. axis [0,0,1]        

 cryst.   s( 2) = (    -1          0          0      )
                  (     0         -1          0      )
                  (     0          0          1      )

 cart.    s( 2) = ( -1.0000000  0.0000000  0.0000000 )
                  (  0.0000000 -1.0000000  0.0000000 )
                  (  0.0000000  0.0000000  1.0000000 )


      isym =  3     180 deg rotation - cart. axis [0,1,0]        

 cryst.   s( 3) = (    -1          0          0      )
                  (     0          1          0      )
                  (     0          0         -1      )

 cart.    s( 3) = ( -1.0000000  0.0000000  0.0000000 )
                  (  0.0000000  1.0000000  0.0000000 )
                  (  0.0000000  0.0000000 -1.0000000 )


      isym =  4     180 deg rotation - cart. axis [1,0,0]        

 cryst.   s( 4) = (     1          0          0      )
                  (     0         -1          0      )
                  (     0          0         -1      )

 cart.    s( 4) = (  1.0000000  0.0000000  0.0000000 )
                  (  0.0000000 -1.0000000  0.0000000 )
                  (  0.0000000  0.0000000 -1.0000000 )


      isym =  5     180 deg rotation - cart. axis [1,1,0]        

 cryst.   s( 5) = (     0          1          0      )
                  (     1          0          0      )
                  (     0          0         -1      )

 cart.    s( 5) = (  0.0000000  1.0000000  0.0000000 )
                  (  1.0000000  0.0000000  0.0000000 )
                  (  0.0000000  0.0000000 -1.0000000 )


      isym =  6     180 deg rotation - cart. axis [1,-1,0]       

 cryst.   s( 6) = (     0         -1          0      )
                  (    -1          0          0      )
                  (     0          0         -1      )

 cart.    s( 6) = (  0.0000000 -1.0000000  0.0000000 )
                  ( -1.0000000  0.0000000  0.0000000 )
                  (  0.0000000  0.0000000 -1.0000000 )


      isym =  7      90 deg rotation - cart. axis [0,0,-1]       

 cryst.   s( 7) = (     0         -1          0      )
                  (     1          0          0      )
                  (     0          0          1      )

 cart.    s( 7) = (  0.0000000  1.0000000  0.0000000 )
                  ( -1.0000000  0.0000000  0.0000000 )
                  (  0.0000000  0.0000000  1.0000000 )


      isym =  8      90 deg rotation - cart. axis [0,0,1]        

 cryst.   s( 8) = (     0          1          0      )
                  (    -1          0          0      )
                  (     0          0          1      )

 cart.    s( 8) = (  0.0000000 -1.0000000  0.0000000 )
                  (  1.0000000  0.0000000  0.0000000 )
                  (  0.0000000  0.0000000  1.0000000 )


      isym =  9     180 deg rotation - cart. axis [1,0,1]        

 cryst.   s( 9) = (     0          0          1      )
                  (     0         -1          0      )
                  (     1          0          0      )

 cart.    s( 9) = (  0.0000000  0.0000000  1.0000000 )
                  (  0.0000000 -1.0000000  0.0000000 )
                  (  1.0000000  0.0000000  0.0000000 )


      isym = 10     180 deg rotation - cart. axis [-1,0,1]       

 cryst.   s(10) = (     0          0         -1      )
                  (     0         -1          0      )
                  (    -1          0          0      )

 cart.    s(10) = (  0.0000000  0.0000000 -1.0000000 )
                  (  0.0000000 -1.0000000  0.0000000 )
                  ( -1.0000000  0.0000000  0.0000000 )


      isym = 11      90 deg rotation - cart. axis [0,1,0]        

 cryst.   s(11) = (     0          0         -1      )
                  (     0          1          0      )
                  (     1          0          0      )

 cart.    s(11) = (  0.0000000  0.0000000  1.0000000 )
                  (  0.0000000  1.0000000  0.0000000 )
                  ( -1.0000000  0.0000000  0.0000000 )


      isym = 12      90 deg rotation - cart. axis [0,-1,0]       

 cryst.   s(12) = (     0          0          1      )
                  (     0          1          0      )
                  (    -1          0          0      )

 cart.    s(12) = (  0.0000000  0.0000000 -1.0000000 )
                  (  0.0000000  1.0000000  0.0000000 )
                  (  1.0000000  0.0000000  0.0000000 )


      isym = 13     180 deg rotation - cart. axis [0,1,1]        

 cryst.   s(13) = (    -1          0          0      )
                  (     0          0          1      )
                  (     0          1          0      )

 cart.    s(13) = ( -1.0000000  0.0000000  0.0000000 )
                  (  0.0000000  0.0000000  1.0000000 )
                  (  0.0000000  1.0000000  0.0000000 )


      isym = 14     180 deg rotation - cart. axis [0,1,-1]       

 cryst.   s(14) = (    -1          0          0      )
                  (     0          0         -1      )
                  (     0         -1          0      )

 cart.    s(14) = ( -1.0000000  0.0000000  0.0000000 )
                  (  0.0000000  0.0000000 -1.0000000 )
                  (  0.0000000 -1.0000000  0.0000000 )


      isym = 15      90 deg rotation - cart. axis [-1,0,0]       

 cryst.   s(15) = (     1          0          0      )
                  (     0          0         -1      )
                  (     0          1          0      )

 cart.    s(15) = (  1.0000000  0.0000000  0.0000000 )
                  (  0.0000000  0.0000000  1.0000000 )
                  (  0.0000000 -1.0000000  0.0000000 )


      isym = 16      90 deg rotation - cart. axis [1,0,0]        

 cryst.   s(16) = (     1          0          0      )
                  (     0          0          1      )
                  (     0         -1          0      )

 cart.    s(16) = (  1.0000000  0.0000000  0.0000000 )
                  (  0.0000000  0.0000000 -1.0000000 )
                  (  0.0000000  1.0000000  0.0000000 )


      isym = 17     120 deg rotation - cart. axis [-1,-1,-1]     

 cryst.   s(17) = (     0          0          1      )
                  (     1          0          0      )
                  (     0          1          0      )

 cart.    s(17) = (  0.0000000  1.0000000  0.0000000 )
                  (  0.0000000  0.0000000  1.0000000 )
                  (  1.0000000  0.0000000  0.0000000 )


      isym = 18     120 deg rotation - cart. axis [-1,1,1]       

 cryst.   s(18) = (     0          0         -1      )
                  (    -1          0          0      )
                  (     0          1          0      )

 cart.    s(18) = (  0.0000000 -1.0000000  0.0000000 )
                  (  0.0000000  0.0000000  1.0000000 )
                  ( -1.0000000  0.0000000  0.0000000 )


      isym = 19     120 deg rotation - cart. axis [1,1,-1]       

 cryst.   s(19) = (     0          0         -1      )
                  (     1          0          0      )
                  (     0         -1          0      )

 cart.    s(19) = (  0.0000000  1.0000000  0.0000000 )
                  (  0.0000000  0.0000000 -1.0000000 )
                  ( -1.0000000  0.0000000  0.0000000 )


      isym = 20     120 deg rotation - cart. axis [1,-1,1]       

 cryst.   s(20) = (     0          0          1      )
                  (    -1          0          0      )
                  (     0         -1          0      )

 cart.    s(20) = (  0.0000000 -1.0000000  0.0000000 )
                  (  0.0000000  0.0000000 -1.0000000 )
                  (  1.0000000  0.0000000  0.0000000 )


      isym = 21     120 deg rotation - cart. axis [1,1,1]        

 cryst.   s(21) = (     0          1          0      )
                  (     0          0          1      )
                  (     1          0          0      )

 cart.    s(21) = (  0.0000000  0.0000000  1.0000000 )
                  (  1.0000000  0.0000000  0.0000000 )
                  (  0.0000000  1.0000000  0.0000000 )


      isym = 22     120 deg rotation - cart. axis [-1,1,-1]      

 cryst.   s(22) = (     0         -1          0      )
                  (     0          0         -1      )
                  (     1          0          0      )

 cart.    s(22) = (  0.0000000  0.0000000  1.0000000 )
                  ( -1.0000000  0.0000000  0.0000000 )
                  (  0.0000000 -1.0000000  0.0000000 )


      isym = 23     120 deg rotation - cart. axis [1,-1,-1]      

 cryst.   s(23) = (     0         -1          0      )
                  (     0          0          1      )
                  (    -1          0          0      )

 cart.    s(23) = (  0.0000000  0.0000000 -1.0000000 )
                  ( -1.0000000  0.0000000  0.0000000 )
                  (  0.0000000  1.0000000  0.0000000 )


      isym = 24     120 deg rotation - cart. axis [-1,-1,1]      

 cryst.   s(24) = (     0          1          0      )
                  (     0          0         -1      )
                  (    -1          0          0      )

 cart.    s(24) = (  0.0000000  0.0000000 -1.0000000 )
                  (  1.0000000  0.0000000  0.0000000 )
                  (  0.0000000 -1.0000000  0.0000000 )


      isym = 25     inversion                                    

 cryst.   s(25) = (    -1          0          0      )
                  (     0         -1          0      )
                  (     0          0         -1      )

 cart.    s(25) = ( -1.0000000  0.0000000  0.0000000 )
                  (  0.0000000 -1.0000000  0.0000000 )
                  (  0.0000000  0.0000000 -1.0000000 )


      isym = 26     inv. 180 deg rotation - cart. axis [0,0,1]   

 cryst.   s(26) = (     1          0          0      )
                  (     0          1          0      )
                  (     0          0         -1      )

 cart.    s(26) = (  1.0000000  0.0000000  0.0000000 )
                  (  0.0000000  1.0000000  0.0000000 )
                  (  0.0000000  0.0000000 -1.0000000 )


      isym = 27     inv. 180 deg rotation - cart. axis [0,1,0]   

 cryst.   s(27) = (     1          0          0      )
                  (     0         -1          0      )
                  (     0          0          1      )

 cart.    s(27) = (  1.0000000  0.0000000  0.0000000 )
                  (  0.0000000 -1.0000000  0.0000000 )
                  (  0.0000000  0.0000000  1.0000000 )


      isym = 28     inv. 180 deg rotation - cart. axis [1,0,0]   

 cryst.   s(28) = (    -1          0          0      )
                  (     0          1          0      )
                  (     0          0          1      )

 cart.    s(28) = ( -1.0000000  0.0000000  0.0000000 )
                  (  0.0000000  1.0000000  0.0000000 )
                  (  0.0000000  0.0000000  1.0000000 )


      isym = 29     inv. 180 deg rotation - cart. axis [1,1,0]   

 cryst.   s(29) = (     0         -1          0      )
                  (    -1          0          0      )
                  (     0          0          1      )

 cart.    s(29) = (  0.0000000 -1.0000000  0.0000000 )
                  ( -1.0000000  0.0000000  0.0000000 )
                  (  0.0000000  0.0000000  1.0000000 )


      isym = 30     inv. 180 deg rotation - cart. axis [1,-1,0]  

 cryst.   s(30) = (     0          1          0      )
                  (     1          0          0      )
                  (     0          0          1      )

 cart.    s(30) = (  0.0000000  1.0000000  0.0000000 )
                  (  1.0000000  0.0000000  0.0000000 )
                  (  0.0000000  0.0000000  1.0000000 )


      isym = 31     inv.  90 deg rotation - cart. axis [0,0,-1]  

 cryst.   s(31) = (     0          1          0      )
                  (    -1          0          0      )
                  (     0          0         -1      )

 cart.    s(31) = (  0.0000000 -1.0000000  0.0000000 )
                  (  1.0000000  0.0000000  0.0000000 )
                  (  0.0000000  0.0000000 -1.0000000 )


      isym = 32     inv.  90 deg rotation - cart. axis [0,0,1]   

 cryst.   s(32) = (     0         -1          0      )
                  (     1          0          0      )
                  (     0          0         -1      )

 cart.    s(32) = (  0.0000000  1.0000000  0.0000000 )
                  ( -1.0000000  0.0000000  0.0000000 )
                  (  0.0000000  0.0000000 -1.0000000 )


      isym = 33     inv. 180 deg rotation - cart. axis [1,0,1]   

 cryst.   s(33) = (     0          0         -1      )
                  (     0          1          0      )
                  (    -1          0          0      )

 cart.    s(33) = (  0.0000000  0.0000000 -1.0000000 )
                  (  0.0000000  1.0000000  0.0000000 )
                  ( -1.0000000  0.0000000  0.0000000 )


      isym = 34     inv. 180 deg rotation - cart. axis [-1,0,1]  

 cryst.   s(34) = (     0          0          1      )
                  (     0          1          0      )
                  (     1          0          0      )

 cart.    s(34) = (  0.0000000  0.0000000  1.0000000 )
                  (  0.0000000  1.0000000  0.0000000 )
                  (  1.0000000  0.0000000  0.0000000 )


      isym = 35     inv.  90 deg rotation - cart. axis [0,1,0]   

 cryst.   s(35) = (     0          0          1      )
                  (     0         -1          0      )
                  (    -1          0          0      )

 cart.    s(35) = (  0.0000000  0.0000000 -1.0000000 )
                  (  0.0000000 -1.0000000  0.0000000 )
                  (  1.0000000  0.0000000  0.0000000 )


      isym = 36     inv.  90 deg rotation - cart. axis [0,-1,0]  

 cryst.   s(36) = (     0          0         -1      )
                  (     0         -1          0      )
                  (     1          0          0      )

 cart.    s(36) = (  0.0000000  0.0000000  1.0000000 )
                  (  0.0000000 -1.0000000  0.0000000 )
                  ( -1.0000000  0.0000000  0.0000000 )


      isym = 37     inv. 180 deg rotation - cart. axis [0,1,1]   

 cryst.   s(37) = (     1          0          0      )
                  (     0          0         -1      )
                  (     0         -1          0      )

 cart.    s(37) = (  1.0000000  0.0000000  0.0000000 )
                  (  0.0000000  0.0000000 -1.0000000 )
                  (  0.0000000 -1.0000000  0.0000000 )


      isym = 38     inv. 180 deg rotation - cart. axis [0,1,-1]  

 cryst.   s(38) = (     1          0          0      )
                  (     0          0          1      )
                  (     0          1          0      )

 cart.    s(38) = (  1.0000000  0.0000000  0.0000000 )
                  (  0.0000000  0.0000000  1.0000000 )
                  (  0.0000000  1.0000000  0.0000000 )


      isym = 39     inv.  90 deg rotation - cart. axis [-1,0,0]  

 cryst.   s(39) = (    -1          0          0      )
                  (     0          0          1      )
                  (     0         -1          0      )

 cart.    s(39) = ( -1.0000000  0.0000000  0.0000000 )
                  (  0.0000000  0.0000000 -1.0000000 )
                  (  0.0000000  1.0000000  0.0000000 )


      isym = 40     inv.  90 deg rotation - cart. axis [1,0,0]   

 cryst.   s(40) = (    -1          0          0      )
                  (     0          0         -1      )
                  (     0          1          0      )

 cart.    s(40) = ( -1.0000000  0.0000000  0.0000000 )
                  (  0.0000000  0.0000000  1.0000000 )
                  (  0.0000000 -1.0000000  0.0000000 )


      isym = 41     inv. 120 deg rotation - cart. axis [-1,-1,-1]

 cryst.   s(41) = (     0          0         -1      )
                  (    -1          0          0      )
                  (     0         -1          0      )

 cart.    s(41) = (  0.0000000 -1.0000000  0.0000000 )
                  (  0.0000000  0.0000000 -1.0000000 )
                  ( -1.0000000  0.0000000  0.0000000 )


      isym = 42     inv. 120 deg rotation - cart. axis [-1,1,1]  

 cryst.   s(42) = (     0          0          1      )
                  (     1          0          0      )
                  (     0         -1          0      )

 cart.    s(42) = (  0.0000000  1.0000000  0.0000000 )
                  (  0.0000000  0.0000000 -1.0000000 )
                  (  1.0000000  0.0000000  0.0000000 )


      isym = 43     inv. 120 deg rotation - cart. axis [1,1,-1]  

 cryst.   s(43) = (     0          0          1      )
                  (    -1          0          0      )
                  (     0          1          0      )

 cart.    s(43) = (  0.0000000 -1.0000000  0.0000000 )
                  (  0.0000000  0.0000000  1.0000000 )
                  (  1.0000000  0.0000000  0.0000000 )


      isym = 44     inv. 120 deg rotation - cart. axis [1,-1,1]  

 cryst.   s(44) = (     0          0         -1      )
                  (     1          0          0      )
                  (     0          1          0      )

 cart.    s(44) = (  0.0000000  1.0000000  0.0000000 )
                  (  0.0000000  0.0000000  1.0000000 )
                  ( -1.0000000  0.0000000  0.0000000 )


      isym = 45     inv. 120 deg rotation - cart. axis [1,1,1]   

 cryst.   s(45) = (     0         -1          0      )
                  (     0          0         -1      )
                  (    -1          0          0      )

 cart.    s(45) = (  0.0000000  0.0000000 -1.0000000 )
                  ( -1.0000000  0.0000000  0.0000000 )
                  (  0.0000000 -1.0000000  0.0000000 )


      isym = 46     inv. 120 deg rotation - cart. axis [-1,1,-1] 

 cryst.   s(46) = (     0          1          0      )
                  (     0          0          1      )
                  (    -1          0          0      )

 cart.    s(46) = (  0.0000000  0.0000000 -1.0000000 )
                  (  1.0000000  0.0000000  0.0000000 )
                  (  0.0000000  1.0000000  0.0000000 )


      isym = 47     inv. 120 deg rotation - cart. axis [1,-1,-1] 

 cryst.   s(47) = (     0          1          0      )
                  (     0          0         -1      )
                  (     1          0          0      )

 cart.    s(47) = (  0.0000000  0.0000000  1.0000000 )
                  (  1.0000000  0.0000000  0.0000000 )
                  (  0.0000000 -1.0000000  0.0000000 )


      isym = 48     inv. 120 deg rotation - cart. axis [-1,-1,1] 

 cryst.   s(48) = (     0         -1          0      )
                  (     0          0          1      )
                  (     1          0          0      )

 cart.    s(48) = (  0.0000000  0.0000000  1.0000000 )
                  ( -1.0000000  0.0000000  0.0000000 )
                  (  0.0000000  1.0000000  0.0000000 )


   Cartesian axes

     site n.     atom                  positions (alat units)
         1        Ca     tau(   1) = (   0.0000000   0.0000000   0.0000000  )
         2        Ce     tau(   2) = (   0.5000000   0.5000000   0.5000000  )
         3        Se     tau(   3) = (   0.5000000   0.0000000   0.0000000  )
         4        Se     tau(   4) = (   0.0000000   0.5000000   0.0000000  )
         5        Se     tau(   5) = (   0.0000000   0.0000000   0.5000000  )

   Crystallographic axes

     site n.     atom                  positions (cryst. coord.)
         1        Ca     tau(   1) = (  0.0000000  0.0000000  0.0000000  )
         2        Ce     tau(   2) = (  0.5000000  0.5000000  0.5000000  )
         3        Se     tau(   3) = (  0.5000000  0.0000000  0.0000000  )
         4        Se     tau(   4) = (  0.0000000  0.5000000  0.0000000  )
         5        Se     tau(   5) = (  0.0000000  0.0000000  0.5000000  )

     number of k points=    84  Methfessel-Paxton smearing, width (Ry)=  0.0100
                       cart. coord. in units 2pi/alat
        k(    1) = (   0.0000000   0.0000000   0.0000000), wk =   0.0011574
        k(    2) = (   0.0000000   0.0000000   0.0833333), wk =   0.0069444
        k(    3) = (   0.0000000   0.0000000   0.1666667), wk =   0.0069444
        k(    4) = (   0.0000000   0.0000000   0.2500000), wk =   0.0069444
        k(    5) = (   0.0000000   0.0000000   0.3333333), wk =   0.0069444
        k(    6) = (   0.0000000   0.0000000   0.4166667), wk =   0.0069444
        k(    7) = (   0.0000000   0.0000000  -0.5000000), wk =   0.0034722
        k(    8) = (   0.0000000   0.0833333   0.0833333), wk =   0.0138889
        k(    9) = (   0.0000000   0.0833333   0.1666667), wk =   0.0277778
        k(   10) = (   0.0000000   0.0833333   0.2500000), wk =   0.0277778
        k(   11) = (   0.0000000   0.0833333   0.3333333), wk =   0.0277778
        k(   12) = (   0.0000000   0.0833333   0.4166667), wk =   0.0277778
        k(   13) = (   0.0000000   0.0833333  -0.5000000), wk =   0.0138889
        k(   14) = (   0.0000000   0.1666667   0.1666667), wk =   0.0138889
        k(   15) = (   0.0000000   0.1666667   0.2500000), wk =   0.0277778
        k(   16) = (   0.0000000   0.1666667   0.3333333), wk =   0.0277778
        k(   17) = (   0.0000000   0.1666667   0.4166667), wk =   0.0277778
        k(   18) = (   0.0000000   0.1666667  -0.5000000), wk =   0.0138889
        k(   19) = (   0.0000000   0.2500000   0.2500000), wk =   0.0138889
        k(   20) = (   0.0000000   0.2500000   0.3333333), wk =   0.0277778
        k(   21) = (   0.0000000   0.2500000   0.4166667), wk =   0.0277778
        k(   22) = (   0.0000000   0.2500000  -0.5000000), wk =   0.0138889
        k(   23) = (   0.0000000   0.3333333   0.3333333), wk =   0.0138889
        k(   24) = (   0.0000000   0.3333333   0.4166667), wk =   0.0277778
        k(   25) = (   0.0000000   0.3333333  -0.5000000), wk =   0.0138889
        k(   26) = (   0.0000000   0.4166667   0.4166667), wk =   0.0138889
        k(   27) = (   0.0000000   0.4166667  -0.5000000), wk =   0.0138889
        k(   28) = (   0.0000000  -0.5000000  -0.5000000), wk =   0.0034722
        k(   29) = (   0.0833333   0.0833333   0.0833333), wk =   0.0092593
        k(   30) = (   0.0833333   0.0833333   0.1666667), wk =   0.0277778
        k(   31) = (   0.0833333   0.0833333   0.2500000), wk =   0.0277778
        k(   32) = (   0.0833333   0.0833333   0.3333333), wk =   0.0277778
        k(   33) = (   0.0833333   0.0833333   0.4166667), wk =   0.0277778
        k(   34) = (   0.0833333   0.0833333  -0.5000000), wk =   0.0138889
        k(   35) = (   0.0833333   0.1666667   0.1666667), wk =   0.0277778
        k(   36) = (   0.0833333   0.1666667   0.2500000), wk =   0.0555556
        k(   37) = (   0.0833333   0.1666667   0.3333333), wk =   0.0555556
        k(   38) = (   0.0833333   0.1666667   0.4166667), wk =   0.0555556
        k(   39) = (   0.0833333   0.1666667  -0.5000000), wk =   0.0277778
        k(   40) = (   0.0833333   0.2500000   0.2500000), wk =   0.0277778
        k(   41) = (   0.0833333   0.2500000   0.3333333), wk =   0.0555556
        k(   42) = (   0.0833333   0.2500000   0.4166667), wk =   0.0555556
        k(   43) = (   0.0833333   0.2500000  -0.5000000), wk =   0.0277778
        k(   44) = (   0.0833333   0.3333333   0.3333333), wk =   0.0277778
        k(   45) = (   0.0833333   0.3333333   0.4166667), wk =   0.0555556
        k(   46) = (   0.0833333   0.3333333  -0.5000000), wk =   0.0277778
        k(   47) = (   0.0833333   0.4166667   0.4166667), wk =   0.0277778
        k(   48) = (   0.0833333   0.4166667  -0.5000000), wk =   0.0277778
        k(   49) = (   0.0833333  -0.5000000  -0.5000000), wk =   0.0069444
        k(   50) = (   0.1666667   0.1666667   0.1666667), wk =   0.0092593
        k(   51) = (   0.1666667   0.1666667   0.2500000), wk =   0.0277778
        k(   52) = (   0.1666667   0.1666667   0.3333333), wk =   0.0277778
        k(   53) = (   0.1666667   0.1666667   0.4166667), wk =   0.0277778
        k(   54) = (   0.1666667   0.1666667  -0.5000000), wk =   0.0138889
        k(   55) = (   0.1666667   0.2500000   0.2500000), wk =   0.0277778
        k(   56) = (   0.1666667   0.2500000   0.3333333), wk =   0.0555556
        k(   57) = (   0.1666667   0.2500000   0.4166667), wk =   0.0555556
        k(   58) = (   0.1666667   0.2500000  -0.5000000), wk =   0.0277778
        k(   59) = (   0.1666667   0.3333333   0.3333333), wk =   0.0277778
        k(   60) = (   0.1666667   0.3333333   0.4166667), wk =   0.0555556
        k(   61) = (   0.1666667   0.3333333  -0.5000000), wk =   0.0277778
        k(   62) = (   0.1666667   0.4166667   0.4166667), wk =   0.0277778
        k(   63) = (   0.1666667   0.4166667  -0.5000000), wk =   0.0277778
        k(   64) = (   0.1666667  -0.5000000  -0.5000000), wk =   0.0069444
        k(   65) = (   0.2500000   0.2500000   0.2500000), wk =   0.0092593
        k(   66) = (   0.2500000   0.2500000   0.3333333), wk =   0.0277778
        k(   67) = (   0.2500000   0.2500000   0.4166667), wk =   0.0277778
        k(   68) = (   0.2500000   0.2500000  -0.5000000), wk =   0.0138889
        k(   69) = (   0.2500000   0.3333333   0.3333333), wk =   0.0277778
        k(   70) = (   0.2500000   0.3333333   0.4166667), wk =   0.0555556
        k(   71) = (   0.2500000   0.3333333  -0.5000000), wk =   0.0277778
        k(   72) = (   0.2500000   0.4166667   0.4166667), wk =   0.0277778
        k(   73) = (   0.2500000   0.4166667  -0.5000000), wk =   0.0277778
        k(   74) = (   0.2500000  -0.5000000  -0.5000000), wk =   0.0069444
        k(   75) = (   0.3333333   0.3333333   0.3333333), wk =   0.0092593
        k(   76) = (   0.3333333   0.3333333   0.4166667), wk =   0.0277778
        k(   77) = (   0.3333333   0.3333333  -0.5000000), wk =   0.0138889
        k(   78) = (   0.3333333   0.4166667   0.4166667), wk =   0.0277778
        k(   79) = (   0.3333333   0.4166667  -0.5000000), wk =   0.0277778
        k(   80) = (   0.3333333  -0.5000000  -0.5000000), wk =   0.0069444
        k(   81) = (   0.4166667   0.4166667   0.4166667), wk =   0.0092593
        k(   82) = (   0.4166667   0.4166667  -0.5000000), wk =   0.0138889
        k(   83) = (   0.4166667  -0.5000000  -0.5000000), wk =   0.0069444
        k(   84) = (  -0.5000000  -0.5000000  -0.5000000), wk =   0.0011574

                       cryst. coord.
        k(    1) = (   0.0000000   0.0000000   0.0000000), wk =   0.0011574
        k(    2) = (   0.0000000   0.0000000   0.0833333), wk =   0.0069444
        k(    3) = (   0.0000000   0.0000000   0.1666667), wk =   0.0069444
        k(    4) = (   0.0000000   0.0000000   0.2500000), wk =   0.0069444
        k(    5) = (   0.0000000   0.0000000   0.3333333), wk =   0.0069444
        k(    6) = (   0.0000000   0.0000000   0.4166667), wk =   0.0069444
        k(    7) = (   0.0000000   0.0000000  -0.5000000), wk =   0.0034722
        k(    8) = (   0.0000000   0.0833333   0.0833333), wk =   0.0138889
        k(    9) = (   0.0000000   0.0833333   0.1666667), wk =   0.0277778
        k(   10) = (   0.0000000   0.0833333   0.2500000), wk =   0.0277778
        k(   11) = (   0.0000000   0.0833333   0.3333333), wk =   0.0277778
        k(   12) = (   0.0000000   0.0833333   0.4166667), wk =   0.0277778
        k(   13) = (   0.0000000   0.0833333  -0.5000000), wk =   0.0138889
        k(   14) = (   0.0000000   0.1666667   0.1666667), wk =   0.0138889
        k(   15) = (   0.0000000   0.1666667   0.2500000), wk =   0.0277778
        k(   16) = (   0.0000000   0.1666667   0.3333333), wk =   0.0277778
        k(   17) = (   0.0000000   0.1666667   0.4166667), wk =   0.0277778
        k(   18) = (   0.0000000   0.1666667  -0.5000000), wk =   0.0138889
        k(   19) = (   0.0000000   0.2500000   0.2500000), wk =   0.0138889
        k(   20) = (   0.0000000   0.2500000   0.3333333), wk =   0.0277778
        k(   21) = (   0.0000000   0.2500000   0.4166667), wk =   0.0277778
        k(   22) = (   0.0000000   0.2500000  -0.5000000), wk =   0.0138889
        k(   23) = (   0.0000000   0.3333333   0.3333333), wk =   0.0138889
        k(   24) = (   0.0000000   0.3333333   0.4166667), wk =   0.0277778
        k(   25) = (   0.0000000   0.3333333  -0.5000000), wk =   0.0138889
        k(   26) = (   0.0000000   0.4166667   0.4166667), wk =   0.0138889
        k(   27) = (   0.0000000   0.4166667  -0.5000000), wk =   0.0138889
        k(   28) = (   0.0000000  -0.5000000  -0.5000000), wk =   0.0034722
        k(   29) = (   0.0833333   0.0833333   0.0833333), wk =   0.0092593
        k(   30) = (   0.0833333   0.0833333   0.1666667), wk =   0.0277778
        k(   31) = (   0.0833333   0.0833333   0.2500000), wk =   0.0277778
        k(   32) = (   0.0833333   0.0833333   0.3333333), wk =   0.0277778
        k(   33) = (   0.0833333   0.0833333   0.4166667), wk =   0.0277778
        k(   34) = (   0.0833333   0.0833333  -0.5000000), wk =   0.0138889
        k(   35) = (   0.0833333   0.1666667   0.1666667), wk =   0.0277778
        k(   36) = (   0.0833333   0.1666667   0.2500000), wk =   0.0555556
        k(   37) = (   0.0833333   0.1666667   0.3333333), wk =   0.0555556
        k(   38) = (   0.0833333   0.1666667   0.4166667), wk =   0.0555556
        k(   39) = (   0.0833333   0.1666667  -0.5000000), wk =   0.0277778
        k(   40) = (   0.0833333   0.2500000   0.2500000), wk =   0.0277778
        k(   41) = (   0.0833333   0.2500000   0.3333333), wk =   0.0555556
        k(   42) = (   0.0833333   0.2500000   0.4166667), wk =   0.0555556
        k(   43) = (   0.0833333   0.2500000  -0.5000000), wk =   0.0277778
        k(   44) = (   0.0833333   0.3333333   0.3333333), wk =   0.0277778
        k(   45) = (   0.0833333   0.3333333   0.4166667), wk =   0.0555556
        k(   46) = (   0.0833333   0.3333333  -0.5000000), wk =   0.0277778
        k(   47) = (   0.0833333   0.4166667   0.4166667), wk =   0.0277778
        k(   48) = (   0.0833333   0.4166667  -0.5000000), wk =   0.0277778
        k(   49) = (   0.0833333  -0.5000000  -0.5000000), wk =   0.0069444
        k(   50) = (   0.1666667   0.1666667   0.1666667), wk =   0.0092593
        k(   51) = (   0.1666667   0.1666667   0.2500000), wk =   0.0277778
        k(   52) = (   0.1666667   0.1666667   0.3333333), wk =   0.0277778
        k(   53) = (   0.1666667   0.1666667   0.4166667), wk =   0.0277778
        k(   54) = (   0.1666667   0.1666667  -0.5000000), wk =   0.0138889
        k(   55) = (   0.1666667   0.2500000   0.2500000), wk =   0.0277778
        k(   56) = (   0.1666667   0.2500000   0.3333333), wk =   0.0555556
        k(   57) = (   0.1666667   0.2500000   0.4166667), wk =   0.0555556
        k(   58) = (   0.1666667   0.2500000  -0.5000000), wk =   0.0277778
        k(   59) = (   0.1666667   0.3333333   0.3333333), wk =   0.0277778
        k(   60) = (   0.1666667   0.3333333   0.4166667), wk =   0.0555556
        k(   61) = (   0.1666667   0.3333333  -0.5000000), wk =   0.0277778
        k(   62) = (   0.1666667   0.4166667   0.4166667), wk =   0.0277778
        k(   63) = (   0.1666667   0.4166667  -0.5000000), wk =   0.0277778
        k(   64) = (   0.1666667  -0.5000000  -0.5000000), wk =   0.0069444
        k(   65) = (   0.2500000   0.2500000   0.2500000), wk =   0.0092593
        k(   66) = (   0.2500000   0.2500000   0.3333333), wk =   0.0277778
        k(   67) = (   0.2500000   0.2500000   0.4166667), wk =   0.0277778
        k(   68) = (   0.2500000   0.2500000  -0.5000000), wk =   0.0138889
        k(   69) = (   0.2500000   0.3333333   0.3333333), wk =   0.0277778
        k(   70) = (   0.2500000   0.3333333   0.4166667), wk =   0.0555556
        k(   71) = (   0.2500000   0.3333333  -0.5000000), wk =   0.0277778
        k(   72) = (   0.2500000   0.4166667   0.4166667), wk =   0.0277778
        k(   73) = (   0.2500000   0.4166667  -0.5000000), wk =   0.0277778
        k(   74) = (   0.2500000  -0.5000000  -0.5000000), wk =   0.0069444
        k(   75) = (   0.3333333   0.3333333   0.3333333), wk =   0.0092593
        k(   76) = (   0.3333333   0.3333333   0.4166667), wk =   0.0277778
        k(   77) = (   0.3333333   0.3333333  -0.5000000), wk =   0.0138889
        k(   78) = (   0.3333333   0.4166667   0.4166667), wk =   0.0277778
        k(   79) = (   0.3333333   0.4166667  -0.5000000), wk =   0.0277778
        k(   80) = (   0.3333333  -0.5000000  -0.5000000), wk =   0.0069444
        k(   81) = (   0.4166667   0.4166667   0.4166667), wk =   0.0092593
        k(   82) = (   0.4166667   0.4166667  -0.5000000), wk =   0.0138889
        k(   83) = (   0.4166667  -0.5000000  -0.5000000), wk =   0.0069444
        k(   84) = (  -0.5000000  -0.5000000  -0.5000000), wk =   0.0011574

     Dense  grid:   320461 G-vectors     FFT dimensions: (  90,  90,  90)

     Smooth grid:   113369 G-vectors     FFT dimensions: (  64,  64,  64)

     Dynamical RAM for                 wfc:       0.65 MB

     Dynamical RAM for     wfc (w. buffer):      55.10 MB

     Dynamical RAM for           str. fact:       1.83 MB

     Dynamical RAM for           local pot:       0.00 MB

     Dynamical RAM for          nlocal pot:       1.62 MB

     Dynamical RAM for                qrad:       9.13 MB

     Dynamical RAM for          rho,v,vnew:       4.06 MB

     Dynamical RAM for               rhoin:       1.35 MB

     Dynamical RAM for            rho*nmix:       9.78 MB

     Dynamical RAM for           G-vectors:       2.40 MB

     Dynamical RAM for          h,s,v(r/c):       0.11 MB

     Dynamical RAM for          <psi|beta>:       0.02 MB

     Dynamical RAM for                 psi:       1.30 MB

     Dynamical RAM for                hpsi:       1.30 MB

     Dynamical RAM for                spsi:       1.30 MB

     Dynamical RAM for      wfcinit/wfcrot:       1.81 MB

     Dynamical RAM for           addusdens:     115.52 MB

     Dynamical RAM for          addusforce:     118.29 MB

     Dynamical RAM for         addusstress:     122.86 MB

     Estimated static dynamical RAM per process >      81.65 MB

     Estimated max dynamical RAM per process >     214.29 MB

     Estimated total dynamical RAM >       1.67 GB

     Initial potential from superposition of free atoms

     starting charge      38.9684, renormalised to      39.0000
     Starting wfcs are   33 randomized atomic wfcs
     Checking if some PAW data can be deallocated... 
       PAW data deallocated on    6 nodes for type:  1
       PAW data deallocated on    6 nodes for type:  2
       PAW data deallocated on    4 nodes for type:  3

     total cpu time spent up to now is       48.9 secs

     Self-consistent Calculation

     iteration #  1     ecut=    80.00 Ry     beta= 0.30
     Davidson diagonalization with overlap

---- Real-time Memory Report at c_bands before calling an iterative solver
           180 MiB given to the printing process from OS
             0 MiB allocation reported by mallinfo(arena+hblkhd)
         52582 MiB available memory on the node where the printing process lives
------------------
     ethr =  1.00E-02,  avg # of iterations =  2.0

     total cpu time spent up to now is      153.0 secs

     total energy              =   -1173.41764835 Ry
     estimated scf accuracy    <       0.48581306 Ry

     iteration #  2     ecut=    80.00 Ry     beta= 0.30
     Davidson diagonalization with overlap

---- Real-time Memory Report at c_bands before calling an iterative solver
           259 MiB given to the printing process from OS
             0 MiB allocation reported by mallinfo(arena+hblkhd)
         51319 MiB available memory on the node where the printing process lives
------------------
     ethr =  1.25E-03,  avg # of iterations =  4.3

     total cpu time spent up to now is      342.6 secs

     total energy              =   -1173.52405676 Ry
     estimated scf accuracy    <       0.04701580 Ry

     iteration #  3     ecut=    80.00 Ry     beta= 0.30
     Davidson diagonalization with overlap

---- Real-time Memory Report at c_bands before calling an iterative solver
           259 MiB given to the printing process from OS
             0 MiB allocation reported by mallinfo(arena+hblkhd)
         51429 MiB available memory on the node where the printing process lives
------------------
     ethr =  1.21E-04,  avg # of iterations =  6.5

     total cpu time spent up to now is      616.2 secs

     total energy              =   -1173.54815178 Ry
     estimated scf accuracy    <       0.02741635 Ry

     iteration #  4     ecut=    80.00 Ry     beta= 0.30
     Davidson diagonalization with overlap

---- Real-time Memory Report at c_bands before calling an iterative solver
           260 MiB given to the printing process from OS
             0 MiB allocation reported by mallinfo(arena+hblkhd)
         51156 MiB available memory on the node where the printing process lives
------------------
     ethr =  7.03E-05,  avg # of iterations =  4.7

     total cpu time spent up to now is      822.4 secs

     total energy              =   -1173.55935491 Ry
     estimated scf accuracy    <       0.03449983 Ry

     iteration #  5     ecut=    80.00 Ry     beta= 0.30
     Davidson diagonalization with overlap

---- Real-time Memory Report at c_bands before calling an iterative solver
           260 MiB given to the printing process from OS
             0 MiB allocation reported by mallinfo(arena+hblkhd)
         51156 MiB available memory on the node where the printing process lives
------------------
     ethr =  7.03E-05,  avg # of iterations =  2.1

     total cpu time spent up to now is      935.6 secs

     total energy              =   -1173.55791115 Ry
     estimated scf accuracy    <       0.01320526 Ry

     iteration #  6     ecut=    80.00 Ry     beta= 0.30
     Davidson diagonalization with overlap

---- Real-time Memory Report at c_bands before calling an iterative solver
           261 MiB given to the printing process from OS
             0 MiB allocation reported by mallinfo(arena+hblkhd)
         51520 MiB available memory on the node where the printing process lives
------------------
     ethr =  3.39E-05,  avg # of iterations =  2.1

     total cpu time spent up to now is     1048.5 secs

     total energy              =   -1173.55813345 Ry
     estimated scf accuracy    <       0.00210530 Ry

     iteration #  7     ecut=    80.00 Ry     beta= 0.30
     Davidson diagonalization with overlap

---- Real-time Memory Report at c_bands before calling an iterative solver
           261 MiB given to the printing process from OS
             0 MiB allocation reported by mallinfo(arena+hblkhd)
         51134 MiB available memory on the node where the printing process lives
------------------
     c_bands:  1 eigenvalues not converged
     ethr =  5.40E-06,  avg # of iterations =  8.5

     total cpu time spent up to now is     1393.3 secs

     total energy              =   -1173.55909535 Ry
     estimated scf accuracy    <       0.00426073 Ry

     iteration #  8     ecut=    80.00 Ry     beta= 0.30
     Davidson diagonalization with overlap

---- Real-time Memory Report at c_bands before calling an iterative solver
           262 MiB given to the printing process from OS
             0 MiB allocation reported by mallinfo(arena+hblkhd)
         51208 MiB available memory on the node where the printing process lives
------------------
     ethr =  5.40E-06,  avg # of iterations =  3.2

     total cpu time spent up to now is     1552.1 secs

     total energy              =   -1173.55984043 Ry
     estimated scf accuracy    <       0.00001624 Ry

     iteration #  9     ecut=    80.00 Ry     beta= 0.30
     Davidson diagonalization with overlap

---- Real-time Memory Report at c_bands before calling an iterative solver
           262 MiB given to the printing process from OS
             0 MiB allocation reported by mallinfo(arena+hblkhd)
         51200 MiB available memory on the node where the printing process lives
------------------
     c_bands:  1 eigenvalues not converged
     ethr =  4.17E-08,  avg # of iterations = 11.1

     total cpu time spent up to now is     1987.6 secs

     total energy              =   -1173.55986442 Ry
     estimated scf accuracy    <       0.00026347 Ry

     iteration # 10     ecut=    80.00 Ry     beta= 0.30
     Davidson diagonalization with overlap

---- Real-time Memory Report at c_bands before calling an iterative solver
           263 MiB given to the printing process from OS
             0 MiB allocation reported by mallinfo(arena+hblkhd)
         51100 MiB available memory on the node where the printing process lives
------------------
     ethr =  4.17E-08,  avg # of iterations =  7.0

     total cpu time spent up to now is     2273.9 secs

     total energy              =   -1173.55991862 Ry
     estimated scf accuracy    <       0.00000519 Ry

     iteration # 11     ecut=    80.00 Ry     beta= 0.30
     Davidson diagonalization with overlap

---- Real-time Memory Report at c_bands before calling an iterative solver
           263 MiB given to the printing process from OS
             0 MiB allocation reported by mallinfo(arena+hblkhd)
         51130 MiB available memory on the node where the printing process lives
------------------
     ethr =  1.33E-08,  avg # of iterations =  2.4

     total cpu time spent up to now is     2397.8 secs

     total energy              =   -1173.55991993 Ry
     estimated scf accuracy    <       0.00000035 Ry

     iteration # 12     ecut=    80.00 Ry     beta= 0.30
     Davidson diagonalization with overlap

---- Real-time Memory Report at c_bands before calling an iterative solver
           263 MiB given to the printing process from OS
             0 MiB allocation reported by mallinfo(arena+hblkhd)
         51182 MiB available memory on the node where the printing process lives
------------------
     ethr =  8.95E-10,  avg # of iterations =  5.6

     total cpu time spent up to now is     2636.2 secs

     total energy              =   -1173.55992001 Ry
     estimated scf accuracy    <       0.00000145 Ry

     iteration # 13     ecut=    80.00 Ry     beta= 0.30
     Davidson diagonalization with overlap

---- Real-time Memory Report at c_bands before calling an iterative solver
           263 MiB given to the printing process from OS
             0 MiB allocation reported by mallinfo(arena+hblkhd)
         51207 MiB available memory on the node where the printing process lives
------------------
     ethr =  8.95E-10,  avg # of iterations =  5.6

     total cpu time spent up to now is     2875.3 secs

     total energy              =   -1173.55992030 Ry
     estimated scf accuracy    <       0.00000003 Ry

     iteration # 14     ecut=    80.00 Ry     beta= 0.30
     Davidson diagonalization with overlap

---- Real-time Memory Report at c_bands before calling an iterative solver
           263 MiB given to the printing process from OS
             0 MiB allocation reported by mallinfo(arena+hblkhd)
         51241 MiB available memory on the node where the printing process lives
------------------
     ethr =  6.72E-11,  avg # of iterations =  4.3

     total cpu time spent up to now is     3067.0 secs

     total energy              =   -1173.55992030 Ry
     estimated scf accuracy    <       0.00000001 Ry

     iteration # 15     ecut=    80.00 Ry     beta= 0.30
     Davidson diagonalization with overlap

---- Real-time Memory Report at c_bands before calling an iterative solver
           263 MiB given to the printing process from OS
             0 MiB allocation reported by mallinfo(arena+hblkhd)
         51288 MiB available memory on the node where the printing process lives
------------------
     ethr =  3.20E-11,  avg # of iterations =  4.8

     total cpu time spent up to now is     3273.1 secs

     total energy              =   -1173.55992030 Ry
     estimated scf accuracy    <          1.7E-09 Ry

     iteration # 16     ecut=    80.00 Ry     beta= 0.30
     Davidson diagonalization with overlap

---- Real-time Memory Report at c_bands before calling an iterative solver
           263 MiB given to the printing process from OS
             0 MiB allocation reported by mallinfo(arena+hblkhd)
         51178 MiB available memory on the node where the printing process lives
------------------
     ethr =  4.35E-12,  avg # of iterations =  5.0

     total cpu time spent up to now is     3496.2 secs

     total energy              =   -1173.55992030 Ry
     estimated scf accuracy    <          1.3E-09 Ry

     iteration # 17     ecut=    80.00 Ry     beta= 0.30
     Davidson diagonalization with overlap

---- Real-time Memory Report at c_bands before calling an iterative solver
           263 MiB given to the printing process from OS
             0 MiB allocation reported by mallinfo(arena+hblkhd)
         51012 MiB available memory on the node where the printing process lives
------------------
     ethr =  3.29E-12,  avg # of iterations =  2.3

     total cpu time spent up to now is     3619.7 secs

     total energy              =   -1173.55992030 Ry
     estimated scf accuracy    <          5.4E-10 Ry

     iteration # 18     ecut=    80.00 Ry     beta= 0.30
     Davidson diagonalization with overlap

---- Real-time Memory Report at c_bands before calling an iterative solver
           263 MiB given to the printing process from OS
             0 MiB allocation reported by mallinfo(arena+hblkhd)
         51271 MiB available memory on the node where the printing process lives
------------------
     ethr =  1.38E-12,  avg # of iterations =  4.9

     total cpu time spent up to now is     3833.1 secs

     End of self-consistent calculation

          k = 0.0000 0.0000 0.0000 ( 14147 PWs)   bands (ev):

   -34.1076 -32.2696 -15.2170 -15.2170 -15.2170 -14.7822 -14.7822 -14.7822
    -7.0430  -6.3713  -6.3713   2.6004   2.6004   2.6004   4.1085   4.1085
     4.1085   4.8933   4.8933   4.8933   5.5168   5.5168   5.8202   5.8626

     occupation numbers 
     1.0000   1.0000   1.0000   1.0000   1.0000   1.0000   1.0000   1.0000
     1.0000   1.0000   1.0000   1.0000   1.0000   1.0000   1.0000   1.0000
     1.0000  -0.0106  -0.0106  -0.0106  -0.0000  -0.0000  -0.0000  -0.0000

          k = 0.0000 0.0000 0.0833 ( 14114 PWs)   bands (ev):

   -34.1076 -32.2696 -15.2184 -15.2170 -15.2170 -14.7827 -14.7822 -14.7822
    -7.0295  -6.3736  -6.3704   2.5818   2.6080   2.6080   4.0200   4.0526
     4.0526   4.7062   4.8662   4.8662   5.5502   5.6345   5.8274   5.9095

     occupation numbers 
     1.0000   1.0000   1.0000   1.0000   1.0000   1.0000   1.0000   1.0000
     1.0000   1.0000   1.0000   1.0000   1.0000   1.0000   1.0000   1.0000
     1.0000   0.1114  -0.0181  -0.0181  -0.0000  -0.0000  -0.0000  -0.0000

          k = 0.0000 0.0000 0.1667 ( 14106 PWs)   bands (ev):

   -34.1076 -32.2695 -15.2221 -15.2169 -15.2169 -14.7841 -14.7821 -14.7821
    -6.9913  -6.3812  -6.3681   2.5405   2.6300   2.6300   3.8259   3.9170
     3.9170   4.3159   4.7968   4.7968   5.6433   5.8473   5.9099   6.1374

     occupation numbers 
     1.0000   1.0000   1.0000   1.0000   1.0000   1.0000   1.0000   1.0000
     1.0000   1.0000   1.0000   1.0000   1.0000   1.0000   1.0000   1.0000
     1.0000   1.0024  -0.0354  -0.0354  -0.0000  -0.0000  -0.0000  -0.0000

          k = 0.0000 0.0000 0.2500 ( 14138 PWs)   bands (ev):

   -34.1076 -32.2695 -15.2271 -15.2167 -15.2167 -14.7859 -14.7820 -14.7820
    -6.9357  -6.3947  -6.3648   2.5104   2.6637   2.6637   3.6217   3.7569
     3.7569   3.8785   4.7093   4.7093   5.7797   5.8753   6.2293   6.4302

     occupation numbers 
     1.0000   1.0000   1.0000   1.0000   1.0000   1.0000   1.0000   1.0000
     1.0000   1.0000   1.0000   1.0000   1.0000   1.0000   1.0000   1.0000
     1.0000   1.0000   0.1000   0.1000  -0.0000  -0.0000  -0.0000  -0.0000

          k = 0.0000 0.0000 0.3333 ( 14158 PWs)   bands (ev):

   -34.1076 -32.2695 -15.2321 -15.2166 -15.2166 -14.7878 -14.7819 -14.7819
    -6.8744  -6.4137  -6.3616   2.5257   2.7032   2.7032   3.4557   3.4638
     3.6127   3.6127   4.6275   4.6275   5.9044   5.9300   6.5156   6.7199

     occupation numbers 
     1.0000   1.0000   1.0000   1.0000   1.0000   1.0000   1.0000   1.0000
     1.0000   1.0000   1.0000   1.0000   1.0000   1.0000   1.0000   1.0000
     1.0000   1.0000   0.5371   0.5371  -0.0000  -0.0000  -0.0000  -0.0000

          k = 0.0000 0.0000 0.4167 ( 14170 PWs)   bands (ev):

   -34.1075 -32.2695 -15.2358 -15.2164 -15.2164 -14.7891 -14.7819 -14.7819
    -6.8240  -6.4329  -6.3592   2.6075   2.7375   2.7375   3.1172   3.3497
     3.5113   3.5113   4.5704   4.5704   5.9264   6.0513   6.7132   6.9384

     occupation numbers 
     1.0000   1.0000   1.0000   1.0000   1.0000   1.0000   1.0000   1.0000
     1.0000   1.0000   1.0000   1.0000   1.0000   1.0000   1.0000   1.0000
     1.0000   1.0000   0.8493   0.8493  -0.0000  -0.0000  -0.0000  -0.0000

          k = 0.0000 0.0000-0.5000 ( 14190 PWs)   bands (ev):

   -34.1075 -32.2695 -15.2371 -15.2164 -15.2164 -14.7896 -14.7819 -14.7819
    -6.8038  -6.4417  -6.3584   2.7054   2.7518   2.7518   2.9270   3.3134
     3.4742   3.4742   4.5500   4.5500   5.9347   6.0986   6.7838   7.0213

     occupation numbers 
     1.0000   1.0000   1.0000   1.0000   1.0000   1.0000   1.0000   1.0000
     1.0000   1.0000   1.0000   1.0000   1.0000   1.0000   1.0000   1.0000
     1.0000   1.0000   0.9258   0.9258  -0.0000  -0.0000  -0.0000  -0.0000

          k = 0.0000 0.0833 0.0833 ( 14125 PWs)   bands (ev):

   -34.1076 -32.2696 -15.2184 -15.2183 -15.2170 -14.7828 -14.7825 -14.7821
    -7.0160  -6.3742  -6.3713   2.5266   2.6160   2.6549   3.8678   4.0007
     4.0899   4.5750   4.8279   4.8372   5.6250   5.6424   5.8820   5.9475

     occupation numbers 
     1.0000   1.0000   1.0000   1.0000   1.0000   1.0000   1.0000   1.0000
     1.0000   1.0000   1.0000   1.0000   1.0000   1.0000   1.0000   1.0000
     1.0000   0.8291  -0.0307  -0.0278  -0.0000  -0.0000  -0.0000  -0.0000

          k = 0.0000 0.0833 0.1667 ( 14150 PWs)   bands (ev):

   -34.1076 -32.2695 -15.2221 -15.2183 -15.2168 -14.7840 -14.7825 -14.7821
    -6.9781  -6.3808  -6.3696   2.4624   2.6391   2.7055   3.6481   3.8731
     4.0168   4.2585   4.7519   4.7631   5.6919   5.8496   5.9170   6.1521

     occupation numbers 
     1.0000   1.0000   1.0000   1.0000   1.0000   1.0000   1.0000   1.0000
     1.0000   1.0000   1.0000   1.0000   1.0000   1.0000   1.0000   1.0000
     1.0000   1.0003  -0.0060  -0.0195  -0.0000  -0.0000  -0.0000  -0.0000

          k = 0.0000 0.0833 0.2500 ( 14161 PWs)   bands (ev):

   -34.1076 -32.2695 -15.2271 -15.2181 -15.2167 -14.7858 -14.7824 -14.7820
    -6.9228  -6.3939  -6.3666   2.4222   2.6746   2.7525   3.4283   3.7206
     3.7902   3.9818   4.6580   4.6699   5.8113   5.9448   6.1361   6.4822

     occupation numbers 
     1.0000   1.0000   1.0000   1.0000   1.0000   1.0000   1.0000   1.0000
     1.0000   1.0000   1.0000   1.0000   1.0000   1.0000   1.0000   1.0000
     1.0000   1.0000   0.3499   0.2822  -0.0000  -0.0000  -0.0000  -0.0000

          k = 0.0000 0.0833 0.3333 ( 14170 PWs)   bands (ev):

   -34.1075 -32.2695 -15.2321 -15.2180 -15.2165 -14.7877 -14.7823 -14.7819
    -6.8619  -6.4123  -6.3635   2.4314   2.7163   2.7912   3.2259   3.4651
     3.5814   3.8430   4.5700   4.5828   5.9560   5.9722   6.4265   6.7220

     occupation numbers 
     1.0000   1.0000   1.0000   1.0000   1.0000   1.0000   1.0000   1.0000
     1.0000   1.0000   1.0000   1.0000   1.0000   1.0000   1.0000   1.0000
     1.0000   1.0000   0.8510   0.7921  -0.0000  -0.0000  -0.0000  -0.0000

          k = 0.0000 0.0833 0.4167 ( 14152 PWs)   bands (ev):

   -34.1075 -32.2695 -15.2358 -15.2179 -15.2164 -14.7890 -14.7823 -14.7818
    -6.8119  -6.4311  -6.3612   2.5069   2.7527   2.7846   3.0470   3.2516
     3.4826   3.7577   4.5082   4.5220   5.9926   6.0765   6.6598   6.8743

     occupation numbers 
     1.0000   1.0000   1.0000   1.0000   1.0000   1.0000   1.0000   1.0000
     1.0000   1.0000   1.0000   1.0000   1.0000   1.0000   1.0000   1.0000
     1.0000   1.0000   1.0148   0.9947  -0.0000  -0.0000  -0.0000  -0.0000

          k = 0.0000 0.0833-0.5000 ( 14170 PWs)   bands (ev):

   -34.1075 -32.2695 -15.2371 -15.2178 -15.2164 -14.7895 -14.7822 -14.7818
    -6.7918  -6.4397  -6.3604   2.6192   2.6843   2.7679   2.9900   3.1844
     3.4462   3.7278   4.4860   4.5003   6.0001   6.1239   6.7581   6.9182

     occupation numbers 
     1.0000   1.0000   1.0000   1.0000   1.0000   1.0000   1.0000   1.0000
     1.0000   1.0000   1.0000   1.0000   1.0000   1.0000   1.0000   1.0000
     1.0000   1.0000   1.0317   1.0227  -0.0000  -0.0000  -0.0000  -0.0000

          k = 0.0000 0.1667 0.1667 ( 14135 PWs)   bands (ev):

   -34.1076 -32.2695 -15.2221 -15.2219 -15.2167 -14.7842 -14.7835 -14.7820
    -6.9408  -6.3821  -6.3728   2.3659   2.6656   2.8004   3.4030   3.7631
     4.0518   4.0697   4.6700   4.6765   5.7790   5.8893   6.0563   6.2342

     occupation numbers 
     1.0000   1.0000   1.0000   1.0000   1.0000   1.0000   1.0000   1.0000
     1.0000   1.0000   1.0000   1.0000   1.0000   1.0000   1.0000   1.0000
     1.0000   1.0000   0.2814   0.2462  -0.0000  -0.0000  -0.0000  -0.0000

          k = 0.0000 0.1667 0.2500 ( 14144 PWs)   bands (ev):

   -34.1076 -32.2695 -15.2271 -15.2219 -15.2166 -14.7857 -14.7836 -14.7819
    -6.8866  -6.3919  -6.3720   2.3011   2.7063   2.8781   3.1638   3.6279
     3.7553   4.0716   4.5670   4.5695   5.8678   6.0909   6.1232   6.5444

     occupation numbers 
     1.0000   1.0000   1.0000   1.0000   1.0000   1.0000   1.0000   1.0000
     1.0000   1.0000   1.0000   1.0000   1.0000   1.0000   1.0000   1.0000
     1.0000   1.0000   0.8635   0.8532  -0.0000  -0.0000  -0.0000  -0.0000

          k = 0.0000 0.1667 0.3333 ( 14160 PWs)   bands (ev):

   -34.1075 -32.2695 -15.2321 -15.2218 -15.2164 -14.7874 -14.7834 -14.7818
    -6.8269  -6.4086  -6.3694   2.2882   2.7545   2.8739   3.0065   3.4724
     3.5016   4.0622   4.4565   4.4641   6.0066   6.1543   6.3191   6.7041

     occupation numbers 
     1.0000   1.0000   1.0000   1.0000   1.0000   1.0000   1.0000   1.0000
     1.0000   1.0000   1.0000   1.0000   1.0000   1.0000   1.0000   1.0000
     1.0000   1.0000   1.0347   1.0354  -0.0000  -0.0000  -0.0000  -0.0000

          k = 0.0000 0.1667 0.4167 ( 14172 PWs)   bands (ev):

   -34.1075 -32.2694 -15.2358 -15.2217 -15.2163 -14.7886 -14.7833 -14.7817
    -6.7778  -6.4262  -6.3673   2.3368   2.6903   2.7974   3.0430   3.2662
     3.4094   4.0622   4.3609   4.3918   6.1384   6.1731   6.5311   6.7647

     occupation numbers 
     1.0000   1.0000   1.0000   1.0000   1.0000   1.0000   1.0000   1.0000
     1.0000   1.0000   1.0000   1.0000   1.0000   1.0000   1.0000   1.0000
     1.0000   1.0000   1.0079   1.0154  -0.0000  -0.0000  -0.0000  -0.0000

          k = 0.0000 0.1667-0.5000 ( 14176 PWs)   bands (ev):

   -34.1075 -32.2694 -15.2372 -15.2217 -15.2163 -14.7891 -14.7833 -14.7817
    -6.7581  -6.4344  -6.3666   2.4027   2.5681   2.8155   3.0942   3.1649
     3.3746   4.0668   4.3208   4.3659   6.1797   6.1928   6.6922   6.7000

     occupation numbers 
     1.0000   1.0000   1.0000   1.0000   1.0000   1.0000   1.0000   1.0000
     1.0000   1.0000   1.0000   1.0000   1.0000   1.0000   1.0000   1.0000
     1.0000   1.0000   1.0027   1.0089  -0.0000  -0.0000  -0.0000  -0.0000

          k = 0.0000 0.2500 0.2500 ( 14143 PWs)   bands (ev):

   -34.1075 -32.2695 -15.2272 -15.2269 -15.2165 -14.7857 -14.7849 -14.7818
    -6.8340  -6.3925  -6.3787   2.2069   2.7552   2.9137   2.9891   3.5123
     3.6380   4.0726   4.4341   4.5156   5.9111   6.2093   6.3163   6.5424

     occupation numbers 
     1.0000   1.0000   1.0000   1.0000   1.0000   1.0000   1.0000   1.0000
     1.0000   1.0000   1.0000   1.0000   1.0000   1.0000   1.0000   1.0000
     1.0000   1.0000   1.0292   1.0051  -0.0000  -0.0000  -0.0000  -0.0000

          k = 0.0000 0.2500 0.3333 ( 14147 PWs)   bands (ev):

   -34.1075 -32.2694 -15.2322 -15.2270 -15.2163 -14.7870 -14.7849 -14.7817
    -6.7763  -6.4039  -6.3794   2.1573   2.6950   2.8140   3.0754   3.4022
     3.4669   4.0758   4.3064   4.4608   6.0137   6.3650   6.3995   6.6600

     occupation numbers 
     1.0000   1.0000   1.0000   1.0000   1.0000   1.0000   1.0000   1.0000
     1.0000   1.0000   1.0000   1.0000   1.0000   1.0000   1.0000   1.0000
     1.0000   1.0000   1.0018   1.0352  -0.0000  -0.0000  -0.0000  -0.0000

          k = 0.0000 0.2500 0.4167 ( 14151 PWs)   bands (ev):

   -34.1075 -32.2694 -15.2359 -15.2270 -15.2162 -14.7881 -14.7848 -14.7816
    -6.7288  -6.4195  -6.3777   2.1555   2.5234   2.8680   3.1435   3.3179
     3.3192   4.0975   4.2146   4.3995   6.1673   6.4250   6.4656   6.6519

     occupation numbers 
     1.0000   1.0000   1.0000   1.0000   1.0000   1.0000   1.0000   1.0000
     1.0000   1.0000   1.0000   1.0000   1.0000   1.0000   1.0000   1.0000
     1.0000   1.0000   1.0001   1.0177  -0.0000  -0.0000  -0.0000  -0.0000

          k = 0.0000 0.2500-0.5000 ( 14194 PWs)   bands (ev):

   -34.1075 -32.2694 -15.2373 -15.2270 -15.2162 -14.7886 -14.7847 -14.7816
    -6.7097  -6.4270  -6.3769   2.1700   2.4486   2.8918   3.1988   3.2316
     3.2865   4.1123   4.1811   4.3693   6.2664   6.4320   6.4773   6.6317

     occupation numbers 
     1.0000   1.0000   1.0000   1.0000   1.0000   1.0000   1.0000   1.0000
     1.0000   1.0000   1.0000   1.0000   1.0000   1.0000   1.0000   1.0000
     1.0000   1.0000   1.0000   1.0096  -0.0000  -0.0000  -0.0000  -0.0000

          k = 0.0000 0.3333 0.3333 ( 14163 PWs)   bands (ev):

   -34.1075 -32.2694 -15.2323 -15.2321 -15.2162 -14.7868 -14.7862 -14.7815
    -6.7210  -6.4025  -6.3904   2.0582   2.5134   2.8869   3.1719   3.3086
     3.4320   3.9831   4.1488   4.5385   6.0348   6.5000   6.5801   6.6192

     occupation numbers 
     1.0000   1.0000   1.0000   1.0000   1.0000   1.0000   1.0000   1.0000
     1.0000   1.0000   1.0000   1.0000   1.0000   1.0000   1.0000   1.0000
     1.0000   1.0000   1.0000   0.9590  -0.0000  -0.0000  -0.0000  -0.0000

          k = 0.0000 0.3333 0.4167 ( 14162 PWs)   bands (ev):

   -34.1075 -32.2694 -15.2360 -15.2322 -15.2161 -14.7876 -14.7862 -14.7814
    -6.6756  -6.4129  -6.3916   2.0007   2.3885   2.9563   3.2372   3.2473
     3.3737   3.9281   4.0297   4.5825   6.1281   6.4434   6.6192   6.6915

     occupation numbers 
     1.0000   1.0000   1.0000   1.0000   1.0000   1.0000   1.0000   1.0000
     1.0000   1.0000   1.0000   1.0000   1.0000   1.0000   1.0000   1.0000
     1.0000   1.0000   1.0000   0.7936  -0.0000  -0.0000  -0.0000  -0.0000

          k = 0.0000 0.3333-0.5000 ( 14124 PWs)   bands (ev):

   -34.1075 -32.2694 -15.2373 -15.2322 -15.2161 -14.7880 -14.7861 -14.7814
    -6.6572  -6.4196  -6.3908   1.9830   2.3428   2.9891   3.2070   3.2977
     3.3239   3.9132   3.9845   4.5946   6.2599   6.2995   6.6601   6.7018

     occupation numbers 
     1.0000   1.0000   1.0000   1.0000   1.0000   1.0000   1.0000   1.0000
     1.0000   1.0000   1.0000   1.0000   1.0000   1.0000   1.0000   1.0000
     1.0000   1.0000   1.0000   0.7310  -0.0000  -0.0000  -0.0000  -0.0000

          k = 0.0000 0.4167 0.4167 ( 14154 PWs)   bands (ev):

   -34.1074 -32.2694 -15.2361 -15.2360 -15.2161 -14.7874 -14.7872 -14.7813
    -6.6319  -6.4096  -6.4046   1.8996   2.2998   3.0430   3.1787   3.3339
     3.4078   3.8029   3.8801   4.6925   6.1251   6.3140   6.7020   6.8893

     occupation numbers 
     1.0000   1.0000   1.0000   1.0000   1.0000   1.0000   1.0000   1.0000
     1.0000   1.0000   1.0000   1.0000   1.0000   1.0000   1.0000   1.0000
     1.0000   1.0000   1.0000   0.1682  -0.0000  -0.0000  -0.0000  -0.0000

          k = 0.0000 0.4167-0.5000 ( 14156 PWs)   bands (ev):

   -34.1074 -32.2694 -15.2374 -15.2360 -15.2160 -14.7876 -14.7871 -14.7813
    -6.6141  -6.4142  -6.4052   1.8647   2.2685   3.0869   3.1532   3.3858
     3.4016   3.7575   3.8190   4.7275   6.1869   6.1985   6.7397   6.9192

     occupation numbers 
     1.0000   1.0000   1.0000   1.0000   1.0000   1.0000   1.0000   1.0000
     1.0000   1.0000   1.0000   1.0000   1.0000   1.0000   1.0000   1.0000
     1.0000   1.0000   1.0000   0.0431  -0.0000  -0.0000  -0.0000  -0.0000

          k = 0.0000-0.5000-0.5000 ( 14108 PWs)   bands (ev):

   -34.1074 -32.2694 -15.2374 -15.2374 -15.2160 -14.7875 -14.7875 -14.7813
    -6.5966  -6.4122  -6.4122   1.8244   2.2416   3.1343   3.1343   3.4320
     3.4320   3.6880   3.7478   4.7705   6.1485   6.1687   6.7757   7.0051

     occupation numbers 
     1.0000   1.0000   1.0000   1.0000   1.0000   1.0000   1.0000   1.0000
     1.0000   1.0000   1.0000   1.0000   1.0000   1.0000   1.0000   1.0000
     1.0000   1.0000   1.0000  -0.0259  -0.0000  -0.0000  -0.0000  -0.0000

          k = 0.0833 0.0833 0.0833 ( 14126 PWs)   bands (ev):

   -34.1076 -32.2695 -15.2184 -15.2184 -15.2182 -14.7828 -14.7825 -14.7825
    -7.0027  -6.3734  -6.3734   2.4748   2.6623   2.6623   3.8317   3.8317
     4.1599   4.4476   4.8079   4.8079   5.6531   5.6531   5.8965   6.0716

     occupation numbers 
     1.0000   1.0000   1.0000   1.0000   1.0000   1.0000   1.0000   1.0000
     1.0000   1.0000   1.0000   1.0000   1.0000   1.0000   1.0000   1.0000
     1.0000   1.0330  -0.0350  -0.0350  -0.0000  -0.0000  -0.0000  -0.0000

          k = 0.0833 0.0833 0.1667 ( 14146 PWs)   bands (ev):

   -34.1076 -32.2695 -15.2220 -15.2182 -15.2182 -14.7840 -14.7826 -14.7825
    -6.9649  -6.3804  -6.3713   2.4033   2.6842   2.7265   3.5988   3.7245
     4.1319   4.1652   4.7177   4.7492   5.7085   5.8102   5.9511   6.2019

     occupation numbers 
     1.0000   1.0000   1.0000   1.0000   1.0000   1.0000   1.0000   1.0000
     1.0000   1.0000   1.0000   1.0000   1.0000   1.0000   1.0000   1.0000
     1.0000   1.0000   0.0715  -0.0019  -0.0000  -0.0000  -0.0000  -0.0000

          k = 0.0833 0.0833 0.2500 ( 14152 PWs)   bands (ev):

   -34.1076 -32.2695 -15.2271 -15.2181 -15.2181 -14.7858 -14.7824 -14.7824
    -6.9100  -6.3931  -6.3683   2.3586   2.7186   2.7809   3.3822   3.5325
     3.8844   4.0256   4.5968   4.6689   5.8160   6.0074   6.0799   6.3928

     occupation numbers 
     1.0000   1.0000   1.0000   1.0000   1.0000   1.0000   1.0000   1.0000
     1.0000   1.0000   1.0000   1.0000   1.0000   1.0000   1.0000   1.0000
     1.0000   1.0000   0.7187   0.2873  -0.0000  -0.0000  -0.0000  -0.0000

          k = 0.0833 0.0833 0.3333 ( 14161 PWs)   bands (ev):

   -34.1075 -32.2695 -15.2321 -15.2180 -15.2179 -14.7876 -14.7823 -14.7823
    -6.8495  -6.4110  -6.3653   2.3659   2.7618   2.8101   3.2064   3.2623
     3.7117   3.9087   4.4804   4.5923   5.9355   6.0678   6.3781   6.6107

     occupation numbers 
     1.0000   1.0000   1.0000   1.0000   1.0000   1.0000   1.0000   1.0000
     1.0000   1.0000   1.0000   1.0000   1.0000   1.0000   1.0000   1.0000
     1.0000   1.0000   1.0337   0.7431  -0.0000  -0.0000  -0.0000  -0.0000

          k = 0.0833 0.0833 0.4167 ( 14164 PWs)   bands (ev):

   -34.1075 -32.2695 -15.2358 -15.2179 -15.2178 -14.7889 -14.7822 -14.7822
    -6.7997  -6.4294  -6.3631   2.4415   2.7556   2.8062   3.0574   3.0840
     3.6249   3.8233   4.3966   4.5387   6.0043   6.1446   6.6267   6.7922

     occupation numbers 
     1.0000   1.0000   1.0000   1.0000   1.0000   1.0000   1.0000   1.0000
     1.0000   1.0000   1.0000   1.0000   1.0000   1.0000   1.0000   1.0000
     1.0000   1.0000   1.0168   0.9587  -0.0000  -0.0000  -0.0000  -0.0000

          k = 0.0833 0.0833-0.5000 ( 14174 PWs)   bands (ev):

   -34.1075 -32.2695 -15.2372 -15.2179 -15.2177 -14.7894 -14.7822 -14.7822
    -6.7798  -6.4379  -6.3623   2.5673   2.6098   2.8296   3.0108   3.0353
     3.5976   3.7923   4.3660   4.5195   6.0221   6.1836   6.7338   6.8652

     occupation numbers 
     1.0000   1.0000   1.0000   1.0000   1.0000   1.0000   1.0000   1.0000
     1.0000   1.0000   1.0000   1.0000   1.0000   1.0000   1.0000   1.0000
     1.0000   1.0000   1.0089   0.9990  -0.0000  -0.0000  -0.0000  -0.0000

          k = 0.0833 0.1667 0.1667 ( 14144 PWs)   bands (ev):

   -34.1076 -32.2695 -15.2221 -15.2218 -15.2181 -14.7841 -14.7835 -14.7824
    -6.9278  -6.3815  -6.3744   2.3142   2.7199   2.8040   3.4019   3.6138
     3.9410   4.1896   4.6570   4.6727   5.7856   5.8247   6.0181   6.3697

     occupation numbers 
     1.0000   1.0000   1.0000   1.0000   1.0000   1.0000   1.0000   1.0000
     1.0000   1.0000   1.0000   1.0000   1.0000   1.0000   1.0000   1.0000
     1.0000   1.0000   0.3559   0.2666  -0.0000  -0.0000  -0.0000  -0.0000

          k = 0.0833 0.1667 0.2500 ( 14146 PWs)   bands (ev):

   -34.1075 -32.2695 -15.2271 -15.2219 -15.2180 -14.7856 -14.7836 -14.7823
    -6.8739  -6.3913  -6.3733   2.2538   2.7520   2.8752   3.1771   3.4687
     3.7318   4.1578   4.5320   4.5925   5.8655   6.0133   6.1192   6.4914

     occupation numbers 
     1.0000   1.0000   1.0000   1.0000   1.0000   1.0000   1.0000   1.0000
     1.0000   1.0000   1.0000   1.0000   1.0000   1.0000   1.0000   1.0000
     1.0000   1.0000   0.9747   0.7420  -0.0000  -0.0000  -0.0000  -0.0000

          k = 0.0833 0.1667 0.3333 ( 14163 PWs)   bands (ev):

   -34.1075 -32.2695 -15.2321 -15.2218 -15.2178 -14.7873 -14.7834 -14.7822
    -6.8146  -6.4076  -6.3708   2.2468   2.7699   2.8810   3.0128   3.2592
     3.6425   4.1016   4.3824   4.5164   5.9806   6.1758   6.3087   6.6065

     occupation numbers 
     1.0000   1.0000   1.0000   1.0000   1.0000   1.0000   1.0000   1.0000
     1.0000   1.0000   1.0000   1.0000   1.0000   1.0000   1.0000   1.0000
     1.0000   1.0000   1.0128   1.0039  -0.0000  -0.0000  -0.0000  -0.0000

          k = 0.0833 0.1667 0.4167 ( 14175 PWs)   bands (ev):

   -34.1075 -32.2694 -15.2358 -15.2217 -15.2177 -14.7885 -14.7833 -14.7821
    -6.7658  -6.4249  -6.3689   2.3056   2.6437   2.8686   2.9762   3.1158
     3.6165   4.0734   4.2467   4.4615   6.0676   6.2832   6.5270   6.6973

     occupation numbers 
     1.0000   1.0000   1.0000   1.0000   1.0000   1.0000   1.0000   1.0000
     1.0000   1.0000   1.0000   1.0000   1.0000   1.0000   1.0000   1.0000
     1.0000   1.0000   1.0002   1.0352  -0.0000  -0.0000  -0.0000  -0.0000

          k = 0.0833 0.1667-0.5000 ( 14192 PWs)   bands (ev):

   -34.1075 -32.2694 -15.2372 -15.2217 -15.2177 -14.7890 -14.7832 -14.7821
    -6.7461  -6.4329  -6.3681   2.3953   2.5015   2.8943   2.9481   3.0777
     3.6123   4.0806   4.1775   4.4418   6.0955   6.3320   6.6716   6.6799

     occupation numbers 
     1.0000   1.0000   1.0000   1.0000   1.0000   1.0000   1.0000   1.0000
     1.0000   1.0000   1.0000   1.0000   1.0000   1.0000   1.0000   1.0000
     1.0000   1.0000   1.0000   1.0315  -0.0000  -0.0000  -0.0000  -0.0000

          k = 0.0833 0.2500 0.2500 ( 14147 PWs)   bands (ev):

   -34.1075 -32.2695 -15.2272 -15.2269 -15.2179 -14.7856 -14.7849 -14.7822
    -6.8216  -6.3921  -6.3797   2.1715   2.7564   2.9630   2.9675   3.4428
     3.5372   4.1793   4.4574   4.5079   5.9184   6.1110   6.2231   6.6529

     occupation numbers 
     1.0000   1.0000   1.0000   1.0000   1.0000   1.0000   1.0000   1.0000
     1.0000   1.0000   1.0000   1.0000   1.0000   1.0000   1.0000   1.0000
     1.0000   1.0000   1.0348   1.0151  -0.0000  -0.0000  -0.0000  -0.0000

          k = 0.0833 0.2500 0.3333 ( 14151 PWs)   bands (ev):

   -34.1075 -32.2694 -15.2321 -15.2270 -15.2177 -14.7869 -14.7849 -14.7821
    -6.7641  -6.4034  -6.3802   2.1348   2.6465   2.8924   3.0034   3.3071
     3.5110   4.1251   4.3458   4.4624   6.0163   6.2415   6.3846   6.6805

     occupation numbers 
     1.0000   1.0000   1.0000   1.0000   1.0000   1.0000   1.0000   1.0000
     1.0000   1.0000   1.0000   1.0000   1.0000   1.0000   1.0000   1.0000
     1.0000   1.0000   1.0054   1.0353  -0.0000  -0.0000  -0.0000  -0.0000

          k = 0.0833 0.2500 0.4167 ( 14173 PWs)   bands (ev):

   -34.1075 -32.2694 -15.2359 -15.2269 -15.2176 -14.7881 -14.7847 -14.7820
    -6.7169  -6.4187  -6.3786   2.1504   2.4803   2.9066   2.9837   3.2095
     3.5613   4.0335   4.2952   4.4079   6.1477   6.3376   6.5601   6.6165

     occupation numbers 
     1.0000   1.0000   1.0000   1.0000   1.0000   1.0000   1.0000   1.0000
     1.0000   1.0000   1.0000   1.0000   1.0000   1.0000   1.0000   1.0000
     1.0000   1.0000   1.0012   1.0204  -0.0000  -0.0000  -0.0000  -0.0000

          k = 0.0833 0.2500-0.5000 ( 14166 PWs)   bands (ev):

   -34.1075 -32.2694 -15.2372 -15.2269 -15.2176 -14.7885 -14.7847 -14.7819
    -6.6978  -6.4261  -6.3779   2.1807   2.3934   2.9324   2.9460   3.1866
     3.5938   3.9828   4.2882   4.3799   6.2063   6.4665   6.4845   6.6373

     occupation numbers 
     1.0000   1.0000   1.0000   1.0000   1.0000   1.0000   1.0000   1.0000
     1.0000   1.0000   1.0000   1.0000   1.0000   1.0000   1.0000   1.0000
     1.0000   1.0000   1.0010   1.0121  -0.0000  -0.0000  -0.0000  -0.0000

          k = 0.0833 0.3333 0.3333 ( 14157 PWs)   bands (ev):

   -34.1075 -32.2694 -15.2322 -15.2320 -15.2176 -14.7867 -14.7862 -14.7819
    -6.7091  -6.4024  -6.3907   2.0536   2.4760   2.9069   3.0210   3.3851
     3.4063   4.0533   4.1953   4.5482   6.0391   6.4059   6.4408   6.7207

     occupation numbers 
     1.0000   1.0000   1.0000   1.0000   1.0000   1.0000   1.0000   1.0000
     1.0000   1.0000   1.0000   1.0000   1.0000   1.0000   1.0000   1.0000
     1.0000   1.0000   1.0000   0.9315  -0.0000  -0.0000  -0.0000  -0.0000

          k = 0.0833 0.3333 0.4167 ( 14171 PWs)   bands (ev):

   -34.1075 -32.2694 -15.2359 -15.2321 -15.2175 -14.7876 -14.7862 -14.7818
    -6.6638  -6.4126  -6.3920   2.0121   2.3472   2.9250   2.9935   3.3370
     3.5169   3.9265   4.1112   4.5947   6.1298   6.3992   6.5440   6.7204

     occupation numbers 
     1.0000   1.0000   1.0000   1.0000   1.0000   1.0000   1.0000   1.0000
     1.0000   1.0000   1.0000   1.0000   1.0000   1.0000   1.0000   1.0000
     1.0000   1.0000   1.0000   0.7306  -0.0000  -0.0000  -0.0000  -0.0000

          k = 0.0833 0.3333-0.5000 ( 14162 PWs)   bands (ev):

   -34.1075 -32.2694 -15.2373 -15.2321 -15.2175 -14.7880 -14.7861 -14.7818
    -6.6454  -6.4192  -6.3913   2.0020   2.2974   2.9505   2.9555   3.3253
     3.6006   3.8284   4.0940   4.6070   6.2555   6.2905   6.5606   6.7630

     occupation numbers 
     1.0000   1.0000   1.0000   1.0000   1.0000   1.0000   1.0000   1.0000
     1.0000   1.0000   1.0000   1.0000   1.0000   1.0000   1.0000   1.0000
     1.0000   1.0000   1.0000   0.6608  -0.0000  -0.0000  -0.0000  -0.0000

          k = 0.0833 0.4167 0.4167 ( 14162 PWs)   bands (ev):

   -34.1074 -32.2694 -15.2360 -15.2359 -15.2174 -14.7873 -14.7871 -14.7817
    -6.6201  -6.4097  -6.4046   1.9198   2.2600   2.9376   2.9799   3.4789
     3.5071   3.8547   3.9320   4.7060   6.1257   6.3091   6.6408   6.8354

     occupation numbers 
     1.0000   1.0000   1.0000   1.0000   1.0000   1.0000   1.0000   1.0000
     1.0000   1.0000   1.0000   1.0000   1.0000   1.0000   1.0000   1.0000
     1.0000   1.0000   1.0000   0.1121  -0.0000  -0.0000  -0.0000  -0.0000

          k = 0.0833 0.4167-0.5000 ( 14162 PWs)   bands (ev):

   -34.1074 -32.2694 -15.2373 -15.2360 -15.2174 -14.7876 -14.7871 -14.7817
    -6.6024  -6.4141  -6.4054   1.8878   2.2292   2.9553   2.9567   3.4877
     3.6261   3.7355   3.8886   4.7411   6.1778   6.2070   6.6875   6.8931

     occupation numbers 
     1.0000   1.0000   1.0000   1.0000   1.0000   1.0000   1.0000   1.0000
     1.0000   1.0000   1.0000   1.0000   1.0000   1.0000   1.0000   1.0000
     1.0000   1.0000   1.0000   0.0122  -0.0000  -0.0000  -0.0000  -0.0000

          k = 0.0833-0.5000-0.5000 ( 14156 PWs)   bands (ev):

   -34.1074 -32.2694 -15.2373 -15.2373 -15.2174 -14.7875 -14.7875 -14.7816
    -6.5848  -6.4123  -6.4123   1.8488   2.2043   2.9554   2.9554   3.6401
     3.6401   3.6892   3.7365   4.7843   6.1392   6.1785   6.7471   6.9462

     occupation numbers 
     1.0000   1.0000   1.0000   1.0000   1.0000   1.0000   1.0000   1.0000
     1.0000   1.0000   1.0000   1.0000   1.0000   1.0000   1.0000   1.0000
     1.0000   1.0000   1.0000  -0.0331  -0.0000  -0.0000  -0.0000  -0.0000

          k = 0.1667 0.1667 0.1667 ( 14120 PWs)   bands (ev):

   -34.1075 -32.2695 -15.2219 -15.2219 -15.2218 -14.7841 -14.7835 -14.7835
    -6.8913  -6.3798  -6.3798   2.2269   2.8123   2.8123   3.3922   3.3922
     3.6936   4.3060   4.6214   4.6214   5.8138   5.8138   6.0086   6.6022

     occupation numbers 
     1.0000   1.0000   1.0000   1.0000   1.0000   1.0000   1.0000   1.0000
     1.0000   1.0000   1.0000   1.0000   1.0000   1.0000   1.0000   1.0000
     1.0000   1.0017   0.5743   0.5743  -0.0000  -0.0000  -0.0000  -0.0000

          k = 0.1667 0.1667 0.2500 ( 14159 PWs)   bands (ev):

   -34.1075 -32.2695 -15.2270 -15.2218 -15.2218 -14.7854 -14.7836 -14.7834
    -6.8383  -6.3900  -6.3775   2.1663   2.8157   2.8656   3.2087   3.2773
     3.5382   4.3161   4.4983   4.5673   5.8805   5.9576   6.0730   6.6628

     occupation numbers 
     1.0000   1.0000   1.0000   1.0000   1.0000   1.0000   1.0000   1.0000
     1.0000   1.0000   1.0000   1.0000   1.0000   1.0000   1.0000   1.0000
     1.0000   1.0024   1.0244   0.8624  -0.0000  -0.0000  -0.0000  -0.0000

          k = 0.1667 0.1667 0.3333 ( 14175 PWs)   bands (ev):

   -34.1075 -32.2694 -15.2321 -15.2218 -15.2216 -14.7870 -14.7833 -14.7833
    -6.7800  -6.4051  -6.3752   2.1599   2.7903   2.7987   3.0901   3.0971
     3.5945   4.2639   4.3239   4.5076   5.9750   6.1996   6.2056   6.6822

     occupation numbers 
     1.0000   1.0000   1.0000   1.0000   1.0000   1.0000   1.0000   1.0000
     1.0000   1.0000   1.0000   1.0000   1.0000   1.0000   1.0000   1.0000
     1.0000   1.0004   1.0030   1.0155  -0.0000  -0.0000  -0.0000  -0.0000

          k = 0.1667 0.1667 0.4167 ( 14164 PWs)   bands (ev):

   -34.1075 -32.2694 -15.2358 -15.2217 -15.2214 -14.7882 -14.7832 -14.7832
    -6.7320  -6.4213  -6.3735   2.2230   2.5727   2.7650   3.0325   3.0560
     3.7241   4.1314   4.2081   4.4638   6.0498   6.3704   6.4670   6.6563

     occupation numbers 
     1.0000   1.0000   1.0000   1.0000   1.0000   1.0000   1.0000   1.0000
     1.0000   1.0000   1.0000   1.0000   1.0000   1.0000   1.0000   1.0000
     1.0000   1.0000   1.0000   1.0354  -0.0000  -0.0000  -0.0000  -0.0000

          k = 0.1667 0.1667-0.5000 ( 14180 PWs)   bands (ev):

   -34.1075 -32.2694 -15.2372 -15.2217 -15.2214 -14.7887 -14.7832 -14.7831
    -6.7127  -6.4289  -6.3729   2.3408   2.3882   2.7481   3.0211   3.0486
     3.8388   3.9961   4.1854   4.4481   6.0763   6.5003   6.5917   6.6144

     occupation numbers 
     1.0000   1.0000   1.0000   1.0000   1.0000   1.0000   1.0000   1.0000
     1.0000   1.0000   1.0000   1.0000   1.0000   1.0000   1.0000   1.0000
     1.0000   1.0000   1.0000   1.0331  -0.0000  -0.0000  -0.0000  -0.0000

          k = 0.1667 0.2500 0.2500 ( 14162 PWs)   bands (ev):

   -34.1075 -32.2694 -15.2270 -15.2268 -15.2216 -14.7854 -14.7848 -14.7833
    -6.7867  -6.3911  -6.3830   2.0980   2.7608   2.8772   3.0732   3.3205
     3.3552   4.3679   4.4800   4.4894   5.9423   5.9921   6.1031   6.8142

     occupation numbers 
     1.0000   1.0000   1.0000   1.0000   1.0000   1.0000   1.0000   1.0000
     1.0000   1.0000   1.0000   1.0000   1.0000   1.0000   1.0000   1.0000
     1.0000   1.0093   1.0338   1.0302  -0.0000  -0.0000  -0.0000  -0.0000

          k = 0.1667 0.2500 0.3333 ( 14183 PWs)   bands (ev):

   -34.1075 -32.2694 -15.2321 -15.2268 -15.2215 -14.7867 -14.7848 -14.7832
    -6.7302  -6.4021  -6.3830   2.0781   2.6132   2.8135   2.9685   3.2371
     3.4962   4.2659   4.4077   4.4762   6.0222   6.1336   6.2310   6.8045

     occupation numbers 
     1.0000   1.0000   1.0000   1.0000   1.0000   1.0000   1.0000   1.0000
     1.0000   1.0000   1.0000   1.0000   1.0000   1.0000   1.0000   1.0000
     1.0000   1.0004   1.0203   1.0346  -0.0000  -0.0000  -0.0000  -0.0000

          k = 0.1667 0.2500 0.4167 ( 14184 PWs)   bands (ev):

   -34.1075 -32.2694 -15.2358 -15.2268 -15.2214 -14.7878 -14.7846 -14.7830
    -6.6836  -6.4164  -6.3817   2.1209   2.4206   2.7204   2.9411   3.2199
     3.6764   4.0819   4.3798   4.4426   6.1042   6.2851   6.4453   6.7128

     occupation numbers 
     1.0000   1.0000   1.0000   1.0000   1.0000   1.0000   1.0000   1.0000
     1.0000   1.0000   1.0000   1.0000   1.0000   1.0000   1.0000   1.0000
     1.0000   1.0000   1.0121   1.0317  -0.0000  -0.0000  -0.0000  -0.0000

          k = 0.1667 0.2500-0.5000 ( 14174 PWs)   bands (ev):

   -34.1075 -32.2694 -15.2372 -15.2268 -15.2214 -14.7883 -14.7846 -14.7830
    -6.6647  -6.4235  -6.3812   2.2027   2.2788   2.6872   2.9341   3.2195
     3.8481   3.9058   4.3727   4.4246   6.1327   6.4262   6.5184   6.6656

     occupation numbers 
     1.0000   1.0000   1.0000   1.0000   1.0000   1.0000   1.0000   1.0000
     1.0000   1.0000   1.0000   1.0000   1.0000   1.0000   1.0000   1.0000
     1.0000   1.0000   1.0104   1.0261  -0.0000  -0.0000  -0.0000  -0.0000

          k = 0.1667 0.3333 0.3333 ( 14203 PWs)   bands (ev):

   -34.1075 -32.2694 -15.2321 -15.2320 -15.2214 -14.7866 -14.7861 -14.7830
    -6.6758  -6.4020  -6.3919   2.0304   2.4264   2.8130   2.8471   3.3663
     3.4891   4.2139   4.2911   4.5846   6.0511   6.2482   6.2720   6.7912

     occupation numbers 
     1.0000   1.0000   1.0000   1.0000   1.0000   1.0000   1.0000   1.0000
     1.0000   1.0000   1.0000   1.0000   1.0000   1.0000   1.0000   1.0000
     1.0000   1.0001   1.0011   0.7829  -0.0000  -0.0000  -0.0000  -0.0000

          k = 0.1667 0.3333 0.4167 ( 14189 PWs)   bands (ev):

   -34.1074 -32.2694 -15.2358 -15.2320 -15.2213 -14.7874 -14.7861 -14.7829
    -6.6310  -6.4117  -6.3933   2.0302   2.2673   2.7307   2.8301   3.3998
     3.6292   4.0630   4.2451   4.6339   6.1322   6.2844   6.4298   6.7051

     occupation numbers 
     1.0000   1.0000   1.0000   1.0000   1.0000   1.0000   1.0000   1.0000
     1.0000   1.0000   1.0000   1.0000   1.0000   1.0000   1.0000   1.0000
     1.0000   1.0000   1.0002   0.4973  -0.0000  -0.0000  -0.0000  -0.0000

          k = 0.1667 0.3333-0.5000 ( 14158 PWs)   bands (ev):

   -34.1074 -32.2694 -15.2371 -15.2320 -15.2212 -14.7878 -14.7860 -14.7829
    -6.6128  -6.4180  -6.3928   2.0540   2.1867   2.6949   2.8292   3.4053
     3.7567   3.9308   4.2379   4.6456   6.2286   6.2604   6.4585   6.7950

     occupation numbers 
     1.0000   1.0000   1.0000   1.0000   1.0000   1.0000   1.0000   1.0000
     1.0000   1.0000   1.0000   1.0000   1.0000   1.0000   1.0000   1.0000
     1.0000   1.0000   1.0002   0.4248  -0.0000  -0.0000  -0.0000  -0.0000

          k = 0.1667 0.4167 0.4167 ( 14177 PWs)   bands (ev):

   -34.1074 -32.2694 -15.2358 -15.2357 -15.2212 -14.7872 -14.7871 -14.7828
    -6.5876  -6.4098  -6.4047   1.9719   2.1618   2.7427   2.7435   3.5659
     3.6256   4.0469   4.0923   4.7458   6.1198   6.2928   6.4981   6.7002

     occupation numbers 
     1.0000   1.0000   1.0000   1.0000   1.0000   1.0000   1.0000   1.0000
     1.0000   1.0000   1.0000   1.0000   1.0000   1.0000   1.0000   1.0000
     1.0000   1.0000   1.0000   0.0037  -0.0000  -0.0000  -0.0000  -0.0000

          k = 0.1667 0.4167-0.5000 ( 14176 PWs)   bands (ev):

   -34.1074 -32.2693 -15.2371 -15.2358 -15.2211 -14.7875 -14.7870 -14.7828
    -6.5698  -6.4140  -6.4058   1.9529   2.1231   2.7110   2.7476   3.5909
     3.7127   3.9534   4.0739   4.7804   6.1476   6.2294   6.5569   6.7859

     occupation numbers 
     1.0000   1.0000   1.0000   1.0000   1.0000   1.0000   1.0000   1.0000
     1.0000   1.0000   1.0000   1.0000   1.0000   1.0000   1.0000   1.0000
     1.0000   1.0000   1.0000  -0.0316  -0.0000  -0.0000  -0.0000  -0.0000

          k = 0.1667-0.5000-0.5000 ( 14200 PWs)   bands (ev):

   -34.1074 -32.2693 -15.2371 -15.2371 -15.2211 -14.7874 -14.7874 -14.7827
    -6.5521  -6.4125  -6.4125   1.9178   2.1001   2.7175   2.7175   3.6926
     3.7139   3.9639   3.9639   4.8238   6.1082   6.2056   6.6678   6.7831

     occupation numbers 
     1.0000   1.0000   1.0000   1.0000   1.0000   1.0000   1.0000   1.0000
     1.0000   1.0000   1.0000   1.0000   1.0000   1.0000   1.0000   1.0000
     1.0000   1.0000   1.0000  -0.0318  -0.0000  -0.0000  -0.0000  -0.0000

          k = 0.2500 0.2500 0.2500 ( 14186 PWs)   bands (ev):

   -34.1075 -32.2694 -15.2269 -15.2268 -15.2268 -14.7852 -14.7847 -14.7847
    -6.7364  -6.3897  -6.3897   2.0360   2.7508   2.7508   2.9543   3.3254
     3.3254   4.4482   4.4482   4.5213   5.9815   5.9815   6.0568   6.9118

     occupation numbers 
     1.0000   1.0000   1.0000   1.0000   1.0000   1.0000   1.0000   1.0000
     1.0000   1.0000   1.0000   1.0000   1.0000   1.0000   1.0000   1.0000
     1.0000   1.0331   1.0331   0.9959  -0.0000  -0.0000  -0.0000  -0.0000

          k = 0.2500 0.2500 0.3333 ( 14199 PWs)   bands (ev):

   -34.1075 -32.2694 -15.2319 -15.2268 -15.2266 -14.7864 -14.7847 -14.7846
    -6.6814  -6.4007  -6.3883   2.0172   2.6014   2.6322   2.8252   3.3312
     3.4949   4.3502   4.4254   4.5631   6.0372   6.1060   6.1091   6.9067

     occupation numbers 
     1.0000   1.0000   1.0000   1.0000   1.0000   1.0000   1.0000   1.0000
     1.0000   1.0000   1.0000   1.0000   1.0000   1.0000   1.0000   1.0000
     1.0000   1.0061   1.0263   0.8792  -0.0000  -0.0000  -0.0000  -0.0000

          k = 0.2500 0.2500 0.4167 ( 14196 PWs)   bands (ev):

   -34.1074 -32.2694 -15.2357 -15.2268 -15.2264 -14.7875 -14.7845 -14.7845
    -6.6360  -6.4134  -6.3873   2.0601   2.3647   2.5525   2.8121   3.3457
     3.6679   4.2123   4.4069   4.5530   6.0922   6.2333   6.3214   6.7999

     occupation numbers 
     1.0000   1.0000   1.0000   1.0000   1.0000   1.0000   1.0000   1.0000
     1.0000   1.0000   1.0000   1.0000   1.0000   1.0000   1.0000   1.0000
     1.0000   1.0001   1.0201   0.9161  -0.0000  -0.0000  -0.0000  -0.0000

          k = 0.2500 0.2500-0.5000 ( 14170 PWs)   bands (ev):

   -34.1074 -32.2694 -15.2371 -15.2268 -15.2263 -14.7879 -14.7845 -14.7844
    -6.6175  -6.4199  -6.3870   2.1577   2.1957   2.5248   2.8103   3.3525
     3.7632   4.1260   4.4002   4.5425   6.1123   6.3361   6.4841   6.6772

     occupation numbers 
     1.0000   1.0000   1.0000   1.0000   1.0000   1.0000   1.0000   1.0000
     1.0000   1.0000   1.0000   1.0000   1.0000   1.0000   1.0000   1.0000
     1.0000   1.0000   1.0179   0.9482  -0.0000  -0.0000  -0.0000  -0.0000

          k = 0.2500 0.3333 0.3333 ( 14195 PWs)   bands (ev):

   -34.1074 -32.2694 -15.2318 -15.2318 -15.2265 -14.7863 -14.7860 -14.7845
    -6.6284  -6.4015  -6.3950   1.9844   2.4189   2.6279   2.6529   3.4571
     3.5399   4.3591   4.3824   4.6647   6.0642   6.1304   6.1357   6.8148

     occupation numbers 
     1.0000   1.0000   1.0000   1.0000   1.0000   1.0000   1.0000   1.0000
     1.0000   1.0000   1.0000   1.0000   1.0000   1.0000   1.0000   1.0000
     1.0000   1.0076   1.0128   0.3110  -0.0000  -0.0000  -0.0000  -0.0000

          k = 0.2500 0.3333 0.4167 ( 14165 PWs)   bands (ev):

   -34.1074 -32.2693 -15.2356 -15.2317 -15.2264 -14.7873 -14.7860 -14.7844
    -6.5847  -6.4106  -6.3959   2.0009   2.2365   2.5262   2.6561   3.4996
     3.6569   4.2823   4.3769   4.7066   6.1264   6.1661   6.2995   6.6701

     occupation numbers 
     1.0000   1.0000   1.0000   1.0000   1.0000   1.0000   1.0000   1.0000
     1.0000   1.0000   1.0000   1.0000   1.0000   1.0000   1.0000   1.0000
     1.0000   1.0008   1.0114   0.1098  -0.0000  -0.0000  -0.0000  -0.0000

          k = 0.2500 0.3333-0.5000 ( 14190 PWs)   bands (ev):

   -34.1074 -32.2693 -15.2369 -15.2317 -15.2264 -14.7876 -14.7859 -14.7843
    -6.5667  -6.4164  -6.3957   2.0531   2.1227   2.4893   2.6622   3.5092
     3.7207   4.2322   4.3779   4.7143   6.1695   6.2052   6.4124   6.5966

     occupation numbers 
     1.0000   1.0000   1.0000   1.0000   1.0000   1.0000   1.0000   1.0000
     1.0000   1.0000   1.0000   1.0000   1.0000   1.0000   1.0000   1.0000
     1.0000   1.0001   1.0116   0.0826  -0.0000  -0.0000  -0.0000  -0.0000

          k = 0.2500 0.4167 0.4167 ( 14185 PWs)   bands (ev):

   -34.1074 -32.2693 -15.2355 -15.2355 -15.2263 -14.7871 -14.7870 -14.7843
    -6.5423  -6.4099  -6.4053   1.9746   2.1093   2.5453   2.5454   3.6215
     3.6654   4.3139   4.3210   4.8087   6.0904   6.2580   6.3322   6.5525

     occupation numbers 
     1.0000   1.0000   1.0000   1.0000   1.0000   1.0000   1.0000   1.0000
     1.0000   1.0000   1.0000   1.0000   1.0000   1.0000   1.0000   1.0000
     1.0000   1.0022   1.0027  -0.0349  -0.0000  -0.0000  -0.0000  -0.0000

          k = 0.2500 0.4167-0.5000 ( 14180 PWs)   bands (ev):

   -34.1074 -32.2693 -15.2369 -15.2355 -15.2262 -14.7874 -14.7870 -14.7843
    -6.5246  -6.4138  -6.4065   1.9807   2.0469   2.5066   2.5551   3.6420
     3.7026   4.2836   4.3292   4.8405   6.0962   6.2498   6.4008   6.5598

     occupation numbers 
     1.0000   1.0000   1.0000   1.0000   1.0000   1.0000   1.0000   1.0000
     1.0000   1.0000   1.0000   1.0000   1.0000   1.0000   1.0000   1.0000
     1.0000   1.0008   1.0035  -0.0267  -0.0000  -0.0000  -0.0000  -0.0000

          k = 0.2500-0.5000-0.5000 ( 14168 PWs)   bands (ev):

   -34.1074 -32.2693 -15.2368 -15.2368 -15.2262 -14.7874 -14.7874 -14.7842
    -6.5068  -6.4129  -6.4129   1.9545   2.0181   2.5171   2.5171   3.6973
     3.6987   4.3012   4.3012   4.8826   6.0555   6.2435   6.5489   6.5489

     occupation numbers 
     1.0000   1.0000   1.0000   1.0000   1.0000   1.0000   1.0000   1.0000
     1.0000   1.0000   1.0000   1.0000   1.0000   1.0000   1.0000   1.0000
     1.0000   1.0015   1.0015  -0.0133  -0.0000  -0.0000  -0.0000  -0.0000

          k = 0.3333 0.3333 0.3333 ( 14192 PWs)   bands (ev):

   -34.1074 -32.2693 -15.2318 -15.2315 -15.2315 -14.7861 -14.7859 -14.7859
    -6.5775  -6.4010  -6.4010   1.9414   2.3915   2.4863   2.4863   3.5752
     3.5752   4.4410   4.4410   4.7590   6.0422   6.1123   6.1123   6.7861

     occupation numbers 
     1.0000   1.0000   1.0000   1.0000   1.0000   1.0000   1.0000   1.0000
     1.0000   1.0000   1.0000   1.0000   1.0000   1.0000   1.0000   1.0000
     1.0000   1.0312   1.0312  -0.0151  -0.0000  -0.0000  -0.0000  -0.0000

          k = 0.3333 0.3333 0.4167 ( 14181 PWs)   bands (ev):

   -34.1074 -32.2693 -15.2354 -15.2317 -15.2314 -14.7871 -14.7859 -14.7858
    -6.5355  -6.4096  -6.4006   1.9256   2.2379   2.3981   2.4963   3.5979
     3.6694   4.4589   4.4854   4.8060   6.0722   6.1305   6.2156   6.6103

     occupation numbers 
     1.0000   1.0000   1.0000   1.0000   1.0000   1.0000   1.0000   1.0000
     1.0000   1.0000   1.0000   1.0000   1.0000   1.0000   1.0000   1.0000
     1.0000   1.0350   1.0320  -0.0352  -0.0000  -0.0000  -0.0000  -0.0000

          k = 0.3333 0.3333-0.5000 ( 14176 PWs)   bands (ev):

   -34.1074 -32.2693 -15.2367 -15.2316 -15.2313 -14.7875 -14.7859 -14.7858
    -6.5180  -6.4148  -6.4005   1.9288   2.1681   2.3682   2.5074   3.6059
     3.7062   4.4583   4.5017   4.8142   6.1239   6.1356   6.3849   6.4204

     occupation numbers 
     1.0000   1.0000   1.0000   1.0000   1.0000   1.0000   1.0000   1.0000
     1.0000   1.0000   1.0000   1.0000   1.0000   1.0000   1.0000   1.0000
     1.0000   1.0349   1.0215  -0.0340  -0.0000  -0.0000  -0.0000  -0.0000

          k = 0.3333 0.4167 0.4167 ( 14188 PWs)   bands (ev):

   -34.1074 -32.2693 -15.2353 -15.2352 -15.2313 -14.7869 -14.7869 -14.7858
    -6.4953  -6.4100  -6.4067   1.8631   2.1794   2.3861   2.3976   3.6632
     3.6833   4.5560   4.5625   4.8852   6.0329   6.1910   6.1916   6.4648

     occupation numbers 
     1.0000   1.0000   1.0000   1.0000   1.0000   1.0000   1.0000   1.0000
     1.0000   1.0000   1.0000   1.0000   1.0000   1.0000   1.0000   1.0000
     1.0000   0.9055   0.8816  -0.0126  -0.0000  -0.0000  -0.0000  -0.0000

          k = 0.3333 0.4167-0.5000 ( 14188 PWs)   bands (ev):

   -34.1074 -32.2693 -15.2366 -15.2352 -15.2313 -14.7873 -14.7869 -14.7857
    -6.4781  -6.4136  -6.4077   1.8398   2.1468   2.3566   2.4039   3.6739
     3.7017   4.5854   4.5918   4.9110   6.0345   6.1854   6.3157   6.3324

     occupation numbers 
     1.0000   1.0000   1.0000   1.0000   1.0000   1.0000   1.0000   1.0000
     1.0000   1.0000   1.0000   1.0000   1.0000   1.0000   1.0000   1.0000
     1.0000   0.7793   0.7459  -0.0070  -0.0000  -0.0000  -0.0000  -0.0000

          k = 0.3333-0.5000-0.5000 ( 14188 PWs)   bands (ev):

   -34.1074 -32.2693 -15.2365 -15.2365 -15.2312 -14.7873 -14.7873 -14.7857
    -6.4606  -6.4132  -6.4132   1.8073   2.1268   2.3681   2.3681   3.6974
     3.7020   4.6259   4.6259   4.9489   5.9933   6.2817   6.2838   6.2838

     occupation numbers 
     1.0000   1.0000   1.0000   1.0000   1.0000   1.0000   1.0000   1.0000
     1.0000   1.0000   1.0000   1.0000   1.0000   1.0000   1.0000   1.0000
     1.0000   0.5468   0.5468  -0.0025  -0.0000  -0.0000  -0.0000  -0.0000

          k = 0.4167 0.4167 0.4167 ( 14172 PWs)   bands (ev):

   -34.1074 -32.2693 -15.2351 -15.2350 -15.2350 -14.7869 -14.7869 -14.7868
    -6.4580  -6.4101  -6.4101   1.7712   2.2244   2.3068   2.3068   3.6927
     3.6927   4.7407   4.7407   4.9508   5.9837   6.1191   6.1191   6.4182

     occupation numbers 
     1.0000   1.0000   1.0000   1.0000   1.0000   1.0000   1.0000   1.0000
     1.0000   1.0000   1.0000   1.0000   1.0000   1.0000   1.0000   1.0000
     1.0000   0.0130   0.0130  -0.0024  -0.0000  -0.0000  -0.0000  -0.0000

          k = 0.4167 0.4167-0.5000 ( 14182 PWs)   bands (ev):

   -34.1074 -32.2693 -15.2364 -15.2350 -15.2349 -14.7872 -14.7868 -14.7868
    -6.4421  -6.4135  -6.4101   1.7369   2.2141   2.2762   2.3089   3.6957
     3.7037   4.8084   4.8133   4.9744   5.9772   6.0794   6.1146   6.3300

     occupation numbers 
     1.0000   1.0000   1.0000   1.0000   1.0000   1.0000   1.0000   1.0000
     1.0000   1.0000   1.0000   1.0000   1.0000   1.0000   1.0000   1.0000
     1.0000  -0.0349  -0.0342  -0.0011  -0.0000  -0.0000  -0.0000  -0.0000

          k = 0.4167-0.5000-0.5000 ( 14200 PWs)   bands (ev):

   -34.1074 -32.2693 -15.2363 -15.2363 -15.2349 -14.7872 -14.7872 -14.7868
    -6.4262  -6.4135  -6.4135   1.6993   2.2129   2.2768   2.2768   3.7033
     3.7054   4.9003   4.9003   5.0037   5.9431   6.0398   6.0398   6.3468

     occupation numbers 
     1.0000   1.0000   1.0000   1.0000   1.0000   1.0000   1.0000   1.0000
     1.0000   1.0000   1.0000   1.0000   1.0000   1.0000   1.0000   1.0000
     1.0000  -0.0090  -0.0090  -0.0004  -0.0000  -0.0000  -0.0000  -0.0000

          k =-0.5000-0.5000-0.5000 ( 14328 PWs)   bands (ev):

   -34.1074 -32.2693 -15.2363 -15.2363 -15.2363 -14.7872 -14.7872 -14.7872
    -6.4135  -6.4135  -6.4135   1.6599   2.2460   2.2460   2.2460   3.7067
     3.7067   5.0256   5.0256   5.0256   5.9238   5.9238   5.9239   6.4635

     occupation numbers 
     1.0000   1.0000   1.0000   1.0000   1.0000   1.0000   1.0000   1.0000
     1.0000   1.0000   1.0000   1.0000   1.0000   1.0000   1.0000   1.0000
     1.0000  -0.0002  -0.0002  -0.0002  -0.0000  -0.0000  -0.0000  -0.0000

     the Fermi energy is     4.6334 ev

!    total energy              =   -1173.55992030 Ry
     total all-electron energy =    -33662.941032 Ry
     estimated scf accuracy    <          4.4E-11 Ry
     smearing contrib. (-TS)   =      -0.00003927 Ry
     internal energy E=F+TS    =   -1173.55988103 Ry

     The total energy is F=E-TS. E is the sum of the following terms:
     one-electron contribution =     -54.04349143 Ry
     hartree contribution      =      41.10194829 Ry
     xc contribution           =    -104.19811397 Ry
     ewald contribution        =    -142.34066486 Ry
     one-center paw contrib.   =    -914.07955907 Ry
      -> PAW hartree energy AE =      47.07085845 Ry
      -> PAW hartree energy PS =     -46.84931196 Ry
      -> PAW xc energy AE      =     -71.45362558 Ry
      -> PAW xc energy PS      =      11.24627837 Ry
      -> total E_H with PAW    =      41.32349479 Ry
      -> total E_XC with PAW   =    -164.40546118 Ry

     convergence has been achieved in  18 iterations

     Forces acting on atoms (cartesian axes, Ry/au):

     atom    1 type  1   force =     0.00000000    0.00000000    0.00000000
     atom    2 type  2   force =     0.00000000    0.00000000    0.00000000
     atom    3 type  3   force =     0.00000000    0.00000000    0.00000000
     atom    4 type  3   force =     0.00000000    0.00000000    0.00000000
     atom    5 type  3   force =     0.00000000    0.00000000    0.00000000
     The non-local contrib.  to forces
     atom    1 type  1   force =     0.00000000    0.00000000    0.00000000
     atom    2 type  2   force =     0.00000000    0.00000000    0.00000000
     atom    3 type  3   force =     0.00000000    0.00000000    0.00000000
     atom    4 type  3   force =     0.00000000    0.00000000    0.00000000
     atom    5 type  3   force =     0.00000000    0.00000000    0.00000000
     The ionic contribution  to forces
     atom    1 type  1   force =    -0.00000000   -0.00000000   -0.00000000
     atom    2 type  2   force =     0.00000000    0.00000000    0.00000000
     atom    3 type  3   force =     0.00000000   -0.00000000   -0.00000000
     atom    4 type  3   force =    -0.00000000    0.00000000   -0.00000000
     atom    5 type  3   force =    -0.00000000   -0.00000000    0.00000000
     The local contribution  to forces
     atom    1 type  1   force =     0.00000000    0.00000000    0.00000000
     atom    2 type  2   force =     0.00000000    0.00000000    0.00000000
     atom    3 type  3   force =    -0.00000000    0.00000000    0.00000000
     atom    4 type  3   force =     0.00000000   -0.00000000    0.00000000
     atom    5 type  3   force =     0.00000000    0.00000000   -0.00000000
     The core correction contribution to forces
     atom    1 type  1   force =     0.00000000    0.00000000   -0.00000000
     atom    2 type  2   force =     0.00000000    0.00000000    0.00000000
     atom    3 type  3   force =     0.00000000    0.00000000    0.00000000
     atom    4 type  3   force =     0.00000000    0.00000000   -0.00000000
     atom    5 type  3   force =     0.00000000   -0.00000000    0.00000000
     The Hubbard contrib.    to forces
     atom    1 type  1   force =     0.00000000    0.00000000    0.00000000
     atom    2 type  2   force =     0.00000000    0.00000000    0.00000000
     atom    3 type  3   force =     0.00000000    0.00000000    0.00000000
     atom    4 type  3   force =     0.00000000    0.00000000    0.00000000
     atom    5 type  3   force =     0.00000000    0.00000000    0.00000000
     The SCF correction term to forces
     atom    1 type  1   force =     0.00000000   -0.00000000    0.00000000
     atom    2 type  2   force =    -0.00000000    0.00000000   -0.00000000
     atom    3 type  3   force =    -0.00000000   -0.00000000   -0.00000000
     atom    4 type  3   force =     0.00000000    0.00000000   -0.00000000
     atom    5 type  3   force =    -0.00000000   -0.00000000    0.00000000

     Total force =     0.000000     Total SCF correction =     0.000000


     Computing stress (Cartesian axis) and pressure

          total   stress  (Ry/bohr**3)                   (kbar)     P=      -48.55
  -0.00033005   0.00000000   0.00000000          -48.55        0.00        0.00
   0.00000000  -0.00033005   0.00000000            0.00      -48.55        0.00
   0.00000000   0.00000000  -0.00033005            0.00        0.00      -48.55

     kinetic stress (kbar)   6009.99      0.00      0.00
                                0.00   6009.99      0.00
                                0.00      0.00   6009.99

     local   stress (kbar)  -2186.96     -0.00      0.00
                               -0.00  -2186.96     -0.00
                                0.00     -0.00  -2186.96

     nonloc. stress (kbar)   2059.67      0.00      0.00
                                0.00   2059.67      0.00
                                0.00      0.00   2059.67

     hartree stress (kbar)   1718.98     -0.00     -0.00
                               -0.00   1718.98      0.00
                               -0.00      0.00   1718.98

     exc-cor stress (kbar)   7347.11     -0.00     -0.00
                               -0.00   7347.11     -0.00
                               -0.00     -0.00   7347.11

     corecor stress (kbar)  -9044.34     -0.00      0.00
                               -0.00  -9044.34      0.00
                                0.00      0.00  -9044.34

     ewald   stress (kbar)  -5953.00      0.00     -0.00
                                0.00  -5953.00     -0.00
                               -0.00     -0.00  -5953.00

     hubbard stress (kbar)      0.00      0.00      0.00
                                0.00      0.00      0.00
                                0.00      0.00      0.00

     DFT-D   stress (kbar)      0.00      0.00      0.00
                                0.00      0.00      0.00
                                0.00      0.00      0.00

     XDM     stress (kbar)      0.00      0.00      0.00
                                0.00      0.00      0.00
                                0.00      0.00      0.00

     dft-nl  stress (kbar)      0.00      0.00      0.00
                                0.00      0.00      0.00
                                0.00      0.00      0.00

     TS-vdW  stress (kbar)      0.00      0.00      0.00
                                0.00      0.00      0.00
                                0.00      0.00      0.00

     MDB     stress (kbar)      0.00      0.00      0.00
                                0.00      0.00      0.00
                                0.00      0.00      0.00

     3D-RISM stress (kbar)      0.00      0.00      0.00
                                0.00      0.00      0.00
                                0.00      0.00      0.00


     BFGS Geometry Optimization
     Energy error            =      0.0E+00 Ry
     Gradient error          =      0.0E+00 Ry/Bohr
     Cell gradient error     =      4.9E+01 kbar

     number of scf cycles    =   1
     number of bfgs steps    =   0

     enthalpy           new  =   -1173.5599203004 Ry

     new trust radius        =       0.0565065506 bohr
     new conv_thr            =            1.0E-10 Ry

     new unit-cell volume =   1143.67913 a.u.^3 (   169.47576 Ang^3 )
     density =      4.08653 g/cm^3

CELL_PARAMETERS (angstrom)
   5.533958083   0.000000000   0.000000000
   0.000000000   5.533958083   0.000000000
   0.000000000   0.000000000   5.533958083

ATOMIC_POSITIONS (crystal)
Ca               0.0000000000        0.0000000000        0.0000000000
Ce               0.5000000000        0.5000000000        0.5000000000
Se               0.5000000000        0.0000000000        0.0000000000
Se               0.0000000000        0.5000000000        0.0000000000
Se               0.0000000000        0.0000000000        0.5000000000



     Writing config-only to output data dir ./tmp/caces3.save/ :
     XML data file
     NEW-OLD atomic charge density approx. for the potential

     total cpu time spent up to now is     3862.1 secs

     Self-consistent Calculation

     iteration #  1     ecut=    80.00 Ry     beta= 0.30
     Davidson diagonalization with overlap

---- Real-time Memory Report at c_bands before calling an iterative solver
           267 MiB given to the printing process from OS
             0 MiB allocation reported by mallinfo(arena+hblkhd)
         51029 MiB available memory on the node where the printing process lives
------------------
     ethr =  1.00E-06,  avg # of iterations =  7.2

     total cpu time spent up to now is     4165.9 secs

     total energy              =   -1173.56899658 Ry
     estimated scf accuracy    <       0.00021931 Ry

     iteration #  2     ecut=    80.00 Ry     beta= 0.30
     Davidson diagonalization with overlap

---- Real-time Memory Report at c_bands before calling an iterative solver
           267 MiB given to the printing process from OS
             0 MiB allocation reported by mallinfo(arena+hblkhd)
         51185 MiB available memory on the node where the printing process lives
------------------
     ethr =  5.62E-07,  avg # of iterations =  2.2

     total cpu time spent up to now is     4278.5 secs

     total energy              =   -1173.56894575 Ry
     estimated scf accuracy    <       0.00001866 Ry

     iteration #  3     ecut=    80.00 Ry     beta= 0.30
     Davidson diagonalization with overlap

---- Real-time Memory Report at c_bands before calling an iterative solver
           267 MiB given to the printing process from OS
             0 MiB allocation reported by mallinfo(arena+hblkhd)
         51341 MiB available memory on the node where the printing process lives
------------------
     ethr =  4.79E-08,  avg # of iterations =  5.8

     total cpu time spent up to now is     4523.7 secs

     total energy              =   -1173.56889661 Ry
     estimated scf accuracy    <       0.00000890 Ry

     iteration #  4     ecut=    80.00 Ry     beta= 0.30
     Davidson diagonalization with overlap

---- Real-time Memory Report at c_bands before calling an iterative solver
           267 MiB given to the printing process from OS
             0 MiB allocation reported by mallinfo(arena+hblkhd)
         51362 MiB available memory on the node where the printing process lives
------------------
     ethr =  2.28E-08,  avg # of iterations =  2.6

     total cpu time spent up to now is     4657.2 secs

     total energy              =   -1173.56888271 Ry
     estimated scf accuracy    <       0.00000223 Ry

     iteration #  5     ecut=    80.00 Ry     beta= 0.30
     Davidson diagonalization with overlap

---- Real-time Memory Report at c_bands before calling an iterative solver
           267 MiB given to the printing process from OS
             0 MiB allocation reported by mallinfo(arena+hblkhd)
         51177 MiB available memory on the node where the printing process lives
------------------
     ethr =  5.72E-09,  avg # of iterations =  6.5

     total cpu time spent up to now is     4925.5 secs

     total energy              =   -1173.56888559 Ry
     estimated scf accuracy    <       0.00000421 Ry

     iteration #  6     ecut=    80.00 Ry     beta= 0.30
     Davidson diagonalization with overlap

---- Real-time Memory Report at c_bands before calling an iterative solver
           267 MiB given to the printing process from OS
             0 MiB allocation reported by mallinfo(arena+hblkhd)
         51044 MiB available memory on the node where the printing process lives
------------------
     ethr =  5.72E-09,  avg # of iterations =  1.6

     total cpu time spent up to now is     5022.6 secs

     total energy              =   -1173.56888501 Ry
     estimated scf accuracy    <       0.00000127 Ry

     iteration #  7     ecut=    80.00 Ry     beta= 0.30
     Davidson diagonalization with overlap

---- Real-time Memory Report at c_bands before calling an iterative solver
           267 MiB given to the printing process from OS
             0 MiB allocation reported by mallinfo(arena+hblkhd)
         51059 MiB available memory on the node where the printing process lives
------------------
     ethr =  3.27E-09,  avg # of iterations =  2.2

     total cpu time spent up to now is     5136.9 secs

     total energy              =   -1173.56888533 Ry
     estimated scf accuracy    <       0.00000005 Ry

     iteration #  8     ecut=    80.00 Ry     beta= 0.30
     Davidson diagonalization with overlap

---- Real-time Memory Report at c_bands before calling an iterative solver
           267 MiB given to the printing process from OS
             0 MiB allocation reported by mallinfo(arena+hblkhd)
         51449 MiB available memory on the node where the printing process lives
------------------
     ethr =  1.27E-10,  avg # of iterations =  9.2

     total cpu time spent up to now is     5503.4 secs

     total energy              =   -1173.56888553 Ry
     estimated scf accuracy    <       0.00000020 Ry

     iteration #  9     ecut=    80.00 Ry     beta= 0.30
     Davidson diagonalization with overlap

---- Real-time Memory Report at c_bands before calling an iterative solver
           267 MiB given to the printing process from OS
             0 MiB allocation reported by mallinfo(arena+hblkhd)
         50974 MiB available memory on the node where the printing process lives
------------------
     ethr =  1.27E-10,  avg # of iterations =  3.6

     total cpu time spent up to now is     5674.5 secs

     total energy              =   -1173.56888560 Ry
     estimated scf accuracy    <       0.00000001 Ry

     iteration # 10     ecut=    80.00 Ry     beta= 0.30
     Davidson diagonalization with overlap

---- Real-time Memory Report at c_bands before calling an iterative solver
           267 MiB given to the printing process from OS
             0 MiB allocation reported by mallinfo(arena+hblkhd)
         51141 MiB available memory on the node where the printing process lives
------------------
     ethr =  3.79E-11,  avg # of iterations =  2.9

     total cpu time spent up to now is     5816.2 secs

     total energy              =   -1173.56888562 Ry
     estimated scf accuracy    <          8.1E-09 Ry

     iteration # 11     ecut=    80.00 Ry     beta= 0.30
     Davidson diagonalization with overlap

---- Real-time Memory Report at c_bands before calling an iterative solver
           267 MiB given to the printing process from OS
             0 MiB allocation reported by mallinfo(arena+hblkhd)
         51044 MiB available memory on the node where the printing process lives
------------------
     ethr =  2.08E-11,  avg # of iterations =  3.7

     total cpu time spent up to now is     5985.6 secs

     total energy              =   -1173.56888563 Ry
     estimated scf accuracy    <          1.9E-09 Ry

     iteration # 12     ecut=    80.00 Ry     beta= 0.30
     Davidson diagonalization with overlap

---- Real-time Memory Report at c_bands before calling an iterative solver
           267 MiB given to the printing process from OS
             0 MiB allocation reported by mallinfo(arena+hblkhd)
         51196 MiB available memory on the node where the printing process lives
------------------
     ethr =  4.77E-12,  avg # of iterations =  5.7

     total cpu time spent up to now is     6219.8 secs

     total energy              =   -1173.56888564 Ry
     estimated scf accuracy    <          3.5E-10 Ry

     iteration # 13     ecut=    80.00 Ry     beta= 0.30
     Davidson diagonalization with overlap

---- Real-time Memory Report at c_bands before calling an iterative solver
           267 MiB given to the printing process from OS
             0 MiB allocation reported by mallinfo(arena+hblkhd)
         51067 MiB available memory on the node where the printing process lives
------------------
     ethr =  9.08E-13,  avg # of iterations =  6.3

     total cpu time spent up to now is     6484.0 secs

     total energy              =   -1173.56888564 Ry
     estimated scf accuracy    <          1.4E-09 Ry

     iteration # 14     ecut=    80.00 Ry     beta= 0.30
     Davidson diagonalization with overlap

---- Real-time Memory Report at c_bands before calling an iterative solver
           267 MiB given to the printing process from OS
             0 MiB allocation reported by mallinfo(arena+hblkhd)
         51267 MiB available memory on the node where the printing process lives
------------------
     ethr =  9.08E-13,  avg # of iterations =  2.7

     total cpu time spent up to now is     6621.4 secs

     total energy              =   -1173.56888565 Ry
     estimated scf accuracy    <          3.0E-10 Ry

     iteration # 15     ecut=    80.00 Ry     beta= 0.30
     Davidson diagonalization with overlap

---- Real-time Memory Report at c_bands before calling an iterative solver
           267 MiB given to the printing process from OS
             0 MiB allocation reported by mallinfo(arena+hblkhd)
         51250 MiB available memory on the node where the printing process lives
------------------
     ethr =  7.60E-13,  avg # of iterations =  2.2

     total cpu time spent up to now is     6735.7 secs

     End of self-consistent calculation

          k = 0.0000 0.0000 0.0000 ( 14147 PWs)   bands (ev):

   -33.7974 -31.9712 -14.9217 -14.9217 -14.9217 -14.4863 -14.4863 -14.4863
    -6.8802  -6.1703  -6.1703   2.7768   2.7768   2.7768   4.3145   4.3145
     4.3145   5.1472   5.1472   5.1472   5.7628   5.7628   6.0769   6.1487

     occupation numbers 
     1.0000   1.0000   1.0000   1.0000   1.0000   1.0000   1.0000   1.0000
     1.0000   1.0000   1.0000   1.0000   1.0000   1.0000   1.0000   1.0000
     1.0000  -0.0068  -0.0068  -0.0068  -0.0000  -0.0000  -0.0000  -0.0000

          k = 0.0000 0.0000 0.0840 ( 14114 PWs)   bands (ev):

   -33.7974 -31.9712 -14.9233 -14.9216 -14.9216 -14.4869 -14.4863 -14.4863
    -6.8657  -6.1724  -6.1693   2.7574   2.7843   2.7843   4.2220   4.2561
     4.2561   4.9559   5.1188   5.1188   5.7979   5.8863   6.0848   6.1711

     occupation numbers 
     1.0000   1.0000   1.0000   1.0000   1.0000   1.0000   1.0000   1.0000
     1.0000   1.0000   1.0000   1.0000   1.0000   1.0000   1.0000   1.0000
     1.0000   0.0612  -0.0129  -0.0129  -0.0000  -0.0000  -0.0000  -0.0000

          k = 0.0000 0.0000 0.1681 ( 14106 PWs)   bands (ev):

   -33.7974 -31.9712 -14.9275 -14.9215 -14.9215 -14.4885 -14.4863 -14.4863
    -6.8250  -6.1794  -6.1667   2.7142   2.8061   2.8061   4.0199   4.1146
     4.1146   4.5543   5.0465   5.0465   5.8960   6.1067   6.1752   6.4111

     occupation numbers 
     1.0000   1.0000   1.0000   1.0000   1.0000   1.0000   1.0000   1.0000
     1.0000   1.0000   1.0000   1.0000   1.0000   1.0000   1.0000   1.0000
     1.0000   1.0026  -0.0345  -0.0345  -0.0000  -0.0000  -0.0000  -0.0000

          k = 0.0000 0.0000 0.2521 ( 14138 PWs)   bands (ev):

   -33.7974 -31.9712 -14.9333 -14.9213 -14.9213 -14.4907 -14.4862 -14.4862
    -6.7658  -6.1922  -6.1632   2.6827   2.8395   2.8395   3.8078   3.9482
     3.9482   4.1022   4.9560   4.9560   6.0402   6.1376   6.5108   6.7198

     occupation numbers 
     1.0000   1.0000   1.0000   1.0000   1.0000   1.0000   1.0000   1.0000
     1.0000   1.0000   1.0000   1.0000   1.0000   1.0000   1.0000   1.0000
     1.0000   1.0000   0.0610   0.0610  -0.0000  -0.0000  -0.0000  -0.0000

          k = 0.0000 0.0000 0.3361 ( 14158 PWs)   bands (ev):

   -33.7973 -31.9711 -14.9391 -14.9211 -14.9211 -14.4929 -14.4861 -14.4861
    -6.7007  -6.2106  -6.1596   2.6984   2.8788   2.8788   3.6357   3.6726
     3.7987   3.7987   4.8717   4.8717   6.1699   6.2002   6.8123   7.0261

     occupation numbers 
     1.0000   1.0000   1.0000   1.0000   1.0000   1.0000   1.0000   1.0000
     1.0000   1.0000   1.0000   1.0000   1.0000   1.0000   1.0000   1.0000
     1.0000   1.0000   0.4787   0.4787  -0.0000  -0.0000  -0.0000  -0.0000

          k = 0.0000 0.0000 0.4201 ( 14170 PWs)   bands (ev):

   -33.7973 -31.9711 -14.9433 -14.9210 -14.9210 -14.4945 -14.4860 -14.4860
    -6.6474  -6.2295  -6.1570   2.7834   2.9131   2.9131   3.3129   3.5259
     3.6937   3.6937   4.8131   4.8131   6.1944   6.3301   7.0211   7.2585

     occupation numbers 
     1.0000   1.0000   1.0000   1.0000   1.0000   1.0000   1.0000   1.0000
     1.0000   1.0000   1.0000   1.0000   1.0000   1.0000   1.0000   1.0000
     1.0000   1.0000   0.8140   0.8140  -0.0000  -0.0000  -0.0000  -0.0000

          k = 0.0000 0.0000-0.5042 ( 14190 PWs)   bands (ev):

   -33.7973 -31.9711 -14.9449 -14.9209 -14.9209 -14.4951 -14.4860 -14.4860
    -6.6261  -6.2382  -6.1561   2.8851   2.9273   2.9273   3.1154   3.4883
     3.6553   3.6553   4.7922   4.7922   6.2035   6.3810   7.0959   7.3469

     occupation numbers 
     1.0000   1.0000   1.0000   1.0000   1.0000   1.0000   1.0000   1.0000
     1.0000   1.0000   1.0000   1.0000   1.0000   1.0000   1.0000   1.0000
     1.0000   1.0000   0.9009   0.9009  -0.0000  -0.0000  -0.0000  -0.0000

          k = 0.0000 0.0840 0.0840 ( 14125 PWs)   bands (ev):

   -33.7974 -31.9712 -14.9233 -14.9231 -14.9216 -14.4870 -14.4868 -14.4863
    -6.8513  -6.1728  -6.1700   2.7001   2.7923   2.8324   4.0638   4.2019
     4.2949   4.8224   5.0776   5.0883   5.8765   5.8940   6.1420   6.2117

     occupation numbers 
     1.0000   1.0000   1.0000   1.0000   1.0000   1.0000   1.0000   1.0000
     1.0000   1.0000   1.0000   1.0000   1.0000   1.0000   1.0000   1.0000
     1.0000   0.7685  -0.0259  -0.0223  -0.0000  -0.0000  -0.0000  -0.0000

          k = 0.0000 0.0840 0.1681 ( 14150 PWs)   bands (ev):

   -33.7974 -31.9712 -14.9275 -14.9231 -14.9214 -14.4885 -14.4868 -14.4862
    -6.8109  -6.1789  -6.1682   2.6333   2.8152   2.8838   3.8363   4.0690
     4.2195   4.4954   4.9978   5.0112   5.9466   6.1118   6.1797   6.4271

     occupation numbers 
     1.0000   1.0000   1.0000   1.0000   1.0000   1.0000   1.0000   1.0000
     1.0000   1.0000   1.0000   1.0000   1.0000   1.0000   1.0000   1.0000
     1.0000   1.0004  -0.0194  -0.0296  -0.0000  -0.0000  -0.0000  -0.0000

          k = 0.0000 0.0840 0.2521 ( 14161 PWs)   bands (ev):

   -33.7974 -31.9711 -14.9333 -14.9229 -14.9213 -14.4906 -14.4867 -14.4861
    -6.7520  -6.1912  -6.1648   2.5912   2.8503   2.9310   3.6101   3.9105
     3.9991   4.1926   4.9006   4.9146   6.0730   6.2104   6.4129   6.7270

     occupation numbers 
     1.0000   1.0000   1.0000   1.0000   1.0000   1.0000   1.0000   1.0000
     1.0000   1.0000   1.0000   1.0000   1.0000   1.0000   1.0000   1.0000
     1.0000   1.0000   0.3053   0.2296  -0.0000  -0.0000  -0.0000  -0.0000

          k = 0.0000 0.0840 0.3361 ( 14170 PWs)   bands (ev):

   -33.7973 -31.9711 -14.9391 -14.9227 -14.9211 -14.4927 -14.4865 -14.4860
    -6.6873  -6.2090  -6.1614   2.6003   2.8918   2.9696   3.4063   3.6644
     3.7663   4.0402   4.8101   4.8249   6.2268   6.2406   6.7185   7.0297

     occupation numbers 
     1.0000   1.0000   1.0000   1.0000   1.0000   1.0000   1.0000   1.0000
     1.0000   1.0000   1.0000   1.0000   1.0000   1.0000   1.0000   1.0000
     1.0000   1.0000   0.8278   0.7553  -0.0000  -0.0000  -0.0000  -0.0000

          k = 0.0000 0.0840 0.4201 ( 14152 PWs)   bands (ev):

   -33.7973 -31.9711 -14.9433 -14.9226 -14.9209 -14.4943 -14.4865 -14.4860
    -6.6344  -6.2275  -6.1589   2.6780   2.9282   2.9626   3.2324   3.4324
     3.6641   3.9501   4.7469   4.7625   6.2633   6.3560   6.9646   7.1908

     occupation numbers 
     1.0000   1.0000   1.0000   1.0000   1.0000   1.0000   1.0000   1.0000
     1.0000   1.0000   1.0000   1.0000   1.0000   1.0000   1.0000   1.0000
     1.0000   1.0000   1.0101   0.9841  -0.0000  -0.0000  -0.0000  -0.0000

          k = 0.0000 0.0840-0.5042 ( 14170 PWs)   bands (ev):

   -33.7973 -31.9711 -14.9449 -14.9226 -14.9209 -14.4949 -14.4864 -14.4860
    -6.6133  -6.2360  -6.1580   2.7924   2.8620   2.9435   3.1766   3.3579
     3.6264   3.9186   4.7242   4.7403   6.2717   6.4071   7.0686   7.2373

     occupation numbers 
     1.0000   1.0000   1.0000   1.0000   1.0000   1.0000   1.0000   1.0000
     1.0000   1.0000   1.0000   1.0000   1.0000   1.0000   1.0000   1.0000
     1.0000   1.0000   1.0302   1.0179  -0.0000  -0.0000  -0.0000  -0.0000

          k = 0.0000 0.1681 0.1681 ( 14135 PWs)   bands (ev):

   -33.7974 -31.9712 -14.9276 -14.9272 -14.9213 -14.4887 -14.4879 -14.4862
    -6.7711  -6.1796  -6.1710   2.5331   2.8415   2.9808   3.5847   3.9547
     4.2741   4.2828   4.9097   4.9208   6.0376   6.1546   6.3252   6.5151

     occupation numbers 
     1.0000   1.0000   1.0000   1.0000   1.0000   1.0000   1.0000   1.0000
     1.0000   1.0000   1.0000   1.0000   1.0000   1.0000   1.0000   1.0000
     1.0000   1.0000   0.2551   0.1989  -0.0000  -0.0000  -0.0000  -0.0000

          k = 0.0000 0.1681 0.2521 ( 14144 PWs)   bands (ev):

   -33.7973 -31.9711 -14.9333 -14.9273 -14.9211 -14.4904 -14.4880 -14.4860
    -6.7133  -6.1887  -6.1698   2.4653   2.8819   3.0596   3.3413   3.8146
     3.9703   4.2790   4.8039   4.8072   6.1316   6.3671   6.3967   6.7539

     occupation numbers 
     1.0000   1.0000   1.0000   1.0000   1.0000   1.0000   1.0000   1.0000
     1.0000   1.0000   1.0000   1.0000   1.0000   1.0000   1.0000   1.0000
     1.0000   1.0000   0.8552   0.8407  -0.0000  -0.0000  -0.0000  -0.0000

          k = 0.0000 0.1681 0.3361 ( 14160 PWs)   bands (ev):

   -33.7973 -31.9711 -14.9391 -14.9272 -14.9210 -14.4924 -14.4878 -14.4859
    -6.6500  -6.2048  -6.1669   2.4510   2.9299   3.0524   3.1855   3.6718
     3.6838   4.2690   4.6869   4.7012   6.2786   6.4308   6.6078   7.0117

     occupation numbers 
     1.0000   1.0000   1.0000   1.0000   1.0000   1.0000   1.0000   1.0000
     1.0000   1.0000   1.0000   1.0000   1.0000   1.0000   1.0000   1.0000
     1.0000   1.0000   1.0339   1.0355  -0.0000  -0.0000  -0.0000  -0.0000

          k = 0.0000 0.1681 0.4201 ( 14172 PWs)   bands (ev):

   -33.7973 -31.9711 -14.9434 -14.9271 -14.9208 -14.4938 -14.4877 -14.4859
    -6.5981  -6.2220  -6.1646   2.4993   2.8669   2.9728   3.2247   3.4529
     3.5885   4.2677   4.5893   4.6269   6.4193   6.4517   6.8307   7.0759

     occupation numbers 
     1.0000   1.0000   1.0000   1.0000   1.0000   1.0000   1.0000   1.0000
     1.0000   1.0000   1.0000   1.0000   1.0000   1.0000   1.0000   1.0000
     1.0000   1.0000   1.0068   1.0154  -0.0000  -0.0000  -0.0000  -0.0000

          k = 0.0000 0.1681-0.5042 ( 14176 PWs)   bands (ev):

   -33.7973 -31.9711 -14.9450 -14.9271 -14.9208 -14.4944 -14.4876 -14.4858
    -6.5774  -6.2300  -6.1637   2.5628   2.7468   2.9911   3.2806   3.3427
     3.5525   4.2714   4.5489   4.6004   6.4591   6.4778   6.9990   7.0086

     occupation numbers 
     1.0000   1.0000   1.0000   1.0000   1.0000   1.0000   1.0000   1.0000
     1.0000   1.0000   1.0000   1.0000   1.0000   1.0000   1.0000   1.0000
     1.0000   1.0000   1.0022   1.0088  -0.0000  -0.0000  -0.0000  -0.0000

          k = 0.0000 0.2521 0.2521 ( 14143 PWs)   bands (ev):

   -33.7973 -31.9711 -14.9335 -14.9330 -14.9210 -14.4905 -14.4894 -14.4859
    -6.6573  -6.1886  -6.1762   2.3667   2.9307   3.0886   3.1723   3.6949
     3.8484   4.2795   4.6694   4.7441   6.1781   6.4920   6.5983   6.8410

     occupation numbers 
     1.0000   1.0000   1.0000   1.0000   1.0000   1.0000   1.0000   1.0000
     1.0000   1.0000   1.0000   1.0000   1.0000   1.0000   1.0000   1.0000
     1.0000   1.0000   1.0293   1.0136  -0.0000  -0.0000  -0.0000  -0.0000

          k = 0.0000 0.2521 0.3361 ( 14147 PWs)   bands (ev):

   -33.7973 -31.9711 -14.9392 -14.9332 -14.9208 -14.4919 -14.4895 -14.4858
    -6.5961  -6.1994  -6.1763   2.3133   2.8697   2.9893   3.2592   3.5810
     3.6657   4.2858   4.5378   4.6849   6.2865   6.6572   6.6872   6.9661

     occupation numbers 
     1.0000   1.0000   1.0000   1.0000   1.0000   1.0000   1.0000   1.0000
     1.0000   1.0000   1.0000   1.0000   1.0000   1.0000   1.0000   1.0000
     1.0000   1.0000   1.0016   1.0335  -0.0000  -0.0000  -0.0000  -0.0000

          k = 0.0000 0.2521 0.4201 ( 14151 PWs)   bands (ev):

   -33.7973 -31.9710 -14.9435 -14.9332 -14.9207 -14.4932 -14.4893 -14.4857
    -6.5462  -6.2145  -6.1742   2.3078   2.6999   3.0433   3.3276   3.4953
     3.5069   4.3114   4.4437   4.6192   6.4481   6.7154   6.7649   6.9577

     occupation numbers 
     1.0000   1.0000   1.0000   1.0000   1.0000   1.0000   1.0000   1.0000
     1.0000   1.0000   1.0000   1.0000   1.0000   1.0000   1.0000   1.0000
     1.0000   1.0000   1.0000   1.0133  -0.0000  -0.0000  -0.0000  -0.0000

          k = 0.0000 0.2521-0.5042 ( 14194 PWs)   bands (ev):

   -33.7973 -31.9710 -14.9451 -14.9332 -14.9207 -14.4937 -14.4892 -14.4856
    -6.5262  -6.2218  -6.1733   2.3194   2.6273   3.0671   3.3859   3.4140
     3.4615   4.3283   4.4094   4.5868   6.5524   6.7231   6.7777   6.9367

     occupation numbers 
     1.0000   1.0000   1.0000   1.0000   1.0000   1.0000   1.0000   1.0000
     1.0000   1.0000   1.0000   1.0000   1.0000   1.0000   1.0000   1.0000
     1.0000   1.0000   1.0000   1.0063  -0.0000  -0.0000  -0.0000  -0.0000

          k = 0.0000 0.3361 0.3361 ( 14163 PWs)   bands (ev):

   -33.7973 -31.9710 -14.9394 -14.9390 -14.9207 -14.4917 -14.4909 -14.4856
    -6.5377  -6.1971  -6.1868   2.2076   2.6889   3.0618   3.3573   3.4843
     3.6274   4.1895   4.3758   4.7642   6.3102   6.7994   6.8832   6.9177

     occupation numbers 
     1.0000   1.0000   1.0000   1.0000   1.0000   1.0000   1.0000   1.0000
     1.0000   1.0000   1.0000   1.0000   1.0000   1.0000   1.0000   1.0000
     1.0000   1.0000   1.0000   0.9805  -0.0000  -0.0000  -0.0000  -0.0000

          k = 0.0000 0.3361 0.4201 ( 14162 PWs)   bands (ev):

   -33.7972 -31.9710 -14.9436 -14.9392 -14.9206 -14.4926 -14.4909 -14.4855
    -6.4901  -6.2071  -6.1871   2.1448   2.5657   3.1309   3.4105   3.4335
     3.5640   4.1335   4.2543   4.8097   6.4088   6.7409   6.9251   6.9956

     occupation numbers 
     1.0000   1.0000   1.0000   1.0000   1.0000   1.0000   1.0000   1.0000
     1.0000   1.0000   1.0000   1.0000   1.0000   1.0000   1.0000   1.0000
     1.0000   1.0000   1.0000   0.8299  -0.0000  -0.0000  -0.0000  -0.0000

          k = 0.0000 0.3361-0.5042 ( 14124 PWs)   bands (ev):

   -33.7972 -31.9710 -14.9452 -14.9393 -14.9206 -14.4930 -14.4908 -14.4855
    -6.4711  -6.2135  -6.1860   2.1250   2.5209   3.1635   3.3794   3.4858
     3.5103   4.1186   4.2085   4.8222   6.5433   6.5942   6.9684   7.0069

     occupation numbers 
     1.0000   1.0000   1.0000   1.0000   1.0000   1.0000   1.0000   1.0000
     1.0000   1.0000   1.0000   1.0000   1.0000   1.0000   1.0000   1.0000
     1.0000   1.0000   1.0000   0.7693  -0.0000  -0.0000  -0.0000  -0.0000

          k = 0.0000 0.4201 0.4201 ( 14154 PWs)   bands (ev):

   -33.7972 -31.9710 -14.9437 -14.9436 -14.9205 -14.4923 -14.4920 -14.4854
    -6.4448  -6.2030  -6.1991   2.0387   2.4772   3.2161   3.3502   3.5218
     3.5984   4.0025   4.1029   4.9247   6.4074   6.6053   7.0130   7.2049

     occupation numbers 
     1.0000   1.0000   1.0000   1.0000   1.0000   1.0000   1.0000   1.0000
     1.0000   1.0000   1.0000   1.0000   1.0000   1.0000   1.0000   1.0000
     1.0000   1.0000   1.0000   0.1804  -0.0000  -0.0000  -0.0000  -0.0000

          k = 0.0000 0.4201-0.5042 ( 14156 PWs)   bands (ev):

   -33.7972 -31.9710 -14.9453 -14.9437 -14.9205 -14.4926 -14.4920 -14.4853
    -6.4267  -6.2074  -6.1990   2.0022   2.4458   3.2590   3.3239   3.5753
     3.5909   3.9555   4.0418   4.9614   6.4783   6.4788   7.0529   7.2375

     occupation numbers 
     1.0000   1.0000   1.0000   1.0000   1.0000   1.0000   1.0000   1.0000
     1.0000   1.0000   1.0000   1.0000   1.0000   1.0000   1.0000   1.0000
     1.0000   1.0000   1.0000   0.0458  -0.0000  -0.0000  -0.0000  -0.0000

          k = 0.0000-0.5042-0.5042 ( 14108 PWs)   bands (ev):

   -33.7972 -31.9710 -14.9453 -14.9453 -14.9204 -14.4924 -14.4924 -14.4853
    -6.4089  -6.2052  -6.2052   1.9603   2.4185   3.3043   3.3043   3.6225
     3.6225   3.8830   3.9714   5.0064   6.4388   6.4478   7.0909   7.3294

     occupation numbers 
     1.0000   1.0000   1.0000   1.0000   1.0000   1.0000   1.0000   1.0000
     1.0000   1.0000   1.0000   1.0000   1.0000   1.0000   1.0000   1.0000
     1.0000   1.0000   1.0000  -0.0266  -0.0000  -0.0000  -0.0000  -0.0000

          k = 0.0840 0.0840 0.0840 ( 14126 PWs)   bands (ev):

   -33.7974 -31.9712 -14.9232 -14.9232 -14.9231 -14.4871 -14.4867 -14.4867
    -6.8371  -6.1720  -6.1720   2.6464   2.8398   2.8398   4.0262   4.0262
     4.3678   4.6921   5.0568   5.0568   5.9051   5.9051   6.1609   6.3429

     occupation numbers 
     1.0000   1.0000   1.0000   1.0000   1.0000   1.0000   1.0000   1.0000
     1.0000   1.0000   1.0000   1.0000   1.0000   1.0000   1.0000   1.0000
     1.0000   1.0348  -0.0323  -0.0323  -0.0000  -0.0000  -0.0000  -0.0000

          k = 0.0840 0.0840 0.1681 ( 14146 PWs)   bands (ev):

   -33.7974 -31.9712 -14.9275 -14.9231 -14.9230 -14.4885 -14.4868 -14.4867
    -6.7968  -6.1783  -6.1696   2.5720   2.8614   2.9051   3.7847   3.9162
     4.3382   4.4005   4.9616   4.9956   5.9638   6.0697   6.2178   6.4827

     occupation numbers 
     1.0000   1.0000   1.0000   1.0000   1.0000   1.0000   1.0000   1.0000
     1.0000   1.0000   1.0000   1.0000   1.0000   1.0000   1.0000   1.0000
     1.0000   1.0000   0.0452  -0.0171  -0.0000  -0.0000  -0.0000  -0.0000

          k = 0.0840 0.0840 0.2521 ( 14152 PWs)   bands (ev):

   -33.7974 -31.9711 -14.9333 -14.9229 -14.9229 -14.4905 -14.4867 -14.4866
    -6.7383  -6.1903  -6.1663   2.5253   2.8954   2.9598   3.5608   3.7254
     4.1021   4.2270   4.8360   4.9125   6.0778   6.2765   6.3531   6.6846

     occupation numbers 
     1.0000   1.0000   1.0000   1.0000   1.0000   1.0000   1.0000   1.0000
     1.0000   1.0000   1.0000   1.0000   1.0000   1.0000   1.0000   1.0000
     1.0000   1.0000   0.6949   0.2405  -0.0000  -0.0000  -0.0000  -0.0000

          k = 0.0840 0.0840 0.3361 ( 14161 PWs)   bands (ev):

   -33.7973 -31.9711 -14.9391 -14.9227 -14.9227 -14.4926 -14.4865 -14.4865
    -6.6740  -6.2076  -6.1630   2.5325   2.9384   2.9882   3.3793   3.4565
     3.9117   4.1051   4.7162   4.8336   6.2050   6.3410   6.6670   6.9134

     occupation numbers 
     1.0000   1.0000   1.0000   1.0000   1.0000   1.0000   1.0000   1.0000
     1.0000   1.0000   1.0000   1.0000   1.0000   1.0000   1.0000   1.0000
     1.0000   1.0000   1.0334   0.7084  -0.0000  -0.0000  -0.0000  -0.0000

          k = 0.0840 0.0840 0.4201 ( 14164 PWs)   bands (ev):

   -33.7973 -31.9711 -14.9434 -14.9226 -14.9225 -14.4941 -14.4864 -14.4864
    -6.6214  -6.2256  -6.1606   2.6102   2.9327   2.9832   3.2466   3.2529
     3.8168   4.0163   4.6305   4.7785   6.2777   6.4247   6.9294   7.1041

     occupation numbers 
     1.0000   1.0000   1.0000   1.0000   1.0000   1.0000   1.0000   1.0000
     1.0000   1.0000   1.0000   1.0000   1.0000   1.0000   1.0000   1.0000
     1.0000   1.0000   1.0165   0.9453  -0.0000  -0.0000  -0.0000  -0.0000

          k = 0.0840 0.0840-0.5042 ( 14174 PWs)   bands (ev):

   -33.7973 -31.9711 -14.9449 -14.9226 -14.9225 -14.4947 -14.4864 -14.4864
    -6.6004  -6.2339  -6.1598   2.7377   2.7861   3.0074   3.1968   3.2022
     3.7873   3.9841   4.5992   4.7588   6.2965   6.4673   7.0428   7.1811

     occupation numbers 
     1.0000   1.0000   1.0000   1.0000   1.0000   1.0000   1.0000   1.0000
     1.0000   1.0000   1.0000   1.0000   1.0000   1.0000   1.0000   1.0000
     1.0000   1.0000   1.0086   0.9913  -0.0000  -0.0000  -0.0000  -0.0000

          k = 0.0840 0.1681 0.1681 ( 14144 PWs)   bands (ev):

   -33.7974 -31.9711 -14.9275 -14.9272 -14.9229 -14.4886 -14.4879 -14.4866
    -6.7572  -6.1790  -6.1724   2.4794   2.8971   2.9840   3.5831   3.8007
     4.1696   4.3984   4.8963   4.9154   6.0441   6.0861   6.2899   6.6580

     occupation numbers 
     1.0000   1.0000   1.0000   1.0000   1.0000   1.0000   1.0000   1.0000
     1.0000   1.0000   1.0000   1.0000   1.0000   1.0000   1.0000   1.0000
     1.0000   1.0000   0.3297   0.2254  -0.0000  -0.0000  -0.0000  -0.0000

          k = 0.0840 0.1681 0.2521 ( 14146 PWs)   bands (ev):

   -33.7973 -31.9711 -14.9333 -14.9272 -14.9228 -14.4903 -14.4879 -14.4865
    -6.6997  -6.1881  -6.1710   2.4165   2.9281   3.0555   3.3550   3.6565
     3.9450   4.3656   4.7659   4.8312   6.1293   6.2850   6.3948   6.7878

     occupation numbers 
     1.0000   1.0000   1.0000   1.0000   1.0000   1.0000   1.0000   1.0000
     1.0000   1.0000   1.0000   1.0000   1.0000   1.0000   1.0000   1.0000
     1.0000   1.0000   0.9769   0.7218  -0.0000  -0.0000  -0.0000  -0.0000

          k = 0.0840 0.1681 0.3361 ( 14163 PWs)   bands (ev):

   -33.7973 -31.9711 -14.9391 -14.9271 -14.9226 -14.4923 -14.4878 -14.4864
    -6.6367  -6.2037  -6.1682   2.4085   2.9432   3.0609   3.1903   3.4465
     3.8409   4.3080   4.6104   4.7525   6.2519   6.4550   6.5944   6.9098

     occupation numbers 
     1.0000   1.0000   1.0000   1.0000   1.0000   1.0000   1.0000   1.0000
     1.0000   1.0000   1.0000   1.0000   1.0000   1.0000   1.0000   1.0000
     1.0000   1.0000   1.0110   1.0020  -0.0000  -0.0000  -0.0000  -0.0000

          k = 0.0840 0.1681 0.4201 ( 14175 PWs)   bands (ev):

   -33.7973 -31.9711 -14.9434 -14.9270 -14.9225 -14.4937 -14.4876 -14.4863
    -6.5852  -6.2205  -6.1660   2.4680   2.8173   3.0465   3.1485   3.3009
     3.8089   4.2791   4.4708   4.6963   6.3451   6.5675   6.8256   7.0052

     occupation numbers 
     1.0000   1.0000   1.0000   1.0000   1.0000   1.0000   1.0000   1.0000
     1.0000   1.0000   1.0000   1.0000   1.0000   1.0000   1.0000   1.0000
     1.0000   1.0000   1.0001   1.0352  -0.0000  -0.0000  -0.0000  -0.0000

          k = 0.0840 0.1681-0.5042 ( 14192 PWs)   bands (ev):

   -33.7973 -31.9711 -14.9450 -14.9270 -14.9224 -14.4942 -14.4876 -14.4863
    -6.5645  -6.2284  -6.1652   2.5554   2.6777   3.0733   3.1147   3.2633
     3.8030   4.2849   4.4016   4.6761   6.3749   6.6197   6.9771   6.9875

     occupation numbers 
     1.0000   1.0000   1.0000   1.0000   1.0000   1.0000   1.0000   1.0000
     1.0000   1.0000   1.0000   1.0000   1.0000   1.0000   1.0000   1.0000
     1.0000   1.0000   1.0000   1.0313  -0.0000  -0.0000  -0.0000  -0.0000

          k = 0.0840 0.2521 0.2521 ( 14147 PWs)   bands (ev):

   -33.7973 -31.9711 -14.9334 -14.9330 -14.9226 -14.4904 -14.4894 -14.4864
    -6.6440  -6.1882  -6.1770   2.3305   2.9283   3.1433   3.1474   3.6258
     3.7451   4.3898   4.6916   4.7361   6.1856   6.3886   6.5046   6.9576

     occupation numbers 
     1.0000   1.0000   1.0000   1.0000   1.0000   1.0000   1.0000   1.0000
     1.0000   1.0000   1.0000   1.0000   1.0000   1.0000   1.0000   1.0000
     1.0000   1.0000   1.0347   1.0220  -0.0000  -0.0000  -0.0000  -0.0000

          k = 0.0840 0.2521 0.3361 ( 14151 PWs)   bands (ev):

   -33.7973 -31.9711 -14.9391 -14.9332 -14.9224 -14.4918 -14.4894 -14.4862
    -6.5830  -6.1989  -6.1770   2.2909   2.8166   3.0728   3.1804   3.4954
     3.7055   4.3367   4.5751   4.6866   6.2893   6.5269   6.6741   6.9871

     occupation numbers 
     1.0000   1.0000   1.0000   1.0000   1.0000   1.0000   1.0000   1.0000
     1.0000   1.0000   1.0000   1.0000   1.0000   1.0000   1.0000   1.0000
     1.0000   1.0000   1.0047   1.0338  -0.0000  -0.0000  -0.0000  -0.0000

          k = 0.0840 0.2521 0.4201 ( 14173 PWs)   bands (ev):

   -33.7973 -31.9710 -14.9435 -14.9331 -14.9223 -14.4931 -14.4893 -14.4861
    -6.5332  -6.2136  -6.1751   2.3036   2.6536   3.0831   3.1558   3.3972
     3.7532   4.2471   4.5217   4.6280   6.4281   6.6281   6.8596   6.9204

     occupation numbers 
     1.0000   1.0000   1.0000   1.0000   1.0000   1.0000   1.0000   1.0000
     1.0000   1.0000   1.0000   1.0000   1.0000   1.0000   1.0000   1.0000
     1.0000   1.0000   1.0009   1.0158  -0.0000  -0.0000  -0.0000  -0.0000

          k = 0.0840 0.2521-0.5042 ( 14166 PWs)   bands (ev):

   -33.7973 -31.9710 -14.9450 -14.9331 -14.9223 -14.4936 -14.4892 -14.4861
    -6.5133  -6.2207  -6.1743   2.3305   2.5701   3.1093   3.1139   3.3740
     3.7846   4.1976   4.5151   4.5973   6.4904   6.7663   6.7781   6.9419

     occupation numbers 
     1.0000   1.0000   1.0000   1.0000   1.0000   1.0000   1.0000   1.0000
     1.0000   1.0000   1.0000   1.0000   1.0000   1.0000   1.0000   1.0000
     1.0000   1.0000   1.0007   1.0082  -0.0000  -0.0000  -0.0000  -0.0000

          k = 0.0840 0.3361 0.3361 ( 14157 PWs)   bands (ev):

   -33.7973 -31.9710 -14.9393 -14.9390 -14.9223 -14.4916 -14.4909 -14.4861
    -6.5247  -6.1969  -6.1870   2.2039   2.6481   3.0837   3.1948   3.5808
     3.5927   4.2619   4.4207   4.7739   6.3150   6.7003   6.7348   7.0278

     occupation numbers 
     1.0000   1.0000   1.0000   1.0000   1.0000   1.0000   1.0000   1.0000
     1.0000   1.0000   1.0000   1.0000   1.0000   1.0000   1.0000   1.0000
     1.0000   1.0000   1.0000   0.9576  -0.0000  -0.0000  -0.0000  -0.0000

          k = 0.0840 0.3361 0.4201 ( 14171 PWs)   bands (ev):

   -33.7972 -31.9710 -14.9435 -14.9392 -14.9222 -14.4926 -14.4909 -14.4860
    -6.4773  -6.2068  -6.1875   2.1571   2.5224   3.0980   3.1642   3.5281
     3.7091   4.1340   4.3320   4.8221   6.4109   6.6946   6.8454   7.0268

     occupation numbers 
     1.0000   1.0000   1.0000   1.0000   1.0000   1.0000   1.0000   1.0000
     1.0000   1.0000   1.0000   1.0000   1.0000   1.0000   1.0000   1.0000
     1.0000   1.0000   1.0000   0.7699  -0.0000  -0.0000  -0.0000  -0.0000

          k = 0.0840 0.3361-0.5042 ( 14162 PWs)   bands (ev):

   -33.7972 -31.9710 -14.9451 -14.9392 -14.9222 -14.4930 -14.4908 -14.4859
    -6.4582  -6.2130  -6.1865   2.1445   2.4744   3.1233   3.1235   3.5161
     3.7928   4.0364   4.3132   4.8349   6.5393   6.5848   6.8619   7.0732

     occupation numbers 
     1.0000   1.0000   1.0000   1.0000   1.0000   1.0000   1.0000   1.0000
     1.0000   1.0000   1.0000   1.0000   1.0000   1.0000   1.0000   1.0000
     1.0000   1.0000   1.0000   0.7010  -0.0000  -0.0000  -0.0000  -0.0000

          k = 0.0840 0.4201 0.4201 ( 14162 PWs)   bands (ev):

   -33.7972 -31.9710 -14.9436 -14.9435 -14.9221 -14.4922 -14.4920 -14.4858
    -6.4319  -6.2031  -6.1991   2.0597   2.4365   3.1074   3.1485   3.6761
     3.6976   4.0559   4.1503   4.9386   6.4086   6.5998   6.9484   7.1485

     occupation numbers 
     1.0000   1.0000   1.0000   1.0000   1.0000   1.0000   1.0000   1.0000
     1.0000   1.0000   1.0000   1.0000   1.0000   1.0000   1.0000   1.0000
     1.0000   1.0000   1.0000   0.1209  -0.0000  -0.0000  -0.0000  -0.0000

          k = 0.0840 0.4201-0.5042 ( 14162 PWs)   bands (ev):

   -33.7972 -31.9710 -14.9452 -14.9436 -14.9221 -14.4925 -14.4920 -14.4858
    -6.4137  -6.2074  -6.1992   2.0259   2.4061   3.1242   3.1242   3.6823
     3.8201   3.9393   4.1023   4.9754   6.4688   6.4880   6.9975   7.2103

     occupation numbers 
     1.0000   1.0000   1.0000   1.0000   1.0000   1.0000   1.0000   1.0000
     1.0000   1.0000   1.0000   1.0000   1.0000   1.0000   1.0000   1.0000
     1.0000   1.0000   1.0000   0.0134  -0.0000  -0.0000  -0.0000  -0.0000

          k = 0.0840-0.5042-0.5042 ( 14156 PWs)   bands (ev):

   -33.7972 -31.9710 -14.9452 -14.9452 -14.9220 -14.4924 -14.4924 -14.4858
    -6.3959  -6.2053  -6.2053   1.9854   2.3810   3.1227   3.1227   3.8348
     3.8348   3.8843   3.9570   5.0207   6.4291   6.4583   7.0607   7.2678

     occupation numbers 
     1.0000   1.0000   1.0000   1.0000   1.0000   1.0000   1.0000   1.0000
     1.0000   1.0000   1.0000   1.0000   1.0000   1.0000   1.0000   1.0000
     1.0000   1.0000   1.0000  -0.0335  -0.0000  -0.0000  -0.0000  -0.0000

          k = 0.1681 0.1681 0.1681 ( 14120 PWs)   bands (ev):

   -33.7973 -31.9711 -14.9273 -14.9273 -14.9271 -14.4886 -14.4878 -14.4878
    -6.7182  -6.1772  -6.1772   2.3889   2.9906   2.9906   3.5728   3.5728
     3.9166   4.5194   4.8595   4.8595   6.0742   6.0742   6.2833   6.9033

     occupation numbers 
     1.0000   1.0000   1.0000   1.0000   1.0000   1.0000   1.0000   1.0000
     1.0000   1.0000   1.0000   1.0000   1.0000   1.0000   1.0000   1.0000
     1.0000   1.0009   0.5546   0.5546  -0.0000  -0.0000  -0.0000  -0.0000

          k = 0.1681 0.1681 0.2521 ( 14159 PWs)   bands (ev):

   -33.7973 -31.9711 -14.9332 -14.9272 -14.9271 -14.4901 -14.4879 -14.4877
    -6.6616  -6.1866  -6.1747   2.3259   2.9902   3.0422   3.3864   3.4691
     3.7435   4.5296   4.7296   4.8031   6.1457   6.2254   6.3508   6.9677

     occupation numbers 
     1.0000   1.0000   1.0000   1.0000   1.0000   1.0000   1.0000   1.0000
     1.0000   1.0000   1.0000   1.0000   1.0000   1.0000   1.0000   1.0000
     1.0000   1.0012   1.0271   0.8583  -0.0000  -0.0000  -0.0000  -0.0000

          k = 0.1681 0.1681 0.3361 ( 14175 PWs)   bands (ev):

   -33.7973 -31.9711 -14.9391 -14.9271 -14.9269 -14.4920 -14.4877 -14.4876
    -6.5997  -6.2009  -6.1722   2.3190   2.9647   2.9659   3.2770   3.2821
     3.7932   4.4746   4.5478   4.7414   6.2469   6.4821   6.4864   6.9888

     occupation numbers 
     1.0000   1.0000   1.0000   1.0000   1.0000   1.0000   1.0000   1.0000
     1.0000   1.0000   1.0000   1.0000   1.0000   1.0000   1.0000   1.0000
     1.0000   1.0002   1.0022   1.0167  -0.0000  -0.0000  -0.0000  -0.0000

          k = 0.1681 0.1681 0.4201 ( 14164 PWs)   bands (ev):

   -33.7973 -31.9710 -14.9434 -14.9271 -14.9267 -14.4933 -14.4876 -14.4875
    -6.5490  -6.2165  -6.1704   2.3835   2.7453   2.9260   3.2171   3.2391
     3.9251   4.3490   4.4161   4.6964   6.3274   6.6600   6.7616   6.9625

     occupation numbers 
     1.0000   1.0000   1.0000   1.0000   1.0000   1.0000   1.0000   1.0000
     1.0000   1.0000   1.0000   1.0000   1.0000   1.0000   1.0000   1.0000
     1.0000   1.0000   1.0000   1.0352  -0.0000  -0.0000  -0.0000  -0.0000

          k = 0.1681 0.1681-0.5042 ( 14180 PWs)   bands (ev):

   -33.7973 -31.9710 -14.9450 -14.9271 -14.9267 -14.4939 -14.4875 -14.4874
    -6.5286  -6.2239  -6.1697   2.4986   2.5625   2.9072   3.2036   3.2327
     4.0405   4.2118   4.3923   4.6803   6.3559   6.7951   6.8957   6.9167

     occupation numbers 
     1.0000   1.0000   1.0000   1.0000   1.0000   1.0000   1.0000   1.0000
     1.0000   1.0000   1.0000   1.0000   1.0000   1.0000   1.0000   1.0000
     1.0000   1.0000   1.0000   1.0324  -0.0000  -0.0000  -0.0000  -0.0000

          k = 0.1681 0.2521 0.2521 ( 14162 PWs)   bands (ev):

   -33.7973 -31.9711 -14.9332 -14.9330 -14.9270 -14.4901 -14.4893 -14.4877
    -6.6065  -6.1871  -6.1797   2.2551   2.9284   3.0494   3.2639   3.5184
     3.5410   4.5862   4.7115   4.7160   6.2106   6.2638   6.3827   7.1281

     occupation numbers 
     1.0000   1.0000   1.0000   1.0000   1.0000   1.0000   1.0000   1.0000
     1.0000   1.0000   1.0000   1.0000   1.0000   1.0000   1.0000   1.0000
     1.0000   1.0063   1.0346   1.0335  -0.0000  -0.0000  -0.0000  -0.0000

          k = 0.1681 0.2521 0.3361 ( 14183 PWs)   bands (ev):

   -33.7973 -31.9710 -14.9390 -14.9330 -14.9268 -14.4916 -14.4893 -14.4875
    -6.5465  -6.1974  -6.1794   2.2340   2.7797   2.9821   3.1536   3.4263
     3.6905   4.4838   4.6343   4.6993   6.2962   6.4145   6.5151   7.1175

     occupation numbers 
     1.0000   1.0000   1.0000   1.0000   1.0000   1.0000   1.0000   1.0000
     1.0000   1.0000   1.0000   1.0000   1.0000   1.0000   1.0000   1.0000
     1.0000   1.0002   1.0177   1.0354  -0.0000  -0.0000  -0.0000  -0.0000

          k = 0.1681 0.2521 0.4201 ( 14184 PWs)   bands (ev):

   -33.7972 -31.9710 -14.9434 -14.9330 -14.9267 -14.4929 -14.4892 -14.4874
    -6.4973  -6.2111  -6.1779   2.2768   2.5892   2.8819   3.1195   3.4089
     3.8767   4.2939   4.6059   4.6625   6.3841   6.5740   6.7399   7.0203

     occupation numbers 
     1.0000   1.0000   1.0000   1.0000   1.0000   1.0000   1.0000   1.0000
     1.0000   1.0000   1.0000   1.0000   1.0000   1.0000   1.0000   1.0000
     1.0000   1.0000   1.0100   1.0271  -0.0000  -0.0000  -0.0000  -0.0000

          k = 0.1681 0.2521-0.5042 ( 14174 PWs)   bands (ev):

   -33.7972 -31.9710 -14.9450 -14.9329 -14.9267 -14.4933 -14.4891 -14.4873
    -6.4775  -6.2179  -6.1774   2.3532   2.4528   2.8460   3.1110   3.4086
     4.0564   4.1095   4.5995   4.6426   6.4148   6.7243   6.8152   6.9693

     occupation numbers 
     1.0000   1.0000   1.0000   1.0000   1.0000   1.0000   1.0000   1.0000
     1.0000   1.0000   1.0000   1.0000   1.0000   1.0000   1.0000   1.0000
     1.0000   1.0000   1.0086   1.0204  -0.0000  -0.0000  -0.0000  -0.0000

          k = 0.1681 0.3361 0.3361 ( 14203 PWs)   bands (ev):

   -33.7972 -31.9710 -14.9391 -14.9389 -14.9267 -14.4914 -14.4908 -14.4873
    -6.4887  -6.1966  -6.1879   2.1832   2.5931   2.9781   3.0244   3.5615
     3.6813   4.4287   4.5146   4.8108   6.3282   6.5351   6.5591   7.1036

     occupation numbers 
     1.0000   1.0000   1.0000   1.0000   1.0000   1.0000   1.0000   1.0000
     1.0000   1.0000   1.0000   1.0000   1.0000   1.0000   1.0000   1.0000
     1.0000   1.0000   1.0007   0.8248  -0.0000  -0.0000  -0.0000  -0.0000

          k = 0.1681 0.3361 0.4201 ( 14189 PWs)   bands (ev):

   -33.7972 -31.9710 -14.9434 -14.9390 -14.9266 -14.4924 -14.4908 -14.4872
    -6.4416  -6.2059  -6.1887   2.1795   2.4369   2.8934   3.0003   3.5948
     3.8272   4.2731   4.4653   4.8621   6.4143   6.5745   6.7254   7.0118

     occupation numbers 
     1.0000   1.0000   1.0000   1.0000   1.0000   1.0000   1.0000   1.0000
     1.0000   1.0000   1.0000   1.0000   1.0000   1.0000   1.0000   1.0000
     1.0000   1.0000   1.0001   0.5386  -0.0000  -0.0000  -0.0000  -0.0000

          k = 0.1681 0.3361-0.5042 ( 14158 PWs)   bands (ev):

   -33.7972 -31.9710 -14.9449 -14.9389 -14.9265 -14.4928 -14.4907 -14.4872
    -6.4226  -6.2118  -6.1881   2.1979   2.3613   2.8548   2.9987   3.6001
     3.9605   4.1349   4.4576   4.8743   6.5136   6.5533   6.7540   7.1098

     occupation numbers 
     1.0000   1.0000   1.0000   1.0000   1.0000   1.0000   1.0000   1.0000
     1.0000   1.0000   1.0000   1.0000   1.0000   1.0000   1.0000   1.0000
     1.0000   1.0000   1.0001   0.4628  -0.0000  -0.0000  -0.0000  -0.0000

          k = 0.1681 0.4201 0.4201 ( 14177 PWs)   bands (ev):

   -33.7972 -31.9710 -14.9434 -14.9433 -14.9264 -14.4921 -14.4919 -14.4871
    -6.3963  -6.2033  -6.1993   2.1148   2.3350   2.9053   2.9073   3.7693
     3.8201   4.2549   4.3068   4.9795   6.4042   6.5818   6.7986   7.0069

     occupation numbers 
     1.0000   1.0000   1.0000   1.0000   1.0000   1.0000   1.0000   1.0000
     1.0000   1.0000   1.0000   1.0000   1.0000   1.0000   1.0000   1.0000
     1.0000   1.0000   1.0000   0.0056  -0.0000  -0.0000  -0.0000  -0.0000

          k = 0.1681 0.4201-0.5042 ( 14176 PWs)   bands (ev):

   -33.7972 -31.9709 -14.9449 -14.9433 -14.9264 -14.4925 -14.4919 -14.4870
    -6.3780  -6.2074  -6.1998   2.0928   2.2985   2.8716   2.9108   3.7911
     3.9154   4.1583   4.2858   5.0159   6.4372   6.5122   6.8599   7.1003

     occupation numbers 
     1.0000   1.0000   1.0000   1.0000   1.0000   1.0000   1.0000   1.0000
     1.0000   1.0000   1.0000   1.0000   1.0000   1.0000   1.0000   1.0000
     1.0000   1.0000   1.0000  -0.0318  -0.0000  -0.0000  -0.0000  -0.0000

          k = 0.1681-0.5042-0.5042 ( 14200 PWs)   bands (ev):

   -33.7972 -31.9709 -14.9449 -14.9449 -14.9263 -14.4923 -14.4923 -14.4870
    -6.3600  -6.2057  -6.2057   2.0564   2.2758   2.8783   2.8783   3.8879
     3.9271   4.1692   4.1692   5.0614   6.3967   6.4872   6.9772   7.0973

     occupation numbers 
     1.0000   1.0000   1.0000   1.0000   1.0000   1.0000   1.0000   1.0000
     1.0000   1.0000   1.0000   1.0000   1.0000   1.0000   1.0000   1.0000
     1.0000   1.0000   1.0000  -0.0310  -0.0000  -0.0000  -0.0000  -0.0000

          k = 0.2521 0.2521 0.2521 ( 14186 PWs)   bands (ev):

   -33.7973 -31.9710 -14.9330 -14.9329 -14.9329 -14.4899 -14.4892 -14.4892
    -6.5527  -6.1857  -6.1857   2.1915   2.9146   2.9146   3.1522   3.5145
     3.5145   4.6756   4.6756   4.7433   6.2528   6.2528   6.3359   7.2320

     occupation numbers 
     1.0000   1.0000   1.0000   1.0000   1.0000   1.0000   1.0000   1.0000
     1.0000   1.0000   1.0000   1.0000   1.0000   1.0000   1.0000   1.0000
     1.0000   1.0311   1.0311   1.0146  -0.0000  -0.0000  -0.0000  -0.0000

          k = 0.2521 0.2521 0.3361 ( 14199 PWs)   bands (ev):

   -33.7972 -31.9710 -14.9389 -14.9330 -14.9327 -14.4912 -14.4892 -14.4892
    -6.4941  -6.1957  -6.1842   2.1726   2.7714   2.7902   3.0051   3.5224
     3.6896   4.5722   4.6515   4.7866   6.3132   6.3871   6.3876   7.2272

     occupation numbers 
     1.0000   1.0000   1.0000   1.0000   1.0000   1.0000   1.0000   1.0000
     1.0000   1.0000   1.0000   1.0000   1.0000   1.0000   1.0000   1.0000
     1.0000   1.0043   1.0234   0.9201  -0.0000  -0.0000  -0.0000  -0.0000

          k = 0.2521 0.2521 0.4201 ( 14196 PWs)   bands (ev):

   -33.7972 -31.9710 -14.9432 -14.9330 -14.9325 -14.4925 -14.4891 -14.4890
    -6.4461  -6.2078  -6.1832   2.2180   2.5310   2.7071   2.9851   3.5380
     3.8679   4.4286   4.6322   4.7757   6.3726   6.5214   6.6103   7.1153

     occupation numbers 
     1.0000   1.0000   1.0000   1.0000   1.0000   1.0000   1.0000   1.0000
     1.0000   1.0000   1.0000   1.0000   1.0000   1.0000   1.0000   1.0000
     1.0000   1.0000   1.0170   0.9530  -0.0000  -0.0000  -0.0000  -0.0000

          k = 0.2521 0.2521-0.5042 ( 14170 PWs)   bands (ev):

   -33.7972 -31.9710 -14.9448 -14.9330 -14.9324 -14.4930 -14.4891 -14.4889
    -6.4267  -6.2140  -6.1828   2.3303   2.3454   2.6783   2.9821   3.5453
     3.9663   4.3388   4.6252   4.7647   6.3944   6.6307   6.7804   6.9872

     occupation numbers 
     1.0000   1.0000   1.0000   1.0000   1.0000   1.0000   1.0000   1.0000
     1.0000   1.0000   1.0000   1.0000   1.0000   1.0000   1.0000   1.0000
     1.0000   1.0000   1.0150   0.9796  -0.0000  -0.0000  -0.0000  -0.0000

          k = 0.2521 0.3361 0.3361 ( 14195 PWs)   bands (ev):

   -33.7972 -31.9710 -14.9388 -14.9387 -14.9326 -14.4911 -14.4908 -14.4890
    -6.4376  -6.1962  -6.1904   2.1403   2.5831   2.7864   2.8235   3.6527
     3.7351   4.5802   4.6057   4.8930   6.3436   6.4120   6.4170   7.1301

     occupation numbers 
     1.0000   1.0000   1.0000   1.0000   1.0000   1.0000   1.0000   1.0000
     1.0000   1.0000   1.0000   1.0000   1.0000   1.0000   1.0000   1.0000
     1.0000   1.0054   1.0100   0.3494  -0.0000  -0.0000  -0.0000  -0.0000

          k = 0.2521 0.3361 0.4201 ( 14165 PWs)   bands (ev):

   -33.7972 -31.9709 -14.9431 -14.9387 -14.9325 -14.4922 -14.4907 -14.4889
    -6.3913  -6.2047  -6.1911   2.1599   2.3967   2.6821   2.8203   3.6965
     3.8553   4.5001   4.5991   4.9369   6.4100   6.4508   6.5889   6.9771

     occupation numbers 
     1.0000   1.0000   1.0000   1.0000   1.0000   1.0000   1.0000   1.0000
     1.0000   1.0000   1.0000   1.0000   1.0000   1.0000   1.0000   1.0000
     1.0000   1.0004   1.0086   0.1277  -0.0000  -0.0000  -0.0000  -0.0000

          k = 0.2521 0.3361-0.5042 ( 14190 PWs)   bands (ev):

   -33.7972 -31.9709 -14.9447 -14.9386 -14.9324 -14.4926 -14.4906 -14.4888
    -6.3725  -6.2101  -6.1908   2.2255   2.2685   2.6429   2.8261   3.7063
     3.9209   4.4481   4.6000   4.9449   6.4541   6.4954   6.7055   6.9030

     occupation numbers 
     1.0000   1.0000   1.0000   1.0000   1.0000   1.0000   1.0000   1.0000
     1.0000   1.0000   1.0000   1.0000   1.0000   1.0000   1.0000   1.0000
     1.0000   1.0001   1.0087   0.0972  -0.0000  -0.0000  -0.0000  -0.0000

          k = 0.2521 0.4201 0.4201 ( 14185 PWs)   bands (ev):

   -33.7972 -31.9709 -14.9430 -14.9430 -14.9323 -14.4920 -14.4919 -14.4888
    -6.3467  -6.2036  -6.1997   2.1366   2.2633   2.7012   2.7039   3.8237
     3.8614   4.5320   4.5402   5.0443   6.3750   6.5452   6.6252   6.8528

     occupation numbers 
     1.0000   1.0000   1.0000   1.0000   1.0000   1.0000   1.0000   1.0000
     1.0000   1.0000   1.0000   1.0000   1.0000   1.0000   1.0000   1.0000
     1.0000   1.0013   1.0017  -0.0348  -0.0000  -0.0000  -0.0000  -0.0000

          k = 0.2521 0.4201-0.5042 ( 14180 PWs)   bands (ev):

   -33.7972 -31.9709 -14.9446 -14.9430 -14.9322 -14.4924 -14.4918 -14.4887
    -6.3284  -6.2073  -6.2007   2.1533   2.1894   2.6613   2.7126   3.8426
     3.9017   4.5005   4.5480   5.0778   6.3831   6.5357   6.6956   6.8644

     occupation numbers 
     1.0000   1.0000   1.0000   1.0000   1.0000   1.0000   1.0000   1.0000
     1.0000   1.0000   1.0000   1.0000   1.0000   1.0000   1.0000   1.0000
     1.0000   1.0004   1.0022  -0.0258  -0.0000  -0.0000  -0.0000  -0.0000

          k = 0.2521-0.5042-0.5042 ( 14168 PWs)   bands (ev):

   -33.7972 -31.9709 -14.9446 -14.9446 -14.9322 -14.4923 -14.4923 -14.4887
    -6.3101  -6.2063  -6.2063   2.1272   2.1595   2.6722   2.6722   3.8928
     3.9044   4.5185   4.5185   5.1222   6.3411   6.5279   6.8529   6.8529

     occupation numbers 
     1.0000   1.0000   1.0000   1.0000   1.0000   1.0000   1.0000   1.0000
     1.0000   1.0000   1.0000   1.0000   1.0000   1.0000   1.0000   1.0000
     1.0000   1.0008   1.0008  -0.0120  -0.0000  -0.0000  -0.0000  -0.0000

          k = 0.3361 0.3361 0.3361 ( 14192 PWs)   bands (ev):

   -33.7972 -31.9709 -14.9388 -14.9384 -14.9384 -14.4908 -14.4907 -14.4907
    -6.3828  -6.1957  -6.1957   2.1005   2.5613   2.6401   2.6401   3.7721
     3.7721   4.6650   4.6650   4.9911   6.3221   6.3934   6.3934   7.1013

     occupation numbers 
     1.0000   1.0000   1.0000   1.0000   1.0000   1.0000   1.0000   1.0000
     1.0000   1.0000   1.0000   1.0000   1.0000   1.0000   1.0000   1.0000
     1.0000   1.0279   1.0279  -0.0118  -0.0000  -0.0000  -0.0000  -0.0000

          k = 0.3361 0.3361 0.4201 ( 14181 PWs)   bands (ev):

   -33.7972 -31.9709 -14.9429 -14.9386 -14.9382 -14.4920 -14.4906 -14.4905
    -6.3382  -6.2037  -6.1954   2.0905   2.3930   2.5490   2.6532   3.7958
     3.8672   4.6833   4.7105   5.0403   6.3545   6.4140   6.5021   6.9168

     occupation numbers 
     1.0000   1.0000   1.0000   1.0000   1.0000   1.0000   1.0000   1.0000
     1.0000   1.0000   1.0000   1.0000   1.0000   1.0000   1.0000   1.0000
     1.0000   1.0331   1.0348  -0.0352  -0.0000  -0.0000  -0.0000  -0.0000

          k = 0.3361 0.3361-0.5042 ( 14176 PWs)   bands (ev):

   -33.7972 -31.9709 -14.9444 -14.9385 -14.9381 -14.4924 -14.4906 -14.4904
    -6.3199  -6.2085  -6.1953   2.0993   2.3149   2.5182   2.6649   3.8042
     3.9044   4.6827   4.7271   5.0489   6.4104   6.4198   6.6779   6.7195

     occupation numbers 
     1.0000   1.0000   1.0000   1.0000   1.0000   1.0000   1.0000   1.0000
     1.0000   1.0000   1.0000   1.0000   1.0000   1.0000   1.0000   1.0000
     1.0000   1.0330   1.0286  -0.0341  -0.0000  -0.0000  -0.0000  -0.0000

          k = 0.3361 0.4201 0.4201 ( 14188 PWs)   bands (ev):

   -33.7971 -31.9709 -14.9427 -14.9426 -14.9382 -14.4918 -14.4918 -14.4905
    -6.2953  -6.2039  -6.2011   2.0309   2.3276   2.5385   2.5492   3.8623
     3.8801   4.7832   4.7901   5.1234   6.3148   6.4779   6.4784   6.7623

     occupation numbers 
     1.0000   1.0000   1.0000   1.0000   1.0000   1.0000   1.0000   1.0000
     1.0000   1.0000   1.0000   1.0000   1.0000   1.0000   1.0000   1.0000
     1.0000   0.9310   0.9082  -0.0117  -0.0000  -0.0000  -0.0000  -0.0000

          k = 0.3361 0.4201-0.5042 ( 14188 PWs)   bands (ev):

   -33.7971 -31.9709 -14.9443 -14.9426 -14.9381 -14.4923 -14.4917 -14.4904
    -6.2774  -6.2072  -6.2019   2.0088   2.2920   2.5070   2.5566   3.8728
     3.8988   4.8137   4.8200   5.1507   6.3179   6.4724   6.6102   6.6227

     occupation numbers 
     1.0000   1.0000   1.0000   1.0000   1.0000   1.0000   1.0000   1.0000
     1.0000   1.0000   1.0000   1.0000   1.0000   1.0000   1.0000   1.0000
     1.0000   0.8113   0.7803  -0.0062  -0.0000  -0.0000  -0.0000  -0.0000

          k = 0.3361-0.5042-0.5042 ( 14188 PWs)   bands (ev):

   -33.7971 -31.9709 -14.9442 -14.9442 -14.9380 -14.4922 -14.4922 -14.4904
    -6.2592  -6.2068  -6.2068   1.9756   2.2712   2.5191   2.5191   3.8975
     3.8977   4.8552   4.8552   5.1908   6.2755   6.5693   6.5768   6.5768

     occupation numbers 
     1.0000   1.0000   1.0000   1.0000   1.0000   1.0000   1.0000   1.0000
     1.0000   1.0000   1.0000   1.0000   1.0000   1.0000   1.0000   1.0000
     1.0000   0.5810   0.5810  -0.0020  -0.0000  -0.0000  -0.0000  -0.0000

          k = 0.4201 0.4201 0.4201 ( 14172 PWs)   bands (ev):

   -33.7971 -31.9709 -14.9426 -14.9424 -14.9424 -14.4917 -14.4917 -14.4917
    -6.2550  -6.2041  -6.2041   1.9377   2.3728   2.4558   2.4558   3.8898
     3.8898   4.9748   4.9748   5.1917   6.2635   6.4044   6.4044   6.7151

     occupation numbers 
     1.0000   1.0000   1.0000   1.0000   1.0000   1.0000   1.0000   1.0000
     1.0000   1.0000   1.0000   1.0000   1.0000   1.0000   1.0000   1.0000
     1.0000   0.0145   0.0145  -0.0020  -0.0000  -0.0000  -0.0000  -0.0000

          k = 0.4201 0.4201-0.5042 ( 14182 PWs)   bands (ev):

   -33.7971 -31.9709 -14.9440 -14.9424 -14.9423 -14.4922 -14.4917 -14.4917
    -6.2381  -6.2072  -6.2042   1.9028   2.3611   2.4244   2.4584   3.8930
     3.9001   5.0447   5.0502   5.2165   6.2578   6.3632   6.4009   6.6214

     occupation numbers 
     1.0000   1.0000   1.0000   1.0000   1.0000   1.0000   1.0000   1.0000
     1.0000   1.0000   1.0000   1.0000   1.0000   1.0000   1.0000   1.0000
     1.0000  -0.0347  -0.0338  -0.0009  -0.0000  -0.0000  -0.0000  -0.0000

          k = 0.4201-0.5042-0.5042 ( 14200 PWs)   bands (ev):

   -33.7971 -31.9709 -14.9439 -14.9439 -14.9423 -14.4921 -14.4921 -14.4917
    -6.2213  -6.2072  -6.2072   1.8639   2.3596   2.4252   2.4252   3.9003
     3.9014   5.1400   5.1400   5.2475   6.2225   6.3229   6.3229   6.6401

     occupation numbers 
     1.0000   1.0000   1.0000   1.0000   1.0000   1.0000   1.0000   1.0000
     1.0000   1.0000   1.0000   1.0000   1.0000   1.0000   1.0000   1.0000
     1.0000  -0.0081  -0.0081  -0.0003  -0.0000  -0.0000  -0.0000  -0.0000

          k =-0.5042-0.5042-0.5042 ( 14328 PWs)   bands (ev):

   -33.7971 -31.9709 -14.9438 -14.9438 -14.9438 -14.4921 -14.4921 -14.4921
    -6.2073  -6.2073  -6.2073   1.8229   2.3935   2.3935   2.3935   3.9027
     3.9027   5.2701   5.2701   5.2701   6.2022   6.2022   6.2022   6.7298

     occupation numbers 
     1.0000   1.0000   1.0000   1.0000   1.0000   1.0000   1.0000   1.0000
     1.0000   1.0000   1.0000   1.0000   1.0000   1.0000   1.0000   1.0000
     1.0000  -0.0001  -0.0001  -0.0001  -0.0000  -0.0000  -0.0000  -0.0000

     the Fermi energy is     4.8683 ev

!    total energy              =   -1173.56888565 Ry
     total all-electron energy =    -33662.949997 Ry
     estimated scf accuracy    <          7.5E-11 Ry
     smearing contrib. (-TS)   =      -0.00003498 Ry
     internal energy E=F+TS    =   -1173.56885066 Ry

     The total energy is F=E-TS. E is the sum of the following terms:
     one-electron contribution =     -52.33073248 Ry
     hartree contribution      =      40.61624677 Ry
     xc contribution           =    -104.24634575 Ry
     ewald contribution        =    -143.52492340 Ry
     one-center paw contrib.   =    -914.08309580 Ry
      -> PAW hartree energy AE =      47.20085151 Ry
      -> PAW hartree energy PS =     -46.97921075 Ry
      -> PAW xc energy AE      =     -71.46821281 Ry
      -> PAW xc energy PS      =      11.26067416 Ry
      -> total E_H with PAW    =      40.83788753 Ry
      -> total E_XC with PAW   =    -164.45388441 Ry

     convergence has been achieved in  15 iterations

     Forces acting on atoms (cartesian axes, Ry/au):

     atom    1 type  1   force =     0.00000000    0.00000000    0.00000000
     atom    2 type  2   force =     0.00000000    0.00000000    0.00000000
     atom    3 type  3   force =     0.00000000    0.00000000    0.00000000
     atom    4 type  3   force =     0.00000000    0.00000000    0.00000000
     atom    5 type  3   force =     0.00000000    0.00000000    0.00000000
     The non-local contrib.  to forces
     atom    1 type  1   force =     0.00000000    0.00000000    0.00000000
     atom    2 type  2   force =     0.00000000    0.00000000    0.00000000
     atom    3 type  3   force =     0.00000000    0.00000000    0.00000000
     atom    4 type  3   force =     0.00000000    0.00000000    0.00000000
     atom    5 type  3   force =     0.00000000    0.00000000    0.00000000
     The ionic contribution  to forces
     atom    1 type  1   force =    -0.00000000   -0.00000000   -0.00000000
     atom    2 type  2   force =     0.00000000    0.00000000    0.00000000
     atom    3 type  3   force =    -0.00000000   -0.00000000   -0.00000000
     atom    4 type  3   force =    -0.00000000   -0.00000000   -0.00000000
     atom    5 type  3   force =    -0.00000000   -0.00000000   -0.00000000
     The local contribution  to forces
     atom    1 type  1   force =     0.00000000    0.00000000    0.00000000
     atom    2 type  2   force =     0.00000000    0.00000000    0.00000000
     atom    3 type  3   force =     0.00000000    0.00000000   -0.00000000
     atom    4 type  3   force =     0.00000000    0.00000000    0.00000000
     atom    5 type  3   force =     0.00000000   -0.00000000    0.00000000
     The core correction contribution to forces
     atom    1 type  1   force =     0.00000000    0.00000000   -0.00000000
     atom    2 type  2   force =    -0.00000000   -0.00000000   -0.00000000
     atom    3 type  3   force =    -0.00000000    0.00000000   -0.00000000
     atom    4 type  3   force =     0.00000000   -0.00000000    0.00000000
     atom    5 type  3   force =     0.00000000    0.00000000   -0.00000000
     The Hubbard contrib.    to forces
     atom    1 type  1   force =     0.00000000    0.00000000    0.00000000
     atom    2 type  2   force =     0.00000000    0.00000000    0.00000000
     atom    3 type  3   force =     0.00000000    0.00000000    0.00000000
     atom    4 type  3   force =     0.00000000    0.00000000    0.00000000
     atom    5 type  3   force =     0.00000000    0.00000000    0.00000000
     The SCF correction term to forces
     atom    1 type  1   force =    -0.00000000    0.00000000   -0.00000000
     atom    2 type  2   force =    -0.00000000   -0.00000000    0.00000000
     atom    3 type  3   force =     0.00000000   -0.00000000   -0.00000000
     atom    4 type  3   force =    -0.00000000   -0.00000000   -0.00000000
     atom    5 type  3   force =    -0.00000000    0.00000000   -0.00000000

     Total force =     0.000000     Total SCF correction =     0.000000


     Computing stress (Cartesian axis) and pressure

          total   stress  (Ry/bohr**3)                   (kbar)     P=      -42.94
  -0.00029191   0.00000000   0.00000000          -42.94        0.00        0.00
   0.00000000  -0.00029191   0.00000000            0.00      -42.94        0.00
   0.00000000   0.00000000  -0.00029191            0.00        0.00      -42.94

     kinetic stress (kbar)   6170.26      0.00      0.00
                                0.00   6170.26      0.00
                                0.00      0.00   6170.26

     local   stress (kbar)  -2170.38      0.00      0.00
                                0.00  -2170.38     -0.00
                                0.00     -0.00  -2170.38

     nonloc. stress (kbar)   2111.23      0.00      0.00
                                0.00   2111.23      0.00
                                0.00      0.00   2111.23

     hartree stress (kbar)   1741.41      0.00     -0.00
                                0.00   1741.41     -0.00
                               -0.00     -0.00   1741.41

     exc-cor stress (kbar)   7530.41     -0.00     -0.00
                               -0.00   7530.41      0.00
                               -0.00      0.00   7530.41

     corecor stress (kbar)  -9272.27     -0.00      0.00
                               -0.00  -9272.27     -0.00
                                0.00     -0.00  -9272.27

     ewald   stress (kbar)  -6153.60     -0.00     -0.00
                               -0.00  -6153.60     -0.00
                               -0.00     -0.00  -6153.60

     hubbard stress (kbar)      0.00      0.00      0.00
                                0.00      0.00      0.00
                                0.00      0.00      0.00

     DFT-D   stress (kbar)      0.00      0.00      0.00
                                0.00      0.00      0.00
                                0.00      0.00      0.00

     XDM     stress (kbar)      0.00      0.00      0.00
                                0.00      0.00      0.00
                                0.00      0.00      0.00

     dft-nl  stress (kbar)      0.00      0.00      0.00
                                0.00      0.00      0.00
                                0.00      0.00      0.00

     TS-vdW  stress (kbar)      0.00      0.00      0.00
                                0.00      0.00      0.00
                                0.00      0.00      0.00

     MDB     stress (kbar)      0.00      0.00      0.00
                                0.00      0.00      0.00
                                0.00      0.00      0.00

     3D-RISM stress (kbar)      0.00      0.00      0.00
                                0.00      0.00      0.00
                                0.00      0.00      0.00

     Energy error            =      9.0E-03 Ry
     Gradient error          =      0.0E+00 Ry/Bohr
     Cell gradient error     =      4.3E+01 kbar

     number of scf cycles    =   2
     number of bfgs steps    =   1

     enthalpy           old  =   -1173.5599203004 Ry
     enthalpy           new  =   -1173.5688856470 Ry

     CASE: enthalpy          _new < enthalpy          _old


     WARNING: bfgs curvature condition failed, Theta= 0.920
     new trust radius        =       0.0844094148 bohr
     new conv_thr            =            1.0E-12 Ry

     new unit-cell volume =   1101.39250 a.u.^3 (   163.20953 Ang^3 )
     density =      4.24343 g/cm^3

CELL_PARAMETERS (angstrom)
   5.464895207   0.000000000   0.000000000
   0.000000000   5.464895207   0.000000000
   0.000000000   0.000000000   5.464895207

ATOMIC_POSITIONS (crystal)
Ca               0.0000000000        0.0000000000        0.0000000000
Ce               0.5000000000        0.5000000000        0.5000000000
Se               0.5000000000        0.0000000000        0.0000000000
Se               0.0000000000        0.5000000000        0.0000000000
Se               0.0000000000        0.0000000000        0.5000000000



     Writing config-only to output data dir ./tmp/caces3.save/ :
     XML data file
     NEW-OLD atomic charge density approx. for the potential

     total cpu time spent up to now is     6763.4 secs

     Self-consistent Calculation

     iteration #  1     ecut=    80.00 Ry     beta= 0.30
     Davidson diagonalization with overlap

---- Real-time Memory Report at c_bands before calling an iterative solver
           267 MiB given to the printing process from OS
             0 MiB allocation reported by mallinfo(arena+hblkhd)
         51196 MiB available memory on the node where the printing process lives
------------------
     ethr =  1.00E-06,  avg # of iterations =  8.8

     total cpu time spent up to now is     7122.5 secs

     total energy              =   -1173.58011766 Ry
     estimated scf accuracy    <       0.00050518 Ry

     iteration #  2     ecut=    80.00 Ry     beta= 0.30
     Davidson diagonalization with overlap

---- Real-time Memory Report at c_bands before calling an iterative solver
           267 MiB given to the printing process from OS
             0 MiB allocation reported by mallinfo(arena+hblkhd)
         51001 MiB available memory on the node where the printing process lives
------------------
     ethr =  1.30E-06,  avg # of iterations =  2.2

     total cpu time spent up to now is     7237.9 secs

     total energy              =   -1173.57999461 Ry
     estimated scf accuracy    <       0.00004290 Ry

     iteration #  3     ecut=    80.00 Ry     beta= 0.30
     Davidson diagonalization with overlap

---- Real-time Memory Report at c_bands before calling an iterative solver
           267 MiB given to the printing process from OS
             0 MiB allocation reported by mallinfo(arena+hblkhd)
         51288 MiB available memory on the node where the printing process lives
------------------
     ethr =  1.10E-07,  avg # of iterations =  5.4

     total cpu time spent up to now is     7465.7 secs

     total energy              =   -1173.57988175 Ry
     estimated scf accuracy    <       0.00001776 Ry

     iteration #  4     ecut=    80.00 Ry     beta= 0.30
     Davidson diagonalization with overlap

---- Real-time Memory Report at c_bands before calling an iterative solver
           267 MiB given to the printing process from OS
             0 MiB allocation reported by mallinfo(arena+hblkhd)
         51063 MiB available memory on the node where the printing process lives
------------------
     ethr =  4.55E-08,  avg # of iterations =  3.0

     total cpu time spent up to now is     7614.0 secs

     total energy              =   -1173.57984552 Ry
     estimated scf accuracy    <       0.00000420 Ry

     iteration #  5     ecut=    80.00 Ry     beta= 0.30
     Davidson diagonalization with overlap

---- Real-time Memory Report at c_bands before calling an iterative solver
           267 MiB given to the printing process from OS
             0 MiB allocation reported by mallinfo(arena+hblkhd)
         51188 MiB available memory on the node where the printing process lives
------------------
     ethr =  1.08E-08,  avg # of iterations =  5.5

     total cpu time spent up to now is     7848.4 secs

     total energy              =   -1173.57984862 Ry
     estimated scf accuracy    <       0.00000331 Ry

     iteration #  6     ecut=    80.00 Ry     beta= 0.30
     Davidson diagonalization with overlap

---- Real-time Memory Report at c_bands before calling an iterative solver
           267 MiB given to the printing process from OS
             0 MiB allocation reported by mallinfo(arena+hblkhd)
         50959 MiB available memory on the node where the printing process lives
------------------
     ethr =  8.50E-09,  avg # of iterations =  1.9

     total cpu time spent up to now is     7954.3 secs

     total energy              =   -1173.57984825 Ry
     estimated scf accuracy    <       0.00000055 Ry

     iteration #  7     ecut=    80.00 Ry     beta= 0.30
     Davidson diagonalization with overlap

---- Real-time Memory Report at c_bands before calling an iterative solver
           267 MiB given to the printing process from OS
             0 MiB allocation reported by mallinfo(arena+hblkhd)
         51150 MiB available memory on the node where the printing process lives
------------------
     ethr =  1.40E-09,  avg # of iterations =  7.0

     total cpu time spent up to now is     8242.0 secs

     total energy              =   -1173.57984871 Ry
     estimated scf accuracy    <       0.00000310 Ry

     iteration #  8     ecut=    80.00 Ry     beta= 0.30
     Davidson diagonalization with overlap

---- Real-time Memory Report at c_bands before calling an iterative solver
           267 MiB given to the printing process from OS
             0 MiB allocation reported by mallinfo(arena+hblkhd)
         51394 MiB available memory on the node where the printing process lives
------------------
     ethr =  1.40E-09,  avg # of iterations =  3.2

     total cpu time spent up to now is     8400.5 secs

     total energy              =   -1173.57984893 Ry
     estimated scf accuracy    <       0.00000047 Ry

     iteration #  9     ecut=    80.00 Ry     beta= 0.30
     Davidson diagonalization with overlap

---- Real-time Memory Report at c_bands before calling an iterative solver
           267 MiB given to the printing process from OS
             0 MiB allocation reported by mallinfo(arena+hblkhd)
         51234 MiB available memory on the node where the printing process lives
------------------
     ethr =  1.20E-09,  avg # of iterations =  2.2

     total cpu time spent up to now is     8513.0 secs

     total energy              =   -1173.57984904 Ry
     estimated scf accuracy    <       0.00000008 Ry

     iteration # 10     ecut=    80.00 Ry     beta= 0.30
     Davidson diagonalization with overlap

---- Real-time Memory Report at c_bands before calling an iterative solver
           267 MiB given to the printing process from OS
             0 MiB allocation reported by mallinfo(arena+hblkhd)
         51036 MiB available memory on the node where the printing process lives
------------------
     ethr =  2.11E-10,  avg # of iterations =  5.8

     total cpu time spent up to now is     8757.5 secs

     total energy              =   -1173.57984912 Ry
     estimated scf accuracy    <          1.5E-09 Ry

     iteration # 11     ecut=    80.00 Ry     beta= 0.30
     Davidson diagonalization with overlap

---- Real-time Memory Report at c_bands before calling an iterative solver
           267 MiB given to the printing process from OS
             0 MiB allocation reported by mallinfo(arena+hblkhd)
         51137 MiB available memory on the node where the printing process lives
------------------
     ethr =  3.78E-12,  avg # of iterations =  6.9

     total cpu time spent up to now is     9041.4 secs

     total energy              =   -1173.57984914 Ry
     estimated scf accuracy    <          2.8E-09 Ry

     iteration # 12     ecut=    80.00 Ry     beta= 0.30
     Davidson diagonalization with overlap

---- Real-time Memory Report at c_bands before calling an iterative solver
           267 MiB given to the printing process from OS
             0 MiB allocation reported by mallinfo(arena+hblkhd)
         51193 MiB available memory on the node where the printing process lives
------------------
     ethr =  3.78E-12,  avg # of iterations =  2.1

     total cpu time spent up to now is     9153.7 secs

     total energy              =   -1173.57984915 Ry
     estimated scf accuracy    <          5.6E-10 Ry

     iteration # 13     ecut=    80.00 Ry     beta= 0.30
     Davidson diagonalization with overlap

---- Real-time Memory Report at c_bands before calling an iterative solver
           267 MiB given to the printing process from OS
             0 MiB allocation reported by mallinfo(arena+hblkhd)
         51214 MiB available memory on the node where the printing process lives
------------------
     ethr =  1.43E-12,  avg # of iterations =  5.7

     total cpu time spent up to now is     9395.0 secs

     total energy              =   -1173.57984916 Ry
     estimated scf accuracy    <          2.6E-10 Ry

     iteration # 14     ecut=    80.00 Ry     beta= 0.30
     Davidson diagonalization with overlap

---- Real-time Memory Report at c_bands before calling an iterative solver
           267 MiB given to the printing process from OS
             0 MiB allocation reported by mallinfo(arena+hblkhd)
         51107 MiB available memory on the node where the printing process lives
------------------
     ethr =  6.60E-13,  avg # of iterations =  4.9

     total cpu time spent up to now is     9608.2 secs

     total energy              =   -1173.57984916 Ry
     estimated scf accuracy    <          1.0E-09 Ry

     iteration # 15     ecut=    80.00 Ry     beta= 0.30
     Davidson diagonalization with overlap

---- Real-time Memory Report at c_bands before calling an iterative solver
           267 MiB given to the printing process from OS
             0 MiB allocation reported by mallinfo(arena+hblkhd)
         51118 MiB available memory on the node where the printing process lives
------------------
     ethr =  6.60E-13,  avg # of iterations =  3.2

     total cpu time spent up to now is     9761.9 secs

     total energy              =   -1173.57984916 Ry
     estimated scf accuracy    <          1.2E-10 Ry

     iteration # 16     ecut=    80.00 Ry     beta= 0.30
     Davidson diagonalization with overlap

---- Real-time Memory Report at c_bands before calling an iterative solver
           267 MiB given to the printing process from OS
             0 MiB allocation reported by mallinfo(arena+hblkhd)
         51276 MiB available memory on the node where the printing process lives
------------------
     ethr =  2.99E-13,  avg # of iterations =  3.5

     total cpu time spent up to now is     9925.2 secs

     total energy              =   -1173.57984916 Ry
     estimated scf accuracy    <          2.2E-11 Ry

     iteration # 17     ecut=    80.00 Ry     beta= 0.30
     Davidson diagonalization with overlap

---- Real-time Memory Report at c_bands before calling an iterative solver
           267 MiB given to the printing process from OS
             0 MiB allocation reported by mallinfo(arena+hblkhd)
         51133 MiB available memory on the node where the printing process lives
------------------
     ethr =  1.00E-13,  avg # of iterations =  4.0

     total cpu time spent up to now is    10100.3 secs

     total energy              =   -1173.57984916 Ry
     estimated scf accuracy    <          9.9E-12 Ry

     iteration # 18     ecut=    80.00 Ry     beta= 0.30
     Davidson diagonalization with overlap

---- Real-time Memory Report at c_bands before calling an iterative solver
           267 MiB given to the printing process from OS
             0 MiB allocation reported by mallinfo(arena+hblkhd)
         51031 MiB available memory on the node where the printing process lives
------------------
     ethr =  1.00E-13,  avg # of iterations =  1.9

     total cpu time spent up to now is    10207.5 secs

     End of self-consistent calculation

          k = 0.0000 0.0000 0.0000 ( 14147 PWs)   bands (ev):

   -33.3214 -31.5052 -14.4699 -14.4699 -14.4699 -14.0249 -14.0249 -14.0249
    -6.6273  -5.8571  -5.8571   3.0545   3.0545   3.0545   4.6361   4.6361
     4.6361   5.5463   5.5463   5.5463   6.1439   6.1439   6.4734   6.5979

     occupation numbers 
     1.0000   1.0000   1.0000   1.0000   1.0000   1.0000   1.0000   1.0000
     1.0000   1.0000   1.0000   1.0000   1.0000   1.0000   1.0000   1.0000
     1.0000  -0.0030  -0.0030  -0.0030  -0.0000  -0.0000  -0.0000  -0.0000

          k = 0.0000 0.0000 0.0851 ( 14114 PWs)   bands (ev):

   -33.3213 -31.5052 -14.4718 -14.4698 -14.4698 -14.0256 -14.0249 -14.0249
    -6.6114  -5.8588  -5.8560   3.0336   3.0617   3.0617   4.5373   4.5735
     4.5735   5.3485   5.5158   5.5158   6.1819   6.2769   6.4824   6.5755

     occupation numbers 
     1.0000   1.0000   1.0000   1.0000   1.0000   1.0000   1.0000   1.0000
     1.0000   1.0000   1.0000   1.0000   1.0000   1.0000   1.0000   1.0000
     1.0000   0.0043  -0.0067  -0.0067  -0.0000  -0.0000  -0.0000  -0.0000

          k = 0.0000 0.0000 0.1702 ( 14106 PWs)   bands (ev):

   -33.3213 -31.5052 -14.4771 -14.4696 -14.4696 -14.0277 -14.0248 -14.0248
    -6.5665  -5.8645  -5.8530   2.9874   3.0829   3.0829   4.3224   4.4227
     4.4227   4.9290   5.4390   5.4390   6.2878   6.5077   6.5874   6.8352

     occupation numbers 
     1.0000   1.0000   1.0000   1.0000   1.0000   1.0000   1.0000   1.0000
     1.0000   1.0000   1.0000   1.0000   1.0000   1.0000   1.0000   1.0000
     1.0000   1.0032  -0.0282  -0.0282  -0.0000  -0.0000  -0.0000  -0.0000

          k = 0.0000 0.0000 0.2553 ( 14138 PWs)   bands (ev):

   -33.3213 -31.5051 -14.4843 -14.4694 -14.4694 -14.0304 -14.0247 -14.0247
    -6.5014  -5.8758  -5.8489   2.9533   3.1155   3.1155   4.0978   4.2464
     4.2464   4.4536   5.3437   5.3437   6.4444   6.5435   6.9486   7.1694

     occupation numbers 
     1.0000   1.0000   1.0000   1.0000   1.0000   1.0000   1.0000   1.0000
     1.0000   1.0000   1.0000   1.0000   1.0000   1.0000   1.0000   1.0000
     1.0000   1.0000   0.0133   0.0133  -0.0000  -0.0000  -0.0000  -0.0000

          k = 0.0000 0.0000 0.3404 ( 14158 PWs)   bands (ev):

   -33.3212 -31.5051 -14.4914 -14.4691 -14.4691 -14.0332 -14.0246 -14.0246
    -6.4302  -5.8929  -5.8447   2.9696   3.1541   3.1541   3.9160   4.0002
     4.0885   4.0885   5.2556   5.2556   6.5811   6.6198   7.2746   7.5028

     occupation numbers 
     1.0000   1.0000   1.0000   1.0000   1.0000   1.0000   1.0000   1.0000
     1.0000   1.0000   1.0000   1.0000   1.0000   1.0000   1.0000   1.0000
     1.0000   1.0000   0.3828   0.3828  -0.0000  -0.0000  -0.0000  -0.0000

          k = 0.0000 0.0000 0.4254 ( 14170 PWs)   bands (ev):

   -33.3212 -31.5050 -14.4966 -14.4689 -14.4689 -14.0352 -14.0245 -14.0245
    -6.3723  -5.9109  -5.8417   3.0597   3.1881   3.1881   3.6197   3.8001
     3.9781   3.9781   5.1946   5.1946   6.6099   6.7640   7.5016   7.7579

     occupation numbers 
     1.0000   1.0000   1.0000   1.0000   1.0000   1.0000   1.0000   1.0000
     1.0000   1.0000   1.0000   1.0000   1.0000   1.0000   1.0000   1.0000
     1.0000   1.0000   0.7476   0.7476  -0.0000  -0.0000  -0.0000  -0.0000

          k = 0.0000 0.0000-0.5105 ( 14190 PWs)   bands (ev):

   -33.3212 -31.5050 -14.4985 -14.4688 -14.4688 -14.0359 -14.0245 -14.0245
    -6.3493  -5.9193  -5.8406   3.1679   3.2022   3.2022   3.4101   3.7605
     3.9378   3.9378   5.1730   5.1730   6.6207   6.8210   7.5831   7.8557

     occupation numbers 
     1.0000   1.0000   1.0000   1.0000   1.0000   1.0000   1.0000   1.0000
     1.0000   1.0000   1.0000   1.0000   1.0000   1.0000   1.0000   1.0000
     1.0000   1.0000   0.8518   0.8518  -0.0000  -0.0000  -0.0000  -0.0000

          k = 0.0000 0.0851 0.0851 ( 14125 PWs)   bands (ev):

   -33.3213 -31.5052 -14.4718 -14.4717 -14.4697 -14.0258 -14.0254 -14.0248
    -6.5955  -5.8589  -5.8564   2.9730   3.0694   3.1118   4.3693   4.5157
     4.6148   5.2114   5.4699   5.4830   6.2665   6.2838   6.5439   6.6205

     occupation numbers 
     1.0000   1.0000   1.0000   1.0000   1.0000   1.0000   1.0000   1.0000
     1.0000   1.0000   1.0000   1.0000   1.0000   1.0000   1.0000   1.0000
     1.0000   0.6533  -0.0179  -0.0140  -0.0000  -0.0000  -0.0000  -0.0000

          k = 0.0000 0.0851 0.1702 ( 14150 PWs)   bands (ev):

   -33.3213 -31.5051 -14.4771 -14.4716 -14.4696 -14.0276 -14.0254 -14.0248
    -6.5509  -5.8637  -5.8541   2.9018   3.0918   3.1641   4.1295   4.3744
     4.5354   4.8680   5.3840   5.4008   6.3416   6.5185   6.5859   6.8534

     occupation numbers 
     1.0000   1.0000   1.0000   1.0000   1.0000   1.0000   1.0000   1.0000
     1.0000   1.0000   1.0000   1.0000   1.0000   1.0000   1.0000   1.0000
     1.0000   1.0004  -0.0318  -0.0354  -0.0000  -0.0000  -0.0000  -0.0000

          k = 0.0000 0.0851 0.2553 ( 14161 PWs)   bands (ev):

   -33.3213 -31.5051 -14.4843 -14.4714 -14.4693 -14.0303 -14.0253 -14.0247
    -6.4862  -5.8745  -5.8502   2.8565   3.1262   3.2113   3.8932   4.2065
     4.3227   4.5262   5.2815   5.2991   6.4789   6.6214   6.8431   7.1778

     occupation numbers 
     1.0000   1.0000   1.0000   1.0000   1.0000   1.0000   1.0000   1.0000
     1.0000   1.0000   1.0000   1.0000   1.0000   1.0000   1.0000   1.0000
     1.0000   1.0000   0.2365   0.1527  -0.0000  -0.0000  -0.0000  -0.0000

          k = 0.0000 0.0851 0.3404 ( 14170 PWs)   bands (ev):

   -33.3212 -31.5051 -14.4914 -14.4711 -14.4691 -14.0330 -14.0252 -14.0246
    -6.4155  -5.8910  -5.8462   2.8653   3.1671   3.2495   3.6861   3.9777
     4.0544   4.3486   5.1873   5.2053   6.6476   6.6567   7.1730   7.5095

     occupation numbers 
     1.0000   1.0000   1.0000   1.0000   1.0000   1.0000   1.0000   1.0000
     1.0000   1.0000   1.0000   1.0000   1.0000   1.0000   1.0000   1.0000
     1.0000   1.0000   0.7854   0.6887  -0.0000  -0.0000  -0.0000  -0.0000

          k = 0.0000 0.0851 0.4254 ( 14152 PWs)   bands (ev):

   -33.3212 -31.5050 -14.4967 -14.4710 -14.4689 -14.0349 -14.0251 -14.0245
    -6.3580  -5.9085  -5.8433   2.9463   3.2032   3.2416   3.5201   3.7169
     3.9469   4.2502   5.1218   5.1404   6.6833   6.7909   7.4397   7.6846

     occupation numbers 
     1.0000   1.0000   1.0000   1.0000   1.0000   1.0000   1.0000   1.0000
     1.0000   1.0000   1.0000   1.0000   1.0000   1.0000   1.0000   1.0000
     1.0000   1.0000   1.0003   0.9622  -0.0000  -0.0000  -0.0000  -0.0000

          k = 0.0000 0.0851-0.5105 ( 14170 PWs)   bands (ev):

   -33.3212 -31.5050 -14.4986 -14.4709 -14.4688 -14.0356 -14.0250 -14.0245
    -6.3351  -5.9167  -5.8422   3.0640   3.1400   3.2183   3.4688   3.6288
     3.9074   4.2163   5.0984   5.1173   6.6933   6.8482   7.5531   7.7353

     occupation numbers 
     1.0000   1.0000   1.0000   1.0000   1.0000   1.0000   1.0000   1.0000
     1.0000   1.0000   1.0000   1.0000   1.0000   1.0000   1.0000   1.0000
     1.0000   1.0000   1.0266   1.0071  -0.0000  -0.0000  -0.0000  -0.0000

          k = 0.0000 0.1702 0.1702 ( 14135 PWs)   bands (ev):

   -33.3213 -31.5051 -14.4772 -14.4767 -14.4694 -14.0279 -14.0268 -14.0247
    -6.5070  -5.8635  -5.8562   2.7956   3.1176   3.2643   3.8677   4.2532
     4.5929   4.6463   5.2857   5.3044   6.4384   6.5664   6.7414   6.9511

     occupation numbers 
     1.0000   1.0000   1.0000   1.0000   1.0000   1.0000   1.0000   1.0000
     1.0000   1.0000   1.0000   1.0000   1.0000   1.0000   1.0000   1.0000
     1.0000   1.0000   0.2151   0.1308  -0.0000  -0.0000  -0.0000  -0.0000

          k = 0.0000 0.1702 0.2553 ( 14144 PWs)   bands (ev):

   -33.3212 -31.5051 -14.4843 -14.4768 -14.4692 -14.0300 -14.0269 -14.0246
    -6.4436  -5.8713  -5.8544   2.7230   3.1574   3.3444   3.6175   4.1052
     4.3076   4.6038   5.1713   5.1845   6.5408   6.7963   6.8204   7.2089

     occupation numbers 
     1.0000   1.0000   1.0000   1.0000   1.0000   1.0000   1.0000   1.0000
     1.0000   1.0000   1.0000   1.0000   1.0000   1.0000   1.0000   1.0000
     1.0000   1.0000   0.8587   0.7992  -0.0000  -0.0000  -0.0000  -0.0000

          k = 0.0000 0.1702 0.3404 ( 14160 PWs)   bands (ev):

   -33.3212 -31.5050 -14.4915 -14.4767 -14.4689 -14.0325 -14.0267 -14.0244
    -6.3743  -5.8859  -5.8509   2.7061   3.2048   3.3314   3.4655   3.9675
     3.9852   4.5922   5.0480   5.0735   6.7009   6.8598   7.0574   7.4917

     occupation numbers 
     1.0000   1.0000   1.0000   1.0000   1.0000   1.0000   1.0000   1.0000
     1.0000   1.0000   1.0000   1.0000   1.0000   1.0000   1.0000   1.0000
     1.0000   1.0000   1.0323   1.0354  -0.0000  -0.0000  -0.0000  -0.0000

          k = 0.0000 0.1702 0.4254 ( 14172 PWs)   bands (ev):

   -33.3212 -31.5050 -14.4968 -14.4766 -14.4688 -14.0343 -14.0265 -14.0243
    -6.3181  -5.9020  -5.8482   2.7532   3.1432   3.2475   3.5088   3.7460
     3.8674   4.5885   4.9474   4.9963   6.8561   6.8843   7.2976   7.5615

     occupation numbers 
     1.0000   1.0000   1.0000   1.0000   1.0000   1.0000   1.0000   1.0000
     1.0000   1.0000   1.0000   1.0000   1.0000   1.0000   1.0000   1.0000
     1.0000   1.0000   1.0052   1.0158  -0.0000  -0.0000  -0.0000  -0.0000

          k = 0.0000 0.1702-0.5105 ( 14176 PWs)   bands (ev):

   -33.3212 -31.5050 -14.4987 -14.4765 -14.4687 -14.0349 -14.0265 -14.0243
    -6.2958  -5.9096  -5.8472   2.8133   3.0266   3.2657   3.5723   3.6211
     3.8297   4.5907   4.9067   4.9687   6.8929   6.9216   7.4775   7.4898

     occupation numbers 
     1.0000   1.0000   1.0000   1.0000   1.0000   1.0000   1.0000   1.0000
     1.0000   1.0000   1.0000   1.0000   1.0000   1.0000   1.0000   1.0000
     1.0000   1.0000   1.0016   1.0088  -0.0000  -0.0000  -0.0000  -0.0000

          k = 0.0000 0.2553 0.2553 ( 14143 PWs)   bands (ev):

   -33.3212 -31.5050 -14.4845 -14.4839 -14.4690 -14.0301 -14.0286 -14.0244
    -6.3821  -5.8695  -5.8601   2.6171   3.2056   3.3613   3.4599   3.9791
     4.1797   4.6025   5.0390   5.1018   6.5922   6.9317   7.0356   7.3058

     occupation numbers 
     1.0000   1.0000   1.0000   1.0000   1.0000   1.0000   1.0000   1.0000
     1.0000   1.0000   1.0000   1.0000   1.0000   1.0000   1.0000   1.0000
     1.0000   1.0000   1.0297   1.0241  -0.0000  -0.0000  -0.0000  -0.0000

          k = 0.0000 0.2553 0.3404 ( 14147 PWs)   bands (ev):

   -33.3212 -31.5050 -14.4916 -14.4842 -14.4687 -14.0318 -14.0287 -14.0242
    -6.3154  -5.8793  -5.8590   2.5572   3.1429   3.2636   3.5475   3.8594
     3.9782   4.6140   4.9014   5.0353   6.7101   7.1123   7.1339   7.4436

     occupation numbers 
     1.0000   1.0000   1.0000   1.0000   1.0000   1.0000   1.0000   1.0000
     1.0000   1.0000   1.0000   1.0000   1.0000   1.0000   1.0000   1.0000
     1.0000   1.0000   1.0014   1.0286  -0.0000  -0.0000  -0.0000  -0.0000

          k = 0.0000 0.2553 0.4254 ( 14151 PWs)   bands (ev):

   -33.3212 -31.5050 -14.4970 -14.4842 -14.4686 -14.0334 -14.0285 -14.0241
    -6.2614  -5.8932  -5.8562   2.5456   2.9767   3.3171   3.6159   3.7695
     3.8033   4.6460   4.8037   4.9626   6.8845   7.1665   7.2317   7.4347

     occupation numbers 
     1.0000   1.0000   1.0000   1.0000   1.0000   1.0000   1.0000   1.0000
     1.0000   1.0000   1.0000   1.0000   1.0000   1.0000   1.0000   1.0000
     1.0000   1.0000   1.0000   1.0077  -0.0000  -0.0000  -0.0000  -0.0000

          k = 0.0000 0.2553-0.5105 ( 14194 PWs)   bands (ev):

   -33.3211 -31.5050 -14.4989 -14.4842 -14.4685 -14.0340 -14.0284 -14.0241
    -6.2400  -5.8999  -5.8551   2.5530   2.9075   3.3409   3.6788   3.6997
     3.7341   4.6665   4.7683   4.9263   6.9971   7.1755   7.2461   7.4123

     occupation numbers 
     1.0000   1.0000   1.0000   1.0000   1.0000   1.0000   1.0000   1.0000
     1.0000   1.0000   1.0000   1.0000   1.0000   1.0000   1.0000   1.0000
     1.0000   1.0000   1.0000   1.0029  -0.0000  -0.0000  -0.0000  -0.0000

          k = 0.0000 0.3404 0.3404 ( 14163 PWs)   bands (ev):

   -33.3211 -31.5050 -14.4919 -14.4914 -14.4686 -14.0316 -14.0305 -14.0240
    -6.2520  -5.8751  -5.8685   2.4408   2.9640   3.3350   3.6478   3.7577
     3.9344   4.5119   4.7327   5.1169   6.7381   7.2660   7.3561   7.3815

     occupation numbers 
     1.0000   1.0000   1.0000   1.0000   1.0000   1.0000   1.0000   1.0000
     1.0000   1.0000   1.0000   1.0000   1.0000   1.0000   1.0000   1.0000
     1.0000   1.0000   1.0000   1.0076  -0.0000  -0.0000  -0.0000  -0.0000

          k = 0.0000 0.3404 0.4254 ( 14162 PWs)   bands (ev):

   -33.3211 -31.5049 -14.4971 -14.4917 -14.4684 -14.0326 -14.0304 -14.0239
    -6.2012  -5.8844  -5.8669   2.3698   2.8438   3.4030   3.6804   3.7252
     3.8626   4.4543   4.6077   5.1647   6.8450   7.2050   7.4024   7.4687

     occupation numbers 
     1.0000   1.0000   1.0000   1.0000   1.0000   1.0000   1.0000   1.0000
     1.0000   1.0000   1.0000   1.0000   1.0000   1.0000   1.0000   1.0000
     1.0000   1.0000   1.0000   0.8853  -0.0000  -0.0000  -0.0000  -0.0000

          k = 0.0000 0.3404-0.5105 ( 14124 PWs)   bands (ev):

   -33.3211 -31.5049 -14.4991 -14.4917 -14.4684 -14.0331 -14.0303 -14.0238
    -6.1811  -5.8901  -5.8655   2.3468   2.8005   3.4353   3.6479   3.7804
     3.8025   4.4395   4.5609   5.1779   6.9837   7.0540   7.4497   7.4820

     occupation numbers 
     1.0000   1.0000   1.0000   1.0000   1.0000   1.0000   1.0000   1.0000
     1.0000   1.0000   1.0000   1.0000   1.0000   1.0000   1.0000   1.0000
     1.0000   1.0000   1.0000   0.8301  -0.0000  -0.0000  -0.0000  -0.0000

          k = 0.0000 0.4254 0.4254 ( 14154 PWs)   bands (ev):

   -33.3211 -31.5049 -14.4973 -14.4971 -14.4683 -14.0321 -14.0318 -14.0237
    -6.1535  -5.8789  -5.8769   2.2559   2.7557   3.4856   3.6170   3.8161
     3.8973   4.3140   4.4537   5.2877   6.8460   7.0596   7.4984   7.6968

     occupation numbers 
     1.0000   1.0000   1.0000   1.0000   1.0000   1.0000   1.0000   1.0000
     1.0000   1.0000   1.0000   1.0000   1.0000   1.0000   1.0000   1.0000
     1.0000   1.0000   1.0000   0.2054  -0.0000  -0.0000  -0.0000  -0.0000

          k = 0.0000 0.4254-0.5105 ( 14156 PWs)   bands (ev):

   -33.3211 -31.5049 -14.4992 -14.4973 -14.4683 -14.0325 -14.0317 -14.0237
    -6.1349  -5.8829  -5.8756   2.2168   2.7242   3.5268   3.5895   3.8721
     3.8878   4.2643   4.3927   5.3269   6.9143   6.9329   7.5418   7.7341

     occupation numbers 
     1.0000   1.0000   1.0000   1.0000   1.0000   1.0000   1.0000   1.0000
     1.0000   1.0000   1.0000   1.0000   1.0000   1.0000   1.0000   1.0000
     1.0000   1.0000   1.0000   0.0532  -0.0000  -0.0000  -0.0000  -0.0000

          k = 0.0000-0.5105-0.5105 ( 14108 PWs)   bands (ev):

   -33.3211 -31.5049 -14.4993 -14.4993 -14.4683 -14.0322 -14.0322 -14.0236
    -6.1169  -5.8802  -5.8802   2.1726   2.6964   3.5690   3.5690   3.9212
     3.9212   4.1866   4.3235   5.3753   6.8814   6.8917   7.5832   7.8356

     occupation numbers 
     1.0000   1.0000   1.0000   1.0000   1.0000   1.0000   1.0000   1.0000
     1.0000   1.0000   1.0000   1.0000   1.0000   1.0000   1.0000   1.0000
     1.0000   1.0000   1.0000  -0.0270  -0.0000  -0.0000  -0.0000  -0.0000

          k = 0.0851 0.0851 0.0851 ( 14126 PWs)   bands (ev):

   -33.3213 -31.5052 -14.4718 -14.4718 -14.4715 -14.0259 -14.0254 -14.0254
    -6.5798  -5.8579  -5.8579   2.9161   3.1189   3.1189   4.3294   4.3294
     4.6923   5.0767   5.4478   5.4478   6.2955   6.2955   6.5701   6.7632

     occupation numbers 
     1.0000   1.0000   1.0000   1.0000   1.0000   1.0000   1.0000   1.0000
     1.0000   1.0000   1.0000   1.0000   1.0000   1.0000   1.0000   1.0000
     1.0000   1.0351  -0.0253  -0.0253  -0.0000  -0.0000  -0.0000  -0.0000

          k = 0.0851 0.0851 0.1702 ( 14146 PWs)   bands (ev):

   -33.3213 -31.5051 -14.4770 -14.4716 -14.4715 -14.0276 -14.0255 -14.0253
    -6.5354  -5.8630  -5.8551   2.8370   3.1399   3.1858   4.0745   4.2149
     4.6602   4.7707   5.3445   5.3827   6.3596   6.4719   6.6308   6.9189

     occupation numbers 
     1.0000   1.0000   1.0000   1.0000   1.0000   1.0000   1.0000   1.0000
     1.0000   1.0000   1.0000   1.0000   1.0000   1.0000   1.0000   1.0000
     1.0000   1.0000   0.0117  -0.0312  -0.0000  -0.0000  -0.0000  -0.0000

          k = 0.0851 0.0851 0.2553 ( 14152 PWs)   bands (ev):

   -33.3213 -31.5051 -14.4843 -14.4713 -14.4713 -14.0302 -14.0253 -14.0252
    -6.4710  -5.8734  -5.8514   2.7869   3.1730   3.2405   3.8390   4.0249
     4.4455   4.5411   5.2113   5.2950   6.4838   6.6934   6.7772   7.1389

     occupation numbers 
     1.0000   1.0000   1.0000   1.0000   1.0000   1.0000   1.0000   1.0000
     1.0000   1.0000   1.0000   1.0000   1.0000   1.0000   1.0000   1.0000
     1.0000   1.0000   0.6540   0.1711  -0.0000  -0.0000  -0.0000  -0.0000

          k = 0.0851 0.0851 0.3404 ( 14161 PWs)   bands (ev):

   -33.3212 -31.5051 -14.4915 -14.4711 -14.4710 -14.0328 -14.0251 -14.0251
    -6.4008  -5.8893  -5.8476   2.7936   3.2152   3.2676   3.6488   3.7591
     4.2260   4.4113   5.0863   5.2124   6.6231   6.7649   7.1165   7.3853

     occupation numbers 
     1.0000   1.0000   1.0000   1.0000   1.0000   1.0000   1.0000   1.0000
     1.0000   1.0000   1.0000   1.0000   1.0000   1.0000   1.0000   1.0000
     1.0000   1.0000   1.0328   0.6476  -0.0000  -0.0000  -0.0000  -0.0000

          k = 0.0851 0.0851 0.4254 ( 14164 PWs)   bands (ev):

   -33.3212 -31.5050 -14.4967 -14.4710 -14.4708 -14.0347 -14.0251 -14.0250
    -6.3436  -5.9063  -5.8448   2.8746   3.2099   3.2602   3.5164   3.5425
     4.1171   4.3171   4.9977   5.1551   6.7022   6.8603   7.4012   7.5907

     occupation numbers 
     1.0000   1.0000   1.0000   1.0000   1.0000   1.0000   1.0000   1.0000
     1.0000   1.0000   1.0000   1.0000   1.0000   1.0000   1.0000   1.0000
     1.0000   1.0000   1.0162   0.9196  -0.0000  -0.0000  -0.0000  -0.0000

          k = 0.0851 0.0851-0.5105 ( 14174 PWs)   bands (ev):

   -33.3212 -31.5050 -14.4986 -14.4710 -14.4707 -14.0354 -14.0250 -14.0249
    -6.3209  -5.9143  -5.8438   3.0049   3.0620   3.2858   3.4623   3.4881
     4.0839   4.2829   4.9656   5.1346   6.7225   6.9091   7.5248   7.6737

     occupation numbers 
     1.0000   1.0000   1.0000   1.0000   1.0000   1.0000   1.0000   1.0000
     1.0000   1.0000   1.0000   1.0000   1.0000   1.0000   1.0000   1.0000
     1.0000   1.0000   1.0082   0.9759  -0.0000  -0.0000  -0.0000  -0.0000

          k = 0.0851 0.1702 0.1702 ( 14144 PWs)   bands (ev):

   -33.3213 -31.5051 -14.4771 -14.4767 -14.4714 -14.0278 -14.0268 -14.0253
    -6.4917  -5.8628  -5.8572   2.7389   3.1752   3.2667   3.8655   4.0920
     4.5297   4.7243   5.2717   5.2964   6.4448   6.4915   6.7116   7.1061

     occupation numbers 
     1.0000   1.0000   1.0000   1.0000   1.0000   1.0000   1.0000   1.0000
     1.0000   1.0000   1.0000   1.0000   1.0000   1.0000   1.0000   1.0000
     1.0000   1.0000   0.2891   0.1647  -0.0000  -0.0000  -0.0000  -0.0000

          k = 0.0851 0.1702 0.2553 ( 14146 PWs)   bands (ev):

   -33.3212 -31.5051 -14.4842 -14.4767 -14.4712 -14.0299 -14.0269 -14.0251
    -6.4285  -5.8705  -5.8552   2.6717   3.2041   3.3385   3.6319   3.9485
     4.2816   4.6900   5.1324   5.2057   6.5384   6.7068   6.8226   7.2493

     occupation numbers 
     1.0000   1.0000   1.0000   1.0000   1.0000   1.0000   1.0000   1.0000
     1.0000   1.0000   1.0000   1.0000   1.0000   1.0000   1.0000   1.0000
     1.0000   1.0000   0.9806   0.6866  -0.0000  -0.0000  -0.0000  -0.0000

          k = 0.0851 0.1702 0.3404 ( 14163 PWs)   bands (ev):

   -33.3212 -31.5050 -14.4915 -14.4766 -14.4709 -14.0323 -14.0266 -14.0250
    -6.3596  -5.8846  -5.8519   2.6619   3.2141   3.3426   3.4668   3.7397
     4.1525   4.6300   4.9679   5.1231   6.6731   6.8886   7.0387   7.3828

     occupation numbers 
     1.0000   1.0000   1.0000   1.0000   1.0000   1.0000   1.0000   1.0000
     1.0000   1.0000   1.0000   1.0000   1.0000   1.0000   1.0000   1.0000
     1.0000   1.0000   1.0087   0.9982  -0.0000  -0.0000  -0.0000  -0.0000

          k = 0.0851 0.1702 0.4254 ( 14175 PWs)   bands (ev):

   -33.3212 -31.5050 -14.4968 -14.4765 -14.4708 -14.0341 -14.0265 -14.0249
    -6.3037  -5.9003  -5.8494   2.7218   3.0886   3.3246   3.4176   3.5915
     4.1099   4.5999   4.8224   5.0648   6.7764   7.0092   7.2909   7.4854

     occupation numbers 
     1.0000   1.0000   1.0000   1.0000   1.0000   1.0000   1.0000   1.0000
     1.0000   1.0000   1.0000   1.0000   1.0000   1.0000   1.0000   1.0000
     1.0000   1.0000   1.0001   1.0352  -0.0000  -0.0000  -0.0000  -0.0000

          k = 0.0851 0.1702-0.5105 ( 14192 PWs)   bands (ev):

   -33.3212 -31.5050 -14.4987 -14.4765 -14.4707 -14.0348 -14.0264 -14.0248
    -6.2814  -5.9077  -5.8484   2.8059   2.9536   3.3534   3.3749   3.5539
     4.1010   4.6036   4.7532   5.0439   6.8093   7.0672   7.4535   7.4673

     occupation numbers 
     1.0000   1.0000   1.0000   1.0000   1.0000   1.0000   1.0000   1.0000
     1.0000   1.0000   1.0000   1.0000   1.0000   1.0000   1.0000   1.0000
     1.0000   1.0000   1.0000   1.0312  -0.0000  -0.0000  -0.0000  -0.0000

          k = 0.0851 0.2553 0.2553 ( 14147 PWs)   bands (ev):

   -33.3212 -31.5050 -14.4844 -14.4839 -14.4710 -14.0300 -14.0286 -14.0250
    -6.3672  -5.8691  -5.8605   2.5795   3.1971   3.4258   3.4285   3.9112
     4.0728   4.7182   5.0590   5.0932   6.6002   6.8202   6.9418   7.4324

     occupation numbers 
     1.0000   1.0000   1.0000   1.0000   1.0000   1.0000   1.0000   1.0000
     1.0000   1.0000   1.0000   1.0000   1.0000   1.0000   1.0000   1.0000
     1.0000   1.0000   1.0346   1.0299  -0.0000  -0.0000  -0.0000  -0.0000

          k = 0.0851 0.2553 0.3404 ( 14151 PWs)   bands (ev):

   -33.3212 -31.5050 -14.4915 -14.4841 -14.4708 -14.0317 -14.0287 -14.0248
    -6.3007  -5.8787  -5.8595   2.5350   3.0824   3.3555   3.4569   3.7896
     4.0113   4.6672   4.9348   5.0373   6.7132   6.9710   7.1242   7.4652

     occupation numbers 
     1.0000   1.0000   1.0000   1.0000   1.0000   1.0000   1.0000   1.0000
     1.0000   1.0000   1.0000   1.0000   1.0000   1.0000   1.0000   1.0000
     1.0000   1.0000   1.0037   1.0292  -0.0000  -0.0000  -0.0000  -0.0000

          k = 0.0851 0.2553 0.4254 ( 14173 PWs)   bands (ev):

   -33.3211 -31.5050 -14.4969 -14.4841 -14.4706 -14.0333 -14.0285 -14.0247
    -6.2469  -5.8921  -5.8570   2.5427   2.9251   3.3590   3.4249   3.6911
     4.0535   4.5812   4.8767   4.9723   6.8640   7.0801   7.3260   7.3944

     occupation numbers 
     1.0000   1.0000   1.0000   1.0000   1.0000   1.0000   1.0000   1.0000
     1.0000   1.0000   1.0000   1.0000   1.0000   1.0000   1.0000   1.0000
     1.0000   1.0000   1.0006   1.0096  -0.0000  -0.0000  -0.0000  -0.0000

          k = 0.0851 0.2553-0.5105 ( 14166 PWs)   bands (ev):

   -33.3211 -31.5050 -14.4989 -14.4841 -14.4706 -14.0339 -14.0284 -14.0246
    -6.2255  -5.8987  -5.8560   2.5647   2.8469   3.3762   3.3861   3.6674
     4.0829   4.5341   4.8710   4.9368   6.9323   7.2341   7.2347   7.4169

     occupation numbers 
     1.0000   1.0000   1.0000   1.0000   1.0000   1.0000   1.0000   1.0000
     1.0000   1.0000   1.0000   1.0000   1.0000   1.0000   1.0000   1.0000
     1.0000   1.0000   1.0005   1.0039  -0.0000  -0.0000  -0.0000  -0.0000

          k = 0.0851 0.3404 0.3404 ( 14157 PWs)   bands (ev):

   -33.3211 -31.5050 -14.4918 -14.4914 -14.4706 -14.0314 -14.0304 -14.0246
    -6.2373  -5.8750  -5.8685   2.4384   2.9177   3.3607   3.4662   3.8839
     3.8883   4.5878   4.7745   5.1267   6.7435   7.1591   7.1926   7.5063

     occupation numbers 
     1.0000   1.0000   1.0000   1.0000   1.0000   1.0000   1.0000   1.0000
     1.0000   1.0000   1.0000   1.0000   1.0000   1.0000   1.0000   1.0000
     1.0000   1.0000   1.0000   0.9919  -0.0000  -0.0000  -0.0000  -0.0000

          k = 0.0851 0.3404 0.4254 ( 14171 PWs)   bands (ev):

   -33.3211 -31.5049 -14.4970 -14.4916 -14.4704 -14.0325 -14.0304 -14.0245
    -6.1865  -5.8841  -5.8673   2.3835   2.7973   3.3683   3.4306   3.8271
     4.0099   4.4581   4.6790   5.1774   6.8478   7.1551   7.3152   7.5040

     occupation numbers 
     1.0000   1.0000   1.0000   1.0000   1.0000   1.0000   1.0000   1.0000
     1.0000   1.0000   1.0000   1.0000   1.0000   1.0000   1.0000   1.0000
     1.0000   1.0000   1.0000   0.8320  -0.0000  -0.0000  -0.0000  -0.0000

          k = 0.0851 0.3404-0.5105 ( 14162 PWs)   bands (ev):

   -33.3211 -31.5049 -14.4990 -14.4916 -14.4704 -14.0330 -14.0303 -14.0244
    -6.1665  -5.8896  -5.8660   2.3671   2.7521   3.3857   3.3931   3.8147
     4.0935   4.3616   4.6576   5.1909   6.9805   7.0440   7.3315   7.5566

     occupation numbers 
     1.0000   1.0000   1.0000   1.0000   1.0000   1.0000   1.0000   1.0000
     1.0000   1.0000   1.0000   1.0000   1.0000   1.0000   1.0000   1.0000
     1.0000   1.0000   1.0000   0.7668  -0.0000  -0.0000  -0.0000  -0.0000

          k = 0.0851 0.4254 0.4254 ( 14162 PWs)   bands (ev):

   -33.3211 -31.5049 -14.4972 -14.4970 -14.4703 -14.0321 -14.0317 -14.0243
    -6.1387  -5.8791  -5.8770   2.2781   2.7137   3.3725   3.4117   3.9847
     3.9952   4.3701   4.4938   5.3022   6.8484   7.0532   7.4284   7.6363

     occupation numbers 
     1.0000   1.0000   1.0000   1.0000   1.0000   1.0000   1.0000   1.0000
     1.0000   1.0000   1.0000   1.0000   1.0000   1.0000   1.0000   1.0000
     1.0000   1.0000   1.0000   0.1397  -0.0000  -0.0000  -0.0000  -0.0000

          k = 0.0851 0.4254-0.5105 ( 14162 PWs)   bands (ev):

   -33.3211 -31.5049 -14.4991 -14.4971 -14.4703 -14.0324 -14.0317 -14.0242
    -6.1200  -5.8829  -5.8759   2.2416   2.6839   3.3855   3.3876   3.9860
     4.1237   4.2565   4.4397   5.3416   6.9229   6.9245   7.4814   7.7056

     occupation numbers 
     1.0000   1.0000   1.0000   1.0000   1.0000   1.0000   1.0000   1.0000
     1.0000   1.0000   1.0000   1.0000   1.0000   1.0000   1.0000   1.0000
     1.0000   1.0000   1.0000   0.0175  -0.0000  -0.0000  -0.0000  -0.0000

          k = 0.0851-0.5105-0.5105 ( 14156 PWs)   bands (ev):

   -33.3211 -31.5049 -14.4991 -14.4991 -14.4702 -14.0322 -14.0322 -14.0242
    -6.1019  -5.8805  -5.8805   2.1988   2.6588   3.3835   3.3835   4.1397
     4.1397   4.1880   4.3039   5.3902   6.8815   6.8929   7.5505   7.7699

     occupation numbers 
     1.0000   1.0000   1.0000   1.0000   1.0000   1.0000   1.0000   1.0000
     1.0000   1.0000   1.0000   1.0000   1.0000   1.0000   1.0000   1.0000
     1.0000   1.0000   1.0000  -0.0339  -0.0000  -0.0000  -0.0000  -0.0000

          k = 0.1702 0.1702 0.1702 ( 14120 PWs)   bands (ev):

   -33.3212 -31.5051 -14.4769 -14.4769 -14.4766 -14.0279 -14.0267 -14.0267
    -6.4486  -5.8607  -5.8607   2.6431   3.2705   3.2705   3.8545   3.8545
     4.2675   4.8526   5.2328   5.2328   6.4778   6.4778   6.7101   7.3720

     occupation numbers 
     1.0000   1.0000   1.0000   1.0000   1.0000   1.0000   1.0000   1.0000
     1.0000   1.0000   1.0000   1.0000   1.0000   1.0000   1.0000   1.0000
     1.0000   1.0002   0.5233   0.5233  -0.0000  -0.0000  -0.0000  -0.0000

          k = 0.1702 0.1702 0.2553 ( 14159 PWs)   bands (ev):

   -33.3212 -31.5050 -14.4841 -14.4766 -14.4766 -14.0296 -14.0269 -14.0266
    -6.3863  -5.8685  -5.8579   2.5761   3.2630   3.3188   3.6644   3.7668
     4.0689   4.8628   5.0918   5.1729   6.5571   6.6409   6.7827   7.4427

     occupation numbers 
     1.0000   1.0000   1.0000   1.0000   1.0000   1.0000   1.0000   1.0000
     1.0000   1.0000   1.0000   1.0000   1.0000   1.0000   1.0000   1.0000
     1.0000   1.0004   1.0305   0.8522  -0.0000  -0.0000  -0.0000  -0.0000

          k = 0.1702 0.1702 0.3404 ( 14175 PWs)   bands (ev):

   -33.3212 -31.5050 -14.4915 -14.4766 -14.4763 -14.0319 -14.0265 -14.0265
    -6.3185  -5.8812  -5.8551   2.5679   3.2267   3.2371   3.5591   3.5832
     4.1053   4.8032   4.8984   5.1079   6.6691   6.9216   6.9228   7.4669

     occupation numbers 
     1.0000   1.0000   1.0000   1.0000   1.0000   1.0000   1.0000   1.0000
     1.0000   1.0000   1.0000   1.0000   1.0000   1.0000   1.0000   1.0000
     1.0000   1.0000   1.0012   1.0186  -0.0000  -0.0000  -0.0000  -0.0000

          k = 0.1702 0.1702 0.4254 ( 14164 PWs)   bands (ev):

   -33.3212 -31.5050 -14.4968 -14.4766 -14.4760 -14.0336 -14.0264 -14.0263
    -6.2635  -5.8956  -5.8531   2.6343   3.0156   3.1772   3.5067   3.5259
     4.2399   4.6898   4.7402   5.0609   6.7589   7.1104   7.2202   7.4400

     occupation numbers 
     1.0000   1.0000   1.0000   1.0000   1.0000   1.0000   1.0000   1.0000
     1.0000   1.0000   1.0000   1.0000   1.0000   1.0000   1.0000   1.0000
     1.0000   1.0000   1.0000   1.0348  -0.0000  -0.0000  -0.0000  -0.0000

          k = 0.1702 0.1702-0.5105 ( 14180 PWs)   bands (ev):

   -33.3211 -31.5050 -14.4987 -14.4766 -14.4760 -14.0342 -14.0264 -14.0262
    -6.2416  -5.9025  -5.8523   2.7455   2.8354   3.1554   3.4895   3.5209
     4.3561   4.5499   4.7147   5.0442   6.7909   7.2537   7.3698   7.3877

     occupation numbers 
     1.0000   1.0000   1.0000   1.0000   1.0000   1.0000   1.0000   1.0000
     1.0000   1.0000   1.0000   1.0000   1.0000   1.0000   1.0000   1.0000
     1.0000   1.0000   1.0000   1.0313  -0.0000  -0.0000  -0.0000  -0.0000

          k = 0.1702 0.2553 0.2553 ( 14162 PWs)   bands (ev):

   -33.3212 -31.5050 -14.4842 -14.4839 -14.4764 -14.0296 -14.0286 -14.0265
    -6.3256  -5.8680  -5.8621   2.5010   3.1901   3.3184   3.5614   3.8316
     3.8316   4.9267   5.0710   5.0741   6.6269   6.6857   6.8179   7.6180

     occupation numbers 
     1.0000   1.0000   1.0000   1.0000   1.0000   1.0000   1.0000   1.0000
     1.0000   1.0000   1.0000   1.0000   1.0000   1.0000   1.0000   1.0000
     1.0000   1.0030   1.0354   1.0353  -0.0000  -0.0000  -0.0000  -0.0000

          k = 0.1702 0.2553 0.3404 ( 14183 PWs)   bands (ev):

   -33.3211 -31.5050 -14.4914 -14.4839 -14.4762 -14.0314 -14.0286 -14.0263
    -6.2598  -5.8769  -5.8612   2.4776   3.0391   3.2453   3.4451   3.7229
     3.9950   4.8242   4.9886   5.0490   6.7217   6.8514   6.9572   7.6058

     occupation numbers 
     1.0000   1.0000   1.0000   1.0000   1.0000   1.0000   1.0000   1.0000
     1.0000   1.0000   1.0000   1.0000   1.0000   1.0000   1.0000   1.0000
     1.0000   1.0001   1.0136   1.0325  -0.0000  -0.0000  -0.0000  -0.0000

          k = 0.1702 0.2553 0.4254 ( 14184 PWs)   bands (ev):

   -33.3211 -31.5049 -14.4968 -14.4839 -14.4761 -14.0330 -14.0283 -14.0262
    -6.2065  -5.8893  -5.8595   2.5196   2.8535   3.1346   3.3998   3.7048
     4.1903   4.6255   4.9592   5.0067   6.8194   7.0239   7.1987   7.4996

     occupation numbers 
     1.0000   1.0000   1.0000   1.0000   1.0000   1.0000   1.0000   1.0000
     1.0000   1.0000   1.0000   1.0000   1.0000   1.0000   1.0000   1.0000
     1.0000   1.0000   1.0070   1.0190  -0.0000  -0.0000  -0.0000  -0.0000

          k = 0.1702 0.2553-0.5105 ( 14174 PWs)   bands (ev):

   -33.3211 -31.5049 -14.4987 -14.4838 -14.4760 -14.0335 -14.0283 -14.0261
    -6.1854  -5.8954  -5.8588   2.5886   2.7253   3.0941   3.3885   3.7046
     4.3825   4.4280   4.9547   4.9828   6.8539   7.1895   7.2771   7.4423

     occupation numbers 
     1.0000   1.0000   1.0000   1.0000   1.0000   1.0000   1.0000   1.0000
     1.0000   1.0000   1.0000   1.0000   1.0000   1.0000   1.0000   1.0000
     1.0000   1.0000   1.0063   1.0121  -0.0000  -0.0000  -0.0000  -0.0000

          k = 0.1702 0.3404 0.3404 ( 14203 PWs)   bands (ev):

   -33.3211 -31.5049 -14.4915 -14.4913 -14.4760 -14.0311 -14.0304 -14.0261
    -6.1967  -5.8748  -5.8687   2.4216   2.8539   3.2360   3.3039   3.8675
     3.9815   4.7643   4.8645   5.1641   6.7588   6.9817   7.0061   7.5908

     occupation numbers 
     1.0000   1.0000   1.0000   1.0000   1.0000   1.0000   1.0000   1.0000
     1.0000   1.0000   1.0000   1.0000   1.0000   1.0000   1.0000   1.0000
     1.0000   1.0000   1.0004   0.8873  -0.0000  -0.0000  -0.0000  -0.0000

          k = 0.1702 0.3404 0.4254 ( 14189 PWs)   bands (ev):

   -33.3211 -31.5049 -14.4968 -14.4913 -14.4758 -14.0323 -14.0303 -14.0260
    -6.1460  -5.8831  -5.8684   2.4115   2.7037   3.1477   3.2675   3.8998
     4.1367   4.6014   4.8102   5.2187   6.8530   7.0266   7.1860   7.4898

     occupation numbers 
     1.0000   1.0000   1.0000   1.0000   1.0000   1.0000   1.0000   1.0000
     1.0000   1.0000   1.0000   1.0000   1.0000   1.0000   1.0000   1.0000
     1.0000   1.0000   1.0000   0.6099  -0.0000  -0.0000  -0.0000  -0.0000

          k = 0.1702 0.3404-0.5105 ( 14158 PWs)   bands (ev):

   -33.3211 -31.5049 -14.4988 -14.4913 -14.4758 -14.0329 -14.0302 -14.0259
    -6.1259  -5.8883  -5.8675   2.4229   2.6352   3.1048   3.2643   3.9045
     4.2793   4.4541   4.8015   5.2317   6.9567   7.0104   7.2142   7.5633

     occupation numbers 
     1.0000   1.0000   1.0000   1.0000   1.0000   1.0000   1.0000   1.0000
     1.0000   1.0000   1.0000   1.0000   1.0000   1.0000   1.0000   1.0000
     1.0000   1.0000   1.0000   0.5304  -0.0000  -0.0000  -0.0000  -0.0000

          k = 0.1702 0.4254 0.4254 ( 14177 PWs)   bands (ev):

   -33.3211 -31.5049 -14.4968 -14.4967 -14.4757 -14.0320 -14.0317 -14.0258
    -6.0979  -5.8795  -5.8772   2.3373   2.6077   3.1581   3.1651   4.0880
     4.1235   4.5799   4.6428   5.3449   6.8468   7.0323   7.2673   7.4849

     occupation numbers 
     1.0000   1.0000   1.0000   1.0000   1.0000   1.0000   1.0000   1.0000
     1.0000   1.0000   1.0000   1.0000   1.0000   1.0000   1.0000   1.0000
     1.0000   1.0000   1.0000   0.0109  -0.0000  -0.0000  -0.0000  -0.0000

          k = 0.1702 0.4254-0.5105 ( 14176 PWs)   bands (ev):

   -33.3210 -31.5049 -14.4988 -14.4968 -14.4756 -14.0324 -14.0317 -14.0258
    -6.0790  -5.8831  -5.8767   2.3115   2.5741   3.1226   3.1661   4.1028
     4.2334   4.4786   4.6175   5.3840   6.8891   6.9519   7.3324   7.5912

     occupation numbers 
     1.0000   1.0000   1.0000   1.0000   1.0000   1.0000   1.0000   1.0000
     1.0000   1.0000   1.0000   1.0000   1.0000   1.0000   1.0000   1.0000
     1.0000   1.0000   1.0000  -0.0318  -0.0000  -0.0000  -0.0000  -0.0000

          k = 0.1702-0.5105-0.5105 ( 14200 PWs)   bands (ev):

   -33.3210 -31.5048 -14.4988 -14.4988 -14.4755 -14.0322 -14.0322 -14.0257
    -6.0605  -5.8812  -5.8812   2.2730   2.5520   3.1296   3.1296   4.1919
     4.2617   4.4901   4.4901   5.4331   6.8469   6.9248   7.4601   7.5880

     occupation numbers 
     1.0000   1.0000   1.0000   1.0000   1.0000   1.0000   1.0000   1.0000
     1.0000   1.0000   1.0000   1.0000   1.0000   1.0000   1.0000   1.0000
     1.0000   1.0000   1.0000  -0.0301  -0.0000  -0.0000  -0.0000  -0.0000

          k = 0.2553 0.2553 0.2553 ( 14186 PWs)   bands (ev):

   -33.3211 -31.5050 -14.4839 -14.4838 -14.4838 -14.0293 -14.0285 -14.0285
    -6.2660  -5.8665  -5.8665   2.4346   3.1704   3.1704   3.4643   3.8103
     3.8103   5.0314   5.0314   5.0899   6.6739   6.6739   6.7706   7.7321

     occupation numbers 
     1.0000   1.0000   1.0000   1.0000   1.0000   1.0000   1.0000   1.0000
     1.0000   1.0000   1.0000   1.0000   1.0000   1.0000   1.0000   1.0000
     1.0000   1.0273   1.0273   1.0314  -0.0000  -0.0000  -0.0000  -0.0000

          k = 0.2553 0.2553 0.3404 ( 14199 PWs)   bands (ev):

   -33.3211 -31.5049 -14.4912 -14.4839 -14.4834 -14.0310 -14.0284 -14.0284
    -6.2016  -5.8749  -5.8650   2.4153   3.0356   3.0370   3.2907   3.8214
     3.9941   4.9194   5.0053   5.1357   6.7421   6.8191   6.8262   7.7018

     occupation numbers 
     1.0000   1.0000   1.0000   1.0000   1.0000   1.0000   1.0000   1.0000
     1.0000   1.0000   1.0000   1.0000   1.0000   1.0000   1.0000   1.0000
     1.0000   1.0024   1.0186   0.9734  -0.0000  -0.0000  -0.0000  -0.0000

          k = 0.2553 0.2553 0.4254 ( 14196 PWs)   bands (ev):

   -33.3211 -31.5049 -14.4966 -14.4839 -14.4831 -14.0325 -14.0283 -14.0281
    -6.1495  -5.8855  -5.8639   2.4635   2.7924   2.9488   3.2575   3.8389
     4.1805   4.7667   4.9847   5.1233   6.8089   6.9702   7.0597   7.6079

     occupation numbers 
     1.0000   1.0000   1.0000   1.0000   1.0000   1.0000   1.0000   1.0000
     1.0000   1.0000   1.0000   1.0000   1.0000   1.0000   1.0000   1.0000
     1.0000   1.0000   1.0125   0.9978  -0.0000  -0.0000  -0.0000  -0.0000

          k = 0.2553 0.2553-0.5105 ( 14170 PWs)   bands (ev):

   -33.3211 -31.5049 -14.4986 -14.4839 -14.4830 -14.0331 -14.0283 -14.0279
    -6.1287  -5.8910  -5.8635   2.5797   2.6008   2.9183   3.2520   3.8467
     4.2836   4.6717   4.9773   5.1113   6.8336   7.0903   7.2418   7.4712

     occupation numbers 
     1.0000   1.0000   1.0000   1.0000   1.0000   1.0000   1.0000   1.0000
     1.0000   1.0000   1.0000   1.0000   1.0000   1.0000   1.0000   1.0000
     1.0000   1.0000   1.0107   1.0148  -0.0000  -0.0000  -0.0000  -0.0000

          k = 0.2553 0.3404 0.3404 ( 14195 PWs)   bands (ev):

   -33.3211 -31.5049 -14.4911 -14.4910 -14.4834 -14.0307 -14.0303 -14.0282
    -6.1393  -5.8745  -5.8702   2.3831   2.8390   3.0342   3.0941   3.9588
     4.0399   4.9259   4.9549   5.2496   6.7782   6.8500   6.8548   7.6223

     occupation numbers 
     1.0000   1.0000   1.0000   1.0000   1.0000   1.0000   1.0000   1.0000
     1.0000   1.0000   1.0000   1.0000   1.0000   1.0000   1.0000   1.0000
     1.0000   1.0029   1.0063   0.4194  -0.0000  -0.0000  -0.0000  -0.0000

          k = 0.2553 0.3404 0.4254 ( 14165 PWs)   bands (ev):

   -33.3210 -31.5049 -14.4964 -14.4909 -14.4832 -14.0320 -14.0302 -14.0280
    -6.0891  -5.8818  -5.8705   2.4059   2.6499   2.9261   3.0787   4.0042
     4.1649   4.8408   4.9466   5.2967   6.8514   6.8945   7.0395   7.4557

     occupation numbers 
     1.0000   1.0000   1.0000   1.0000   1.0000   1.0000   1.0000   1.0000
     1.0000   1.0000   1.0000   1.0000   1.0000   1.0000   1.0000   1.0000
     1.0000   1.0002   1.0051   0.1635  -0.0000  -0.0000  -0.0000  -0.0000

          k = 0.2553 0.3404-0.5105 ( 14190 PWs)   bands (ev):

   -33.3210 -31.5048 -14.4984 -14.4909 -14.4831 -14.0326 -14.0301 -14.0280
    -6.0690  -5.8865  -5.8701   2.4960   2.4965   2.8831   3.0836   4.0142
     4.2334   4.7856   4.9472   5.3053   6.8973   6.9481   7.1616   7.3814

     occupation numbers 
     1.0000   1.0000   1.0000   1.0000   1.0000   1.0000   1.0000   1.0000
     1.0000   1.0000   1.0000   1.0000   1.0000   1.0000   1.0000   1.0000
     1.0000   1.0000   1.0052   0.1270  -0.0000  -0.0000  -0.0000  -0.0000

          k = 0.2553 0.4254 0.4254 ( 14185 PWs)   bands (ev):

   -33.3210 -31.5048 -14.4963 -14.4963 -14.4830 -14.0318 -14.0317 -14.0279
    -6.0410  -5.8801  -5.8776   2.3842   2.5111   2.9451   2.9525   4.1400
     4.1669   4.8730   4.8828   5.4127   6.8186   6.9922   7.0820   7.3207

     occupation numbers 
     1.0000   1.0000   1.0000   1.0000   1.0000   1.0000   1.0000   1.0000
     1.0000   1.0000   1.0000   1.0000   1.0000   1.0000   1.0000   1.0000
     1.0000   1.0005   1.0007  -0.0348  -0.0000  -0.0000  -0.0000  -0.0000

          k = 0.2553 0.4254-0.5105 ( 14180 PWs)   bands (ev):

   -33.3210 -31.5048 -14.4983 -14.4963 -14.4829 -14.0323 -14.0316 -14.0279
    -6.0218  -5.8833  -5.8779   2.4123   2.4246   2.9033   2.9594   4.1548
     4.2136   4.8396   4.8902   5.4489   6.8306   6.9803   7.1551   7.3399

     occupation numbers 
     1.0000   1.0000   1.0000   1.0000   1.0000   1.0000   1.0000   1.0000
     1.0000   1.0000   1.0000   1.0000   1.0000   1.0000   1.0000   1.0000
     1.0000   1.0001   1.0009  -0.0249  -0.0000  -0.0000  -0.0000  -0.0000

          k = 0.2553-0.5105-0.5105 ( 14168 PWs)   bands (ev):

   -33.3210 -31.5048 -14.4982 -14.4982 -14.4828 -14.0321 -14.0321 -14.0278
    -6.0030  -5.8821  -5.8821   2.3806   2.3989   2.9149   2.9149   4.1972
     4.2260   4.8581   4.8581   5.4970   6.7868   6.9699   7.3276   7.3276

     occupation numbers 
     1.0000   1.0000   1.0000   1.0000   1.0000   1.0000   1.0000   1.0000
     1.0000   1.0000   1.0000   1.0000   1.0000   1.0000   1.0000   1.0000
     1.0000   1.0003   1.0003  -0.0104  -0.0000  -0.0000  -0.0000  -0.0000

          k = 0.3404 0.3404 0.3404 ( 14192 PWs)   bands (ev):

   -33.3210 -31.5048 -14.4911 -14.4906 -14.4906 -14.0303 -14.0302 -14.0302
    -6.0783  -5.8743  -5.8743   2.3483   2.8304   2.8807   2.8807   4.0795
     4.0795   5.0151   5.0151   5.3538   6.7581   6.8308   6.8308   7.5934

     occupation numbers 
     1.0000   1.0000   1.0000   1.0000   1.0000   1.0000   1.0000   1.0000
     1.0000   1.0000   1.0000   1.0000   1.0000   1.0000   1.0000   1.0000
     1.0000   1.0218   1.0218  -0.0042  -0.0000  -0.0000  -0.0000  -0.0000

          k = 0.3404 0.3404 0.4254 ( 14181 PWs)   bands (ev):

   -33.3210 -31.5048 -14.4961 -14.4908 -14.4903 -14.0318 -14.0302 -14.0300
    -6.0294  -5.8808  -5.8741   2.3475   2.6378   2.7853   2.8996   4.1048
     4.1757   5.0342   5.0623   5.4064   6.7946   6.8555   6.9481   7.3952

     occupation numbers 
     1.0000   1.0000   1.0000   1.0000   1.0000   1.0000   1.0000   1.0000
     1.0000   1.0000   1.0000   1.0000   1.0000   1.0000   1.0000   1.0000
     1.0000   1.0282   1.0350  -0.0354  -0.0000  -0.0000  -0.0000  -0.0000

          k = 0.3404 0.3404-0.5105 ( 14176 PWs)   bands (ev):

   -33.3210 -31.5048 -14.4981 -14.4908 -14.4901 -14.0323 -14.0302 -14.0299
    -6.0098  -5.8848  -5.8740   2.3673   2.5446   2.7530   2.9120   4.1137
     4.2132   5.0337   5.0794   5.4156   6.8575   6.8623   7.1340   7.1864

     occupation numbers 
     1.0000   1.0000   1.0000   1.0000   1.0000   1.0000   1.0000   1.0000
     1.0000   1.0000   1.0000   1.0000   1.0000   1.0000   1.0000   1.0000
     1.0000   1.0281   1.0346  -0.0343  -0.0000  -0.0000  -0.0000  -0.0000

          k = 0.3404 0.4254 0.4254 ( 14188 PWs)   bands (ev):

   -33.3210 -31.5048 -14.4959 -14.4958 -14.4902 -14.0316 -14.0316 -14.0300
    -5.9822  -5.8807  -5.8787   2.2941   2.5604   2.7774   2.7865   4.1732
     4.1866   5.1384   5.1461   5.4959   6.7544   6.9238   6.9261   7.2257

     occupation numbers 
     1.0000   1.0000   1.0000   1.0000   1.0000   1.0000   1.0000   1.0000
     1.0000   1.0000   1.0000   1.0000   1.0000   1.0000   1.0000   1.0000
     1.0000   0.9671   0.9470  -0.0107  -0.0000  -0.0000  -0.0000  -0.0000

          k = 0.3404 0.4254-0.5105 ( 14188 PWs)   bands (ev):

   -33.3210 -31.5048 -14.4978 -14.4958 -14.4901 -14.0322 -14.0315 -14.0300
    -5.9631  -5.8835  -5.8793   2.2747   2.5193   2.7424   2.7957   4.1826
     4.2064   5.1707   5.1768   5.5256   6.7600   6.9196   7.0699   7.0743

     occupation numbers 
     1.0000   1.0000   1.0000   1.0000   1.0000   1.0000   1.0000   1.0000
     1.0000   1.0000   1.0000   1.0000   1.0000   1.0000   1.0000   1.0000
     1.0000   0.8612   0.8348  -0.0052  -0.0000  -0.0000  -0.0000  -0.0000

          k = 0.3404-0.5105-0.5105 ( 14188 PWs)   bands (ev):

   -33.3210 -31.5048 -14.4977 -14.4977 -14.4900 -14.0321 -14.0321 -14.0299
    -5.9441  -5.8830  -5.8830   2.2406   2.4971   2.7554   2.7554   4.2026
     4.2097   5.2138   5.2138   5.5691   6.7157   7.0163   7.0340   7.0340

     occupation numbers 
     1.0000   1.0000   1.0000   1.0000   1.0000   1.0000   1.0000   1.0000
     1.0000   1.0000   1.0000   1.0000   1.0000   1.0000   1.0000   1.0000
     1.0000   0.6396   0.6396  -0.0015  -0.0000  -0.0000  -0.0000  -0.0000

          k = 0.4254 0.4254 0.4254 ( 14172 PWs)   bands (ev):

   -33.3210 -31.5048 -14.4957 -14.4954 -14.4954 -14.0316 -14.0316 -14.0315
    -5.9368  -5.8812  -5.8812   2.1998   2.6054   2.6892   2.6892   4.1970
     4.1970   5.3409   5.3409   5.5685   6.6998   6.8492   6.8492   7.1781

     occupation numbers 
     1.0000   1.0000   1.0000   1.0000   1.0000   1.0000   1.0000   1.0000
     1.0000   1.0000   1.0000   1.0000   1.0000   1.0000   1.0000   1.0000
     1.0000   0.0189   0.0189  -0.0015  -0.0000  -0.0000  -0.0000  -0.0000

          k = 0.4254 0.4254-0.5105 ( 14182 PWs)   bands (ev):

   -33.3209 -31.5047 -14.4975 -14.4955 -14.4953 -14.0321 -14.0315 -14.0315
    -5.9184  -5.8836  -5.8813   2.1638   2.5913   2.6564   2.6926   4.2004
     4.2061   5.4142   5.4206   5.5954   6.6954   6.8057   6.8477   7.0759

     occupation numbers 
     1.0000   1.0000   1.0000   1.0000   1.0000   1.0000   1.0000   1.0000
     1.0000   1.0000   1.0000   1.0000   1.0000   1.0000   1.0000   1.0000
     1.0000  -0.0346  -0.0333  -0.0006  -0.0000  -0.0000  -0.0000  -0.0000

          k = 0.4254-0.5105-0.5105 ( 14200 PWs)   bands (ev):

   -33.3209 -31.5047 -14.4974 -14.4974 -14.4953 -14.0321 -14.0321 -14.0315
    -5.9002  -5.8837  -5.8837   2.1229   2.5893   2.6576   2.6576   4.2065
     4.2072   5.5150   5.5150   5.6289   6.6583   6.7644   6.7644   7.0969

     occupation numbers 
     1.0000   1.0000   1.0000   1.0000   1.0000   1.0000   1.0000   1.0000
     1.0000   1.0000   1.0000   1.0000   1.0000   1.0000   1.0000   1.0000
     1.0000  -0.0069  -0.0069  -0.0002  -0.0000  -0.0000  -0.0000  -0.0000

          k =-0.5105-0.5105-0.5105 ( 14328 PWs)   bands (ev):

   -33.3209 -31.5047 -14.4972 -14.4972 -14.4972 -14.0321 -14.0321 -14.0321
    -5.8839  -5.8839  -5.8839   2.0796   2.6247   2.6247   2.6247   4.2080
     4.2080   5.6528   5.6528   5.6528   6.6363   6.6363   6.6363   7.1443

     occupation numbers 
     1.0000   1.0000   1.0000   1.0000   1.0000   1.0000   1.0000   1.0000
     1.0000   1.0000   1.0000   1.0000   1.0000   1.0000   1.0000   1.0000
     1.0000  -0.0001  -0.0001  -0.0001  -0.0000  -0.0000  -0.0000  -0.0000

     the Fermi energy is     5.2366 ev

!    total energy              =   -1173.57984916 Ry
     total all-electron energy =    -33662.960961 Ry
     estimated scf accuracy    <          2.7E-13 Ry
     smearing contrib. (-TS)   =      -0.00002710 Ry
     internal energy E=F+TS    =   -1173.57982206 Ry

     The total energy is F=E-TS. E is the sum of the following terms:
     one-electron contribution =     -49.71520098 Ry
     hartree contribution      =      39.88554632 Ry
     xc contribution           =    -104.32263230 Ry
     ewald contribution        =    -145.33872653 Ry
     one-center paw contrib.   =    -914.08880857 Ry
      -> PAW hartree energy AE =      47.40980744 Ry
      -> PAW hartree energy PS =     -47.18801527 Ry
      -> PAW xc energy AE      =     -71.49163876 Ry
      -> PAW xc energy PS      =      11.28380271 Ry
      -> total E_H with PAW    =      40.10733848 Ry
      -> total E_XC with PAW   =    -164.53046835 Ry

     convergence has been achieved in  18 iterations

     Forces acting on atoms (cartesian axes, Ry/au):

     atom    1 type  1   force =     0.00000000    0.00000000    0.00000000
     atom    2 type  2   force =     0.00000000    0.00000000    0.00000000
     atom    3 type  3   force =     0.00000000    0.00000000    0.00000000
     atom    4 type  3   force =     0.00000000    0.00000000    0.00000000
     atom    5 type  3   force =     0.00000000    0.00000000    0.00000000
     The non-local contrib.  to forces
     atom    1 type  1   force =     0.00000000    0.00000000    0.00000000
     atom    2 type  2   force =     0.00000000    0.00000000    0.00000000
     atom    3 type  3   force =     0.00000000    0.00000000    0.00000000
     atom    4 type  3   force =     0.00000000    0.00000000    0.00000000
     atom    5 type  3   force =     0.00000000    0.00000000    0.00000000
     The ionic contribution  to forces
     atom    1 type  1   force =    -0.00000000   -0.00000000   -0.00000000
     atom    2 type  2   force =    -0.00000000   -0.00000000   -0.00000000
     atom    3 type  3   force =     0.00000000   -0.00000000   -0.00000000
     atom    4 type  3   force =    -0.00000000    0.00000000   -0.00000000
     atom    5 type  3   force =    -0.00000000   -0.00000000    0.00000000
     The local contribution  to forces
     atom    1 type  1   force =     0.00000000    0.00000000    0.00000000
     atom    2 type  2   force =     0.00000000    0.00000000    0.00000000
     atom    3 type  3   force =    -0.00000000   -0.00000000    0.00000000
     atom    4 type  3   force =     0.00000000   -0.00000000    0.00000000
     atom    5 type  3   force =     0.00000000    0.00000000   -0.00000000
     The core correction contribution to forces
     atom    1 type  1   force =     0.00000000    0.00000000    0.00000000
     atom    2 type  2   force =     0.00000000    0.00000000    0.00000000
     atom    3 type  3   force =    -0.00000000    0.00000000    0.00000000
     atom    4 type  3   force =     0.00000000   -0.00000000    0.00000000
     atom    5 type  3   force =    -0.00000000    0.00000000   -0.00000000
     The Hubbard contrib.    to forces
     atom    1 type  1   force =     0.00000000    0.00000000    0.00000000
     atom    2 type  2   force =     0.00000000    0.00000000    0.00000000
     atom    3 type  3   force =     0.00000000    0.00000000    0.00000000
     atom    4 type  3   force =     0.00000000    0.00000000    0.00000000
     atom    5 type  3   force =     0.00000000    0.00000000    0.00000000
     The SCF correction term to forces
     atom    1 type  1   force =     0.00000000   -0.00000000    0.00000000
     atom    2 type  2   force =    -0.00000000   -0.00000000   -0.00000000
     atom    3 type  3   force =    -0.00000000   -0.00000000    0.00000000
     atom    4 type  3   force =    -0.00000000    0.00000000    0.00000000
     atom    5 type  3   force =     0.00000000   -0.00000000    0.00000000

     Total force =     0.000000     Total SCF correction =     0.000000


     Computing stress (Cartesian axis) and pressure

          total   stress  (Ry/bohr**3)                   (kbar)     P=      -32.97
  -0.00022410   0.00000000   0.00000000          -32.97        0.00        0.00
   0.00000000  -0.00022410   0.00000000            0.00      -32.97        0.00
   0.00000000   0.00000000  -0.00022410            0.00        0.00      -32.97

     kinetic stress (kbar)   6422.26      0.00      0.00
                                0.00   6422.26      0.00
                                0.00      0.00   6422.26

     local   stress (kbar)  -2140.38      0.00     -0.00
                                0.00  -2140.38      0.00
                               -0.00      0.00  -2140.38

     nonloc. stress (kbar)   2191.92      0.00      0.00
                                0.00   2191.92      0.00
                                0.00      0.00   2191.92

     hartree stress (kbar)   1775.74      0.00     -0.00
                                0.00   1775.74     -0.00
                               -0.00     -0.00   1775.74

     exc-cor stress (kbar)   7816.90     -0.00     -0.00
                               -0.00   7816.90      0.00
                               -0.00      0.00   7816.90

     corecor stress (kbar)  -9628.79      0.00     -0.00
                                0.00  -9628.79     -0.00
                               -0.00     -0.00  -9628.79

     ewald   stress (kbar)  -6470.62     -0.00     -0.00
                               -0.00  -6470.62     -0.00
                               -0.00     -0.00  -6470.62

     hubbard stress (kbar)      0.00      0.00      0.00
                                0.00      0.00      0.00
                                0.00      0.00      0.00

     DFT-D   stress (kbar)      0.00      0.00      0.00
                                0.00      0.00      0.00
                                0.00      0.00      0.00

     XDM     stress (kbar)      0.00      0.00      0.00
                                0.00      0.00      0.00
                                0.00      0.00      0.00

     dft-nl  stress (kbar)      0.00      0.00      0.00
                                0.00      0.00      0.00
                                0.00      0.00      0.00

     TS-vdW  stress (kbar)      0.00      0.00      0.00
                                0.00      0.00      0.00
                                0.00      0.00      0.00

     MDB     stress (kbar)      0.00      0.00      0.00
                                0.00      0.00      0.00
                                0.00      0.00      0.00

     3D-RISM stress (kbar)      0.00      0.00      0.00
                                0.00      0.00      0.00
                                0.00      0.00      0.00

     Energy error            =      1.1E-02 Ry
     Gradient error          =      0.0E+00 Ry/Bohr
     Cell gradient error     =      3.3E+01 kbar

     number of scf cycles    =   3
     number of bfgs steps    =   2

     enthalpy           old  =   -1173.5688856470 Ry
     enthalpy           new  =   -1173.5798491634 Ry

     CASE: enthalpy          _new < enthalpy          _old

     new trust radius        =       0.1258215801 bohr
     new conv_thr            =            1.0E-12 Ry

     new unit-cell volume =   1039.93728 a.u.^3 (   154.10281 Ang^3 )
     density =      4.49419 g/cm^3

CELL_PARAMETERS (angstrom)
   5.361300892   0.000000000   0.000000000
   0.000000000   5.361300892   0.000000000
   0.000000000   0.000000000   5.361300892

ATOMIC_POSITIONS (crystal)
Ca               0.0000000000        0.0000000000        0.0000000000
Ce               0.5000000000        0.5000000000        0.5000000000
Se               0.5000000000        0.0000000000        0.0000000000
Se               0.0000000000        0.5000000000        0.0000000000
Se               0.0000000000        0.0000000000        0.5000000000



     Writing config-only to output data dir ./tmp/caces3.save/ :
     XML data file
     NEW-OLD atomic charge density approx. for the potential

     total cpu time spent up to now is    10235.9 secs

     Self-consistent Calculation

     iteration #  1     ecut=    80.00 Ry     beta= 0.30
     Davidson diagonalization with overlap

---- Real-time Memory Report at c_bands before calling an iterative solver
           267 MiB given to the printing process from OS
             0 MiB allocation reported by mallinfo(arena+hblkhd)
         51467 MiB available memory on the node where the printing process lives
------------------
     ethr =  1.00E-06,  avg # of iterations = 10.8

     total cpu time spent up to now is    10671.1 secs

     total energy              =   -1173.59054238 Ry
     estimated scf accuracy    <       0.00111551 Ry

     iteration #  2     ecut=    80.00 Ry     beta= 0.30
     Davidson diagonalization with overlap

---- Real-time Memory Report at c_bands before calling an iterative solver
           267 MiB given to the printing process from OS
             0 MiB allocation reported by mallinfo(arena+hblkhd)
         51047 MiB available memory on the node where the printing process lives
------------------
     ethr =  2.86E-06,  avg # of iterations =  2.1

     total cpu time spent up to now is    10783.7 secs

     total energy              =   -1173.59020729 Ry
     estimated scf accuracy    <       0.00009364 Ry

     iteration #  3     ecut=    80.00 Ry     beta= 0.30
     Davidson diagonalization with overlap

---- Real-time Memory Report at c_bands before calling an iterative solver
           267 MiB given to the printing process from OS
             0 MiB allocation reported by mallinfo(arena+hblkhd)
         51112 MiB available memory on the node where the printing process lives
------------------
     ethr =  2.40E-07,  avg # of iterations =  5.4

     total cpu time spent up to now is    11013.5 secs

     total energy              =   -1173.58995865 Ry
     estimated scf accuracy    <       0.00003350 Ry

     iteration #  4     ecut=    80.00 Ry     beta= 0.30
     Davidson diagonalization with overlap

---- Real-time Memory Report at c_bands before calling an iterative solver
           267 MiB given to the printing process from OS
             0 MiB allocation reported by mallinfo(arena+hblkhd)
         51278 MiB available memory on the node where the printing process lives
------------------
     ethr =  8.59E-08,  avg # of iterations =  2.9

     total cpu time spent up to now is    11161.1 secs

     total energy              =   -1173.58985846 Ry
     estimated scf accuracy    <       0.00000807 Ry

     iteration #  5     ecut=    80.00 Ry     beta= 0.30
     Davidson diagonalization with overlap

---- Real-time Memory Report at c_bands before calling an iterative solver
           267 MiB given to the printing process from OS
             0 MiB allocation reported by mallinfo(arena+hblkhd)
         51075 MiB available memory on the node where the printing process lives
------------------
     ethr =  2.07E-08,  avg # of iterations =  5.0

     total cpu time spent up to now is    11376.2 secs

     total energy              =   -1173.58985579 Ry
     estimated scf accuracy    <       0.00000305 Ry

     iteration #  6     ecut=    80.00 Ry     beta= 0.30
     Davidson diagonalization with overlap

---- Real-time Memory Report at c_bands before calling an iterative solver
           267 MiB given to the printing process from OS
             0 MiB allocation reported by mallinfo(arena+hblkhd)
         50875 MiB available memory on the node where the printing process lives
------------------
     ethr =  7.82E-09,  avg # of iterations =  2.8

     total cpu time spent up to now is    11516.9 secs

     total energy              =   -1173.58985319 Ry
     estimated scf accuracy    <       0.00000146 Ry

     iteration #  7     ecut=    80.00 Ry     beta= 0.30
     Davidson diagonalization with overlap

---- Real-time Memory Report at c_bands before calling an iterative solver
           267 MiB given to the printing process from OS
             0 MiB allocation reported by mallinfo(arena+hblkhd)
         51116 MiB available memory on the node where the printing process lives
------------------
     ethr =  3.75E-09,  avg # of iterations =  5.6

     total cpu time spent up to now is    11759.5 secs

     total energy              =   -1173.58985392 Ry
     estimated scf accuracy    <       0.00000349 Ry

     iteration #  8     ecut=    80.00 Ry     beta= 0.30
     Davidson diagonalization with overlap

---- Real-time Memory Report at c_bands before calling an iterative solver
           267 MiB given to the printing process from OS
             0 MiB allocation reported by mallinfo(arena+hblkhd)
         51343 MiB available memory on the node where the printing process lives
------------------
     ethr =  3.75E-09,  avg # of iterations =  2.1

     total cpu time spent up to now is    11868.3 secs

     total energy              =   -1173.58985412 Ry
     estimated scf accuracy    <       0.00000046 Ry

     iteration #  9     ecut=    80.00 Ry     beta= 0.30
     Davidson diagonalization with overlap

---- Real-time Memory Report at c_bands before calling an iterative solver
           267 MiB given to the printing process from OS
             0 MiB allocation reported by mallinfo(arena+hblkhd)
         51146 MiB available memory on the node where the printing process lives
------------------
     ethr =  1.18E-09,  avg # of iterations =  5.4

     total cpu time spent up to now is    12099.9 secs

     total energy              =   -1173.58985435 Ry
     estimated scf accuracy    <          7.9E-09 Ry

     iteration # 10     ecut=    80.00 Ry     beta= 0.30
     Davidson diagonalization with overlap

---- Real-time Memory Report at c_bands before calling an iterative solver
           267 MiB given to the printing process from OS
             0 MiB allocation reported by mallinfo(arena+hblkhd)
         50965 MiB available memory on the node where the printing process lives
------------------
     ethr =  2.03E-11,  avg # of iterations =  7.3

     total cpu time spent up to now is    12393.2 secs

     total energy              =   -1173.58985439 Ry
     estimated scf accuracy    <          7.6E-09 Ry

     iteration # 11     ecut=    80.00 Ry     beta= 0.30
     Davidson diagonalization with overlap

---- Real-time Memory Report at c_bands before calling an iterative solver
           267 MiB given to the printing process from OS
             0 MiB allocation reported by mallinfo(arena+hblkhd)
         51102 MiB available memory on the node where the printing process lives
------------------
     ethr =  1.95E-11,  avg # of iterations =  2.0

     total cpu time spent up to now is    12501.2 secs

     total energy              =   -1173.58985440 Ry
     estimated scf accuracy    <       0.00000001 Ry

     iteration # 12     ecut=    80.00 Ry     beta= 0.30
     Davidson diagonalization with overlap

---- Real-time Memory Report at c_bands before calling an iterative solver
           267 MiB given to the printing process from OS
             0 MiB allocation reported by mallinfo(arena+hblkhd)
         51148 MiB available memory on the node where the printing process lives
------------------
     ethr =  1.95E-11,  avg # of iterations =  2.6

     total cpu time spent up to now is    12638.3 secs

     total energy              =   -1173.58985441 Ry
     estimated scf accuracy    <          1.1E-10 Ry

     iteration # 13     ecut=    80.00 Ry     beta= 0.30
     Davidson diagonalization with overlap

---- Real-time Memory Report at c_bands before calling an iterative solver
           267 MiB given to the printing process from OS
             0 MiB allocation reported by mallinfo(arena+hblkhd)
         51278 MiB available memory on the node where the printing process lives
------------------
     ethr =  2.77E-13,  avg # of iterations =  7.2

     total cpu time spent up to now is    12939.6 secs

     total energy              =   -1173.58985441 Ry
     estimated scf accuracy    <          2.7E-10 Ry

     iteration # 14     ecut=    80.00 Ry     beta= 0.30
     Davidson diagonalization with overlap

---- Real-time Memory Report at c_bands before calling an iterative solver
           267 MiB given to the printing process from OS
             0 MiB allocation reported by mallinfo(arena+hblkhd)
         51358 MiB available memory on the node where the printing process lives
------------------
     ethr =  2.77E-13,  avg # of iterations =  3.0

     total cpu time spent up to now is    13086.6 secs

     total energy              =   -1173.58985441 Ry
     estimated scf accuracy    <          1.9E-11 Ry

     iteration # 15     ecut=    80.00 Ry     beta= 0.30
     Davidson diagonalization with overlap

---- Real-time Memory Report at c_bands before calling an iterative solver
           267 MiB given to the printing process from OS
             0 MiB allocation reported by mallinfo(arena+hblkhd)
         51142 MiB available memory on the node where the printing process lives
------------------
     ethr =  1.00E-13,  avg # of iterations =  5.6

     total cpu time spent up to now is    13324.8 secs

     total energy              =   -1173.58985442 Ry
     estimated scf accuracy    <          3.4E-11 Ry

     iteration # 16     ecut=    80.00 Ry     beta= 0.30
     Davidson diagonalization with overlap

---- Real-time Memory Report at c_bands before calling an iterative solver
           267 MiB given to the printing process from OS
             0 MiB allocation reported by mallinfo(arena+hblkhd)
         51052 MiB available memory on the node where the printing process lives
------------------
     ethr =  1.00E-13,  avg # of iterations =  1.6

     total cpu time spent up to now is    13420.5 secs

     total energy              =   -1173.58985442 Ry
     estimated scf accuracy    <          1.2E-12 Ry

     iteration # 17     ecut=    80.00 Ry     beta= 0.30
     Davidson diagonalization with overlap

---- Real-time Memory Report at c_bands before calling an iterative solver
           267 MiB given to the printing process from OS
             0 MiB allocation reported by mallinfo(arena+hblkhd)
         51083 MiB available memory on the node where the printing process lives
------------------
     ethr =  1.00E-13,  avg # of iterations =  1.5

     total cpu time spent up to now is    13515.3 secs

     total energy              =   -1173.58985442 Ry
     estimated scf accuracy    <          1.5E-12 Ry

     iteration # 18     ecut=    80.00 Ry     beta= 0.30
     Davidson diagonalization with overlap

---- Real-time Memory Report at c_bands before calling an iterative solver
           267 MiB given to the printing process from OS
             0 MiB allocation reported by mallinfo(arena+hblkhd)
         51168 MiB available memory on the node where the printing process lives
------------------
     ethr =  1.00E-13,  avg # of iterations =  1.1

     total cpu time spent up to now is    13596.8 secs

     End of self-consistent calculation

          k = 0.0000 0.0000 0.0000 ( 14147 PWs)   bands (ev):

   -32.5825 -30.7630 -13.7724 -13.7724 -13.7724 -13.2915 -13.2915 -13.2915
    -6.2275  -5.3593  -5.3593   3.5025   3.5025   3.5025   5.1485   5.1485
     5.1485   6.1895   6.1895   6.1895   6.7444   6.7444   7.0938   7.3194

     occupation numbers 
     1.0000   1.0000   1.0000   1.0000   1.0000   1.0000   1.0000   1.0000
     1.0000   1.0000   1.0000   1.0000   1.0000   1.0000   1.0000   1.0000
     1.0000  -0.0006  -0.0006  -0.0006  -0.0000  -0.0000  -0.0000  -0.0000

          k = 0.0000 0.0000 0.0867 ( 14114 PWs)   bands (ev):

   -32.5825 -30.7630 -13.7750 -13.7722 -13.7722 -13.2925 -13.2915 -13.2915
    -6.2090  -5.3599  -5.3579   3.4792   3.5092   3.5092   5.0391   5.0790
     5.0790   5.9810   6.1553   6.1553   6.7869   6.8929   7.1049   7.2095

     occupation numbers 
     1.0000   1.0000   1.0000   1.0000   1.0000   1.0000   1.0000   1.0000
     1.0000   1.0000   1.0000   1.0000   1.0000   1.0000   1.0000   1.0000
     1.0000  -0.0338  -0.0017  -0.0017  -0.0000  -0.0000  -0.0000  -0.0000

          k = 0.0000 0.0000 0.1735 ( 14106 PWs)   bands (ev):

   -32.5824 -30.7629 -13.7823 -13.7720 -13.7720 -13.2954 -13.2914 -13.2914
    -6.1571  -5.3630  -5.3542   3.4275   3.5290   3.5290   4.8032   4.9127
     4.9127   5.5324   6.0710   6.0710   6.9053   7.1361   7.2388   7.5023

     occupation numbers 
     1.0000   1.0000   1.0000   1.0000   1.0000   1.0000   1.0000   1.0000
     1.0000   1.0000   1.0000   1.0000   1.0000   1.0000   1.0000   1.0000
     1.0000   1.0044  -0.0149  -0.0149  -0.0000  -0.0000  -0.0000  -0.0000

          k = 0.0000 0.0000 0.2602 ( 14138 PWs)   bands (ev):

   -32.5824 -30.7629 -13.7921 -13.7716 -13.7716 -13.2993 -13.2913 -13.2913
    -6.0820  -5.3708  -5.3490   3.3890   3.5596   3.5596   4.5584   4.7202
     4.7202   5.0188   5.9680   5.9680   7.0821   7.1808   7.6420   7.8793

     occupation numbers 
     1.0000   1.0000   1.0000   1.0000   1.0000   1.0000   1.0000   1.0000
     1.0000   1.0000   1.0000   1.0000   1.0000   1.0000   1.0000   1.0000
     1.0000   1.0000  -0.0281  -0.0281  -0.0000  -0.0000  -0.0000  -0.0000

          k = 0.0000 0.0000 0.3469 ( 14158 PWs)   bands (ev):

   -32.5823 -30.7628 -13.8019 -13.7712 -13.7712 -13.3032 -13.2912 -13.2912
    -6.0005  -5.3845  -5.3439   3.4059   3.5963   3.5963   4.3609   4.5263
     4.5493   4.5493   5.8739   5.8739   7.2283   7.2832   8.0087   8.2585

     occupation numbers 
     1.0000   1.0000   1.0000   1.0000   1.0000   1.0000   1.0000   1.0000
     1.0000   1.0000   1.0000   1.0000   1.0000   1.0000   1.0000   1.0000
     1.0000   1.0000   0.2299   0.2299  -0.0000  -0.0000  -0.0000  -0.0000

          k = 0.0000 0.0000 0.4337 ( 14170 PWs)   bands (ev):

   -32.5823 -30.7628 -13.8091 -13.7709 -13.7709 -13.3061 -13.2911 -13.2911
    -5.9349  -5.4002  -5.3401   3.5041   3.6289   3.6289   4.1115   4.2353
     4.4305   4.4305   5.8093   5.8093   7.2651   7.4517   8.2661   8.5528

     occupation numbers 
     1.0000   1.0000   1.0000   1.0000   1.0000   1.0000   1.0000   1.0000
     1.0000   1.0000   1.0000   1.0000   1.0000   1.0000   1.0000   1.0000
     1.0000   1.0000   0.6131   0.6131  -0.0000  -0.0000  -0.0000  -0.0000

          k = 0.0000 0.0000-0.5204 ( 14190 PWs)   bands (ev):

   -32.5823 -30.7628 -13.8117 -13.7708 -13.7708 -13.3071 -13.2910 -13.2910
    -5.9091  -5.4077  -5.3387   3.6240   3.6426   3.6426   3.8810   4.1924
     4.3873   4.3873   5.7864   5.7864   7.2790   7.5193   8.3591   8.6670

     occupation numbers 
     1.0000   1.0000   1.0000   1.0000   1.0000   1.0000   1.0000   1.0000
     1.0000   1.0000   1.0000   1.0000   1.0000   1.0000   1.0000   1.0000
     1.0000   1.0000   0.7440   0.7440  -0.0000  -0.0000  -0.0000  -0.0000

          k = 0.0000 0.0867 0.0867 ( 14125 PWs)   bands (ev):

   -32.5825 -30.7630 -13.7751 -13.7748 -13.7721 -13.2928 -13.2922 -13.2914
    -6.1906  -5.3594  -5.3577   3.4129   3.5164   3.5624   4.8552   5.0150
     5.1243   5.8385   6.1013   6.1185   6.8814   6.8976   7.1736   7.2621

     occupation numbers 
     1.0000   1.0000   1.0000   1.0000   1.0000   1.0000   1.0000   1.0000
     1.0000   1.0000   1.0000   1.0000   1.0000   1.0000   1.0000   1.0000
     1.0000   0.4324  -0.0077  -0.0050  -0.0000  -0.0000  -0.0000  -0.0000

          k = 0.0000 0.0867 0.1735 ( 14150 PWs)   bands (ev):

   -32.5824 -30.7629 -13.7822 -13.7747 -13.7719 -13.2954 -13.2922 -13.2913
    -6.1389  -5.3617  -5.3545   3.3342   3.5374   3.6159   4.5953   4.8597
     5.0378   5.4689   6.0051   6.0279   6.9639   7.1603   7.2234   7.5245

     occupation numbers 
     1.0000   1.0000   1.0000   1.0000   1.0000   1.0000   1.0000   1.0000
     1.0000   1.0000   1.0000   1.0000   1.0000   1.0000   1.0000   1.0000
     1.0000   1.0006  -0.0346  -0.0289  -0.0000  -0.0000  -0.0000  -0.0000

          k = 0.0000 0.0867 0.2602 ( 14161 PWs)   bands (ev):

   -32.5824 -30.7629 -13.7921 -13.7743 -13.7715 -13.2992 -13.2921 -13.2912
    -6.0643  -5.3690  -5.3497   3.2833   3.5699   3.6623   4.3425   4.6768
     4.8313   5.0699   5.8942   5.9179   7.1192   7.2674   7.5232   7.8899

     occupation numbers 
     1.0000   1.0000   1.0000   1.0000   1.0000   1.0000   1.0000   1.0000
     1.0000   1.0000   1.0000   1.0000   1.0000   1.0000   1.0000   1.0000
     1.0000   1.0000   0.1358   0.0535  -0.0000  -0.0000  -0.0000  -0.0000

          k = 0.0000 0.0867 0.3469 ( 14170 PWs)   bands (ev):

   -32.5823 -30.7628 -13.8020 -13.7740 -13.7711 -13.3030 -13.2919 -13.2911
    -5.9834  -5.3820  -5.3447   3.2910   3.6088   3.6990   4.1280   4.4808
     4.5123   4.8422   5.7941   5.8178   7.3118   7.3126   7.8937   8.2724

     occupation numbers 
     1.0000   1.0000   1.0000   1.0000   1.0000   1.0000   1.0000   1.0000
     1.0000   1.0000   1.0000   1.0000   1.0000   1.0000   1.0000   1.0000
     1.0000   1.0000   0.7017   0.5613  -0.0000  -0.0000  -0.0000  -0.0000

          k = 0.0000 0.0867 0.4337 ( 14152 PWs)   bands (ev):

   -32.5823 -30.7628 -13.8091 -13.7738 -13.7708 -13.3057 -13.2918 -13.2910
    -5.9183  -5.3971  -5.3411   3.3768   3.6436   3.6888   3.9738   4.1771
     4.3968   4.7284   5.7252   5.7490   7.3458   7.4801   8.1950   8.4706

     occupation numbers 
     1.0000   1.0000   1.0000   1.0000   1.0000   1.0000   1.0000   1.0000
     1.0000   1.0000   1.0000   1.0000   1.0000   1.0000   1.0000   1.0000
     1.0000   1.0000   0.9769   0.9099  -0.0000  -0.0000  -0.0000  -0.0000

          k = 0.0000 0.0867-0.5204 ( 14170 PWs)   bands (ev):

   -32.5823 -30.7628 -13.8118 -13.7737 -13.7707 -13.3067 -13.2917 -13.2910
    -5.8927  -5.4044  -5.3398   3.5000   3.5849   3.6583   3.9363   4.0608
     4.3544   4.6904   5.7008   5.7246   7.3586   7.5482   8.3244   8.5276

     occupation numbers 
     1.0000   1.0000   1.0000   1.0000   1.0000   1.0000   1.0000   1.0000
     1.0000   1.0000   1.0000   1.0000   1.0000   1.0000   1.0000   1.0000
     1.0000   1.0000   1.0166   0.9782  -0.0000  -0.0000  -0.0000  -0.0000

          k = 0.0000 0.1735 0.1735 ( 14135 PWs)   bands (ev):

   -32.5824 -30.7629 -13.7825 -13.7817 -13.7716 -13.2959 -13.2940 -13.2912
    -6.0881  -5.3595  -5.3554   3.2178   3.5619   3.7209   4.3171   4.7274
     5.1005   5.2328   5.8893   5.9212   7.0693   7.2169   7.3955   7.6389

     occupation numbers 
     1.0000   1.0000   1.0000   1.0000   1.0000   1.0000   1.0000   1.0000
     1.0000   1.0000   1.0000   1.0000   1.0000   1.0000   1.0000   1.0000
     1.0000   1.0000   0.1565   0.0445  -0.0000  -0.0000  -0.0000  -0.0000

          k = 0.0000 0.1735 0.2602 ( 14144 PWs)   bands (ev):

   -32.5823 -30.7628 -13.7921 -13.7819 -13.7713 -13.2988 -13.2942 -13.2911
    -6.0150  -5.3642  -5.3520   3.1369   3.5999   3.8025   4.0562   4.5666
     4.8479   5.1250   5.7606   5.7911   7.1858   7.4754   7.4873   7.9287

     occupation numbers 
     1.0000   1.0000   1.0000   1.0000   1.0000   1.0000   1.0000   1.0000
     1.0000   1.0000   1.0000   1.0000   1.0000   1.0000   1.0000   1.0000
     1.0000   1.0000   0.8660   0.7182  -0.0000  -0.0000  -0.0000  -0.0000

          k = 0.0000 0.1735 0.3469 ( 14160 PWs)   bands (ev):

   -32.5823 -30.7628 -13.8021 -13.7817 -13.7709 -13.3022 -13.2940 -13.2909
    -5.9359  -5.3754  -5.3474   3.1150   3.6454   3.7759   3.9139   4.4180
     4.4890   5.1081   5.6275   5.6725   7.3679   7.5361   7.7704   8.2556

     occupation numbers 
     1.0000   1.0000   1.0000   1.0000   1.0000   1.0000   1.0000   1.0000
     1.0000   1.0000   1.0000   1.0000   1.0000   1.0000   1.0000   1.0000
     1.0000   1.0000   1.0289   1.0342  -0.0000  -0.0000  -0.0000  -0.0000

          k = 0.0000 0.1735 0.4337 ( 14172 PWs)   bands (ev):

   -32.5822 -30.7627 -13.8094 -13.7816 -13.7707 -13.3047 -13.2937 -13.2908
    -5.8725  -5.3888  -5.3440   3.1591   3.5851   3.6868   3.9627   4.2171
     4.3107   5.0998   5.5226   5.5908   7.5477   7.5671   8.0397   8.3341

     occupation numbers 
     1.0000   1.0000   1.0000   1.0000   1.0000   1.0000   1.0000   1.0000
     1.0000   1.0000   1.0000   1.0000   1.0000   1.0000   1.0000   1.0000
     1.0000   1.0000   1.0034   1.0168  -0.0000  -0.0000  -0.0000  -0.0000

          k = 0.0000 0.1735-0.5204 ( 14176 PWs)   bands (ev):

   -32.5822 -30.7627 -13.8120 -13.7815 -13.7706 -13.3056 -13.2936 -13.2907
    -5.8476  -5.3952  -5.3428   3.2135   3.4749   3.7046   4.0392   4.0668
     4.2704   5.0996   5.4813   5.5618   7.5782   7.6254   8.2386   8.2550

     occupation numbers 
     1.0000   1.0000   1.0000   1.0000   1.0000   1.0000   1.0000   1.0000
     1.0000   1.0000   1.0000   1.0000   1.0000   1.0000   1.0000   1.0000
     1.0000   1.0000   1.0009   1.0092  -0.0000  -0.0000  -0.0000  -0.0000

          k = 0.0000 0.2602 0.2602 ( 14143 PWs)   bands (ev):

   -32.5823 -30.7628 -13.7926 -13.7916 -13.7710 -13.2989 -13.2965 -13.2908
    -5.9443  -5.3593  -5.3562   3.0183   3.6462   3.7951   3.9220   4.4300
     4.7147   5.1169   5.6333   5.6742   7.2453   7.6283   7.7246   8.0428

     occupation numbers 
     1.0000   1.0000   1.0000   1.0000   1.0000   1.0000   1.0000   1.0000
     1.0000   1.0000   1.0000   1.0000   1.0000   1.0000   1.0000   1.0000
     1.0000   1.0000   1.0307   1.0338  -0.0000  -0.0000  -0.0000  -0.0000

          k = 0.0000 0.2602 0.3469 ( 14147 PWs)   bands (ev):

   -32.5822 -30.7627 -13.8023 -13.7921 -13.7707 -13.3012 -13.2967 -13.2906
    -5.8685  -5.3669  -5.3521   2.9469   3.5794   3.7022   4.0099   4.3010
     4.4815   5.1379   5.4866   5.5953   7.3790   7.8348   7.8391   8.2034

     occupation numbers 
     1.0000   1.0000   1.0000   1.0000   1.0000   1.0000   1.0000   1.0000
     1.0000   1.0000   1.0000   1.0000   1.0000   1.0000   1.0000   1.0000
     1.0000   1.0000   1.0011   1.0182  -0.0000  -0.0000  -0.0000  -0.0000

          k = 0.0000 0.2602 0.4337 ( 14151 PWs)   bands (ev):

   -32.5822 -30.7627 -13.8097 -13.7921 -13.7705 -13.3033 -13.2963 -13.2905
    -5.8083  -5.3775  -5.3484   2.9247   3.4207   3.7541   4.0775   4.2048
     4.2791   5.1811   5.3837   5.5109   7.5749   7.8797   7.9742   8.1933

     occupation numbers 
     1.0000   1.0000   1.0000   1.0000   1.0000   1.0000   1.0000   1.0000
     1.0000   1.0000   1.0000   1.0000   1.0000   1.0000   1.0000   1.0000
     1.0000   1.0000   1.0000   1.0024  -0.0000  -0.0000  -0.0000  -0.0000

          k = 0.0000 0.2602-0.5204 ( 14194 PWs)   bands (ev):

   -32.5822 -30.7627 -13.8123 -13.7921 -13.7704 -13.3041 -13.2962 -13.2904
    -5.7847  -5.3827  -5.3471   2.9260   3.3571   3.7774   4.1475   4.1577
     4.1671   5.2080   5.3467   5.4679   7.7013   7.8912   7.9913   8.1690

     occupation numbers 
     1.0000   1.0000   1.0000   1.0000   1.0000   1.0000   1.0000   1.0000
     1.0000   1.0000   1.0000   1.0000   1.0000   1.0000   1.0000   1.0000
     1.0000   1.0000   1.0000   1.0006  -0.0000  -0.0000  -0.0000  -0.0000

          k = 0.0000 0.3469 0.3469 ( 14163 PWs)   bands (ev):

   -32.5822 -30.7627 -13.8028 -13.8021 -13.7704 -13.3007 -13.2989 -13.2904
    -5.7973  -5.3596  -5.3585   2.8125   3.4054   3.7709   4.1136   4.1914
     4.4287   5.0260   5.3079   5.6800   7.4143   8.0076   8.1083   8.1146

     occupation numbers 
     1.0000   1.0000   1.0000   1.0000   1.0000   1.0000   1.0000   1.0000
     1.0000   1.0000   1.0000   1.0000   1.0000   1.0000   1.0000   1.0000
     1.0000   1.0000   1.0000   1.0318  -0.0000  -0.0000  -0.0000  -0.0000

          k = 0.0000 0.3469 0.4337 ( 14162 PWs)   bands (ev):

   -32.5821 -30.7626 -13.8100 -13.8026 -13.7702 -13.3020 -13.2989 -13.2902
    -5.7417  -5.3666  -5.3537   2.7287   3.2907   3.8361   4.1086   4.1926
     4.3419   4.9660   5.1779   5.7313   7.5349   7.9433   8.1619   8.2180

     occupation numbers 
     1.0000   1.0000   1.0000   1.0000   1.0000   1.0000   1.0000   1.0000
     1.0000   1.0000   1.0000   1.0000   1.0000   1.0000   1.0000   1.0000
     1.0000   1.0000   1.0000   0.9627  -0.0000  -0.0000  -0.0000  -0.0000

          k = 0.0000 0.3469-0.5204 ( 14124 PWs)   bands (ev):

   -32.5821 -30.7626 -13.8127 -13.8026 -13.7702 -13.3027 -13.2987 -13.2901
    -5.7203  -5.3701  -5.3518   2.7008   3.2497   3.8671   4.0739   4.2520
     4.2712   4.9518   5.1298   5.7455   7.6801   7.7856   8.2159   8.2350

     occupation numbers 
     1.0000   1.0000   1.0000   1.0000   1.0000   1.0000   1.0000   1.0000
     1.0000   1.0000   1.0000   1.0000   1.0000   1.0000   1.0000   1.0000
     1.0000   1.0000   1.0000   0.9218  -0.0000  -0.0000  -0.0000  -0.0000

          k = 0.0000 0.4337 0.4337 ( 14154 PWs)   bands (ev):

   -32.5821 -30.7626 -13.8103 -13.8100 -13.7701 -13.3012 -13.3007 -13.2899
    -5.6909  -5.3595  -5.3577   2.6026   3.2034   3.9132   4.0403   4.2878
     4.3773   4.8098   5.0207   5.8673   7.5392   7.7829   8.2717   8.4777

     occupation numbers 
     1.0000   1.0000   1.0000   1.0000   1.0000   1.0000   1.0000   1.0000
     1.0000   1.0000   1.0000   1.0000   1.0000   1.0000   1.0000   1.0000
     1.0000   1.0000   1.0000   0.2648  -0.0000  -0.0000  -0.0000  -0.0000

          k = 0.0000 0.4337-0.5204 ( 14156 PWs)   bands (ev):

   -32.5821 -30.7626 -13.8129 -13.8103 -13.7700 -13.3017 -13.3006 -13.2899
    -5.6718  -5.3608  -5.3558   2.5594   3.1720   3.9513   4.0109   4.3480
     4.3645   4.7557   4.9600   5.9107   7.6027   7.6566   8.3210   8.5235

     occupation numbers 
     1.0000   1.0000   1.0000   1.0000   1.0000   1.0000   1.0000   1.0000
     1.0000   1.0000   1.0000   1.0000   1.0000   1.0000   1.0000   1.0000
     1.0000   1.0000   1.0000   0.0754  -0.0000  -0.0000  -0.0000  -0.0000

          k = 0.0000-0.5204-0.5204 ( 14108 PWs)   bands (ev):

   -32.5821 -30.7625 -13.8130 -13.8130 -13.7700 -13.3013 -13.3013 -13.2898
    -5.6538  -5.3574  -5.3574   2.5113   3.1433   3.9888   3.9888   4.4009
     4.4009   4.6685   4.8927   5.9643   7.5667   7.6128   8.3679   8.6421

     occupation numbers 
     1.0000   1.0000   1.0000   1.0000   1.0000   1.0000   1.0000   1.0000
     1.0000   1.0000   1.0000   1.0000   1.0000   1.0000   1.0000   1.0000
     1.0000   1.0000   1.0000  -0.0256  -0.0000  -0.0000  -0.0000  -0.0000

          k = 0.0867 0.0867 0.0867 ( 14126 PWs)   bands (ev):

   -32.5824 -30.7630 -13.7750 -13.7750 -13.7746 -13.2930 -13.2921 -13.2921
    -6.1723  -5.3582  -5.3582   3.3506   3.5690   3.5690   4.8116   4.8116
     5.2094   5.6965   6.0769   6.0769   6.9101   6.9101   7.2120   7.4249

     occupation numbers 
     1.0000   1.0000   1.0000   1.0000   1.0000   1.0000   1.0000   1.0000
     1.0000   1.0000   1.0000   1.0000   1.0000   1.0000   1.0000   1.0000
     1.0000   1.0209  -0.0132  -0.0132  -0.0000  -0.0000  -0.0000  -0.0000

          k = 0.0867 0.0867 0.1735 ( 14146 PWs)   bands (ev):

   -32.5824 -30.7629 -13.7822 -13.7747 -13.7745 -13.2953 -13.2923 -13.2921
    -6.1209  -5.3606  -5.3548   3.2634   3.5884   3.6381   4.5350   4.6892
     5.1728   5.3678   5.9599   6.0052   6.9827   7.1055   7.2799   7.6084

     occupation numbers 
     1.0000   1.0000   1.0000   1.0000   1.0000   1.0000   1.0000   1.0000
     1.0000   1.0000   1.0000   1.0000   1.0000   1.0000   1.0000   1.0000
     1.0000   1.0000  -0.0220  -0.0346  -0.0000  -0.0000  -0.0000  -0.0000

          k = 0.0867 0.0867 0.2602 ( 14152 PWs)   bands (ev):

   -32.5824 -30.7629 -13.7921 -13.7743 -13.7742 -13.2990 -13.2921 -13.2920
    -6.0467  -5.3673  -5.3501   3.2074   3.6193   3.6921   4.2812   4.4986
     5.0010   5.0406   5.8146   5.9101   7.1239   7.3496   7.4471   7.8596

     occupation numbers 
     1.0000   1.0000   1.0000   1.0000   1.0000   1.0000   1.0000   1.0000
     1.0000   1.0000   1.0000   1.0000   1.0000   1.0000   1.0000   1.0000
     1.0000   1.0000   0.5810   0.0773  -0.0000  -0.0000  -0.0000  -0.0000

          k = 0.0867 0.0867 0.3469 ( 14161 PWs)   bands (ev):

   -32.5823 -30.7628 -13.8020 -13.7740 -13.7738 -13.3027 -13.2918 -13.2918
    -5.9663  -5.3797  -5.3455   3.2129   3.6593   3.7159   4.0775   4.2397
     4.7326   4.8978   5.6815   5.8218   7.2830   7.4336   7.8282   8.1354

     occupation numbers 
     1.0000   1.0000   1.0000   1.0000   1.0000   1.0000   1.0000   1.0000
     1.0000   1.0000   1.0000   1.0000   1.0000   1.0000   1.0000   1.0000
     1.0000   1.0000   1.0312   0.5361  -0.0000  -0.0000  -0.0000  -0.0000

          k = 0.0867 0.0867 0.4337 ( 14164 PWs)   bands (ev):

   -32.5823 -30.7628 -13.8092 -13.7739 -13.7735 -13.3054 -13.2918 -13.2916
    -5.9017  -5.3943  -5.3421   3.2987   3.6539   3.7038   3.9358   4.0157
     4.5979   4.7948   5.5885   5.7610   7.3724   7.5500   8.1506   8.3644

     occupation numbers 
     1.0000   1.0000   1.0000   1.0000   1.0000   1.0000   1.0000   1.0000
     1.0000   1.0000   1.0000   1.0000   1.0000   1.0000   1.0000   1.0000
     1.0000   1.0000   1.0161   0.8643  -0.0000  -0.0000  -0.0000  -0.0000

          k = 0.0867 0.0867-0.5204 ( 14174 PWs)   bands (ev):

   -32.5822 -30.7627 -13.8118 -13.7738 -13.7734 -13.3063 -13.2917 -13.2916
    -5.8762  -5.4013  -5.3408   3.4338   3.5033   3.7316   3.8761   3.9543
     4.5579   4.7576   5.5551   5.7395   7.3954   7.6098   8.2916   8.4571

     occupation numbers 
     1.0000   1.0000   1.0000   1.0000   1.0000   1.0000   1.0000   1.0000
     1.0000   1.0000   1.0000   1.0000   1.0000   1.0000   1.0000   1.0000
     1.0000   1.0000   1.0079   0.9404  -0.0000  -0.0000  -0.0000  -0.0000

          k = 0.0867 0.1735 0.1735 ( 14144 PWs)   bands (ev):

   -32.5824 -30.7629 -13.7824 -13.7817 -13.7744 -13.2958 -13.2940 -13.2920
    -6.0703  -5.3586  -5.3553   3.1559   3.6228   3.7218   4.3140   4.5548
     5.1109   5.2434   5.8743   5.9086   7.0753   7.1305   7.3761   7.8147

     occupation numbers 
     1.0000   1.0000   1.0000   1.0000   1.0000   1.0000   1.0000   1.0000
     1.0000   1.0000   1.0000   1.0000   1.0000   1.0000   1.0000   1.0000
     1.0000   1.0000   0.2280   0.0822  -0.0000  -0.0000  -0.0000  -0.0000

          k = 0.0867 0.1735 0.2602 ( 14146 PWs)   bands (ev):

   -32.5823 -30.7628 -13.7921 -13.7818 -13.7741 -13.2986 -13.2942 -13.2919
    -5.9974  -5.3631  -5.3521   3.0812   3.6470   3.7932   4.0718   4.4111
     4.8269   5.2068   5.7200   5.8076   7.1832   7.3730   7.4975   7.9817

     occupation numbers 
     1.0000   1.0000   1.0000   1.0000   1.0000   1.0000   1.0000   1.0000
     1.0000   1.0000   1.0000   1.0000   1.0000   1.0000   1.0000   1.0000
     1.0000   1.0000   0.9878   0.6229  -0.0000  -0.0000  -0.0000  -0.0000

          k = 0.0867 0.1735 0.3469 ( 14163 PWs)   bands (ev):

   -32.5823 -30.7628 -13.8021 -13.7816 -13.7737 -13.3019 -13.2939 -13.2916
    -5.9187  -5.3737  -5.3479   3.0679   3.6466   3.7940   3.9069   4.2084
     4.6543   5.1430   5.5414   5.7187   7.3382   7.5734   7.7420   8.1350

     occupation numbers 
     1.0000   1.0000   1.0000   1.0000   1.0000   1.0000   1.0000   1.0000
     1.0000   1.0000   1.0000   1.0000   1.0000   1.0000   1.0000   1.0000
     1.0000   1.0000   1.0056   0.9903  -0.0000  -0.0000  -0.0000  -0.0000

          k = 0.0867 0.1735 0.4337 ( 14175 PWs)   bands (ev):

   -32.5822 -30.7627 -13.8094 -13.7815 -13.7735 -13.3044 -13.2937 -13.2915
    -5.8556  -5.3866  -5.3448   3.1275   3.5218   3.7684   3.8481   4.0578
     4.5911   5.1103   5.3877   5.6570   7.4586   7.7078   8.0294   8.2495

     occupation numbers 
     1.0000   1.0000   1.0000   1.0000   1.0000   1.0000   1.0000   1.0000
     1.0000   1.0000   1.0000   1.0000   1.0000   1.0000   1.0000   1.0000
     1.0000   1.0000   1.0000   1.0353  -0.0000  -0.0000  -0.0000  -0.0000

          k = 0.0867 0.1735-0.5204 ( 14192 PWs)   bands (ev):

   -32.5822 -30.7627 -13.8120 -13.7814 -13.7734 -13.3053 -13.2936 -13.2914
    -5.8308  -5.3928  -5.3437   3.2064   3.3949   3.7899   3.8018   4.0191
     4.5766   5.1111   5.3181   5.6351   7.4968   7.7759   8.2107   8.2302

     occupation numbers 
     1.0000   1.0000   1.0000   1.0000   1.0000   1.0000   1.0000   1.0000
     1.0000   1.0000   1.0000   1.0000   1.0000   1.0000   1.0000   1.0000
     1.0000   1.0000   1.0000   1.0312  -0.0000  -0.0000  -0.0000  -0.0000

          k = 0.0867 0.2602 0.2602 ( 14147 PWs)   bands (ev):

   -32.5823 -30.7628 -13.7925 -13.7916 -13.7738 -13.2987 -13.2965 -13.2916
    -5.9268  -5.3588  -5.3557   2.9785   3.6261   3.8771   3.8785   4.3655
     4.6030   5.2413   5.6493   5.6647   7.2537   7.5027   7.6330   8.1863

     occupation numbers 
     1.0000   1.0000   1.0000   1.0000   1.0000   1.0000   1.0000   1.0000
     1.0000   1.0000   1.0000   1.0000   1.0000   1.0000   1.0000   1.0000
     1.0000   1.0000   1.0344   1.0353  -0.0000  -0.0000  -0.0000  -0.0000

          k = 0.0867 0.2602 0.3469 ( 14151 PWs)   bands (ev):

   -32.5822 -30.7627 -13.8022 -13.7920 -13.7735 -13.3010 -13.2966 -13.2914
    -5.8511  -5.3659  -5.3523   2.9249   3.5062   3.8084   3.8983   4.2591
     4.5053   5.1942   5.5117   5.5991   7.3826   7.6745   7.8367   8.2251

     occupation numbers 
     1.0000   1.0000   1.0000   1.0000   1.0000   1.0000   1.0000   1.0000
     1.0000   1.0000   1.0000   1.0000   1.0000   1.0000   1.0000   1.0000
     1.0000   1.0000   1.0025   1.0194  -0.0000  -0.0000  -0.0000  -0.0000

          k = 0.0867 0.2602 0.4337 ( 14173 PWs)   bands (ev):

   -32.5822 -30.7627 -13.8096 -13.7920 -13.7732 -13.3031 -13.2963 -13.2912
    -5.7909  -5.3762  -5.3490   2.9237   3.3599   3.7993   3.8555   4.1619
     4.5339   5.1158   5.4455   5.5237   7.5534   7.7965   8.0661   8.1482

     occupation numbers 
     1.0000   1.0000   1.0000   1.0000   1.0000   1.0000   1.0000   1.0000
     1.0000   1.0000   1.0000   1.0000   1.0000   1.0000   1.0000   1.0000
     1.0000   1.0000   1.0003   1.0035  -0.0000  -0.0000  -0.0000  -0.0000

          k = 0.0867 0.2602-0.5204 ( 14166 PWs)   bands (ev):

   -32.5822 -30.7626 -13.8123 -13.7920 -13.7732 -13.3039 -13.2961 -13.2911
    -5.7674  -5.3812  -5.3478   2.9386   3.2904   3.7947   3.8284   4.1372
     4.5592   5.0735   5.4430   5.4781   7.6322   7.9573   7.9784   8.1717

     occupation numbers 
     1.0000   1.0000   1.0000   1.0000   1.0000   1.0000   1.0000   1.0000
     1.0000   1.0000   1.0000   1.0000   1.0000   1.0000   1.0000   1.0000
     1.0000   1.0000   1.0002   1.0008  -0.0000  -0.0000  -0.0000  -0.0000

          k = 0.0867 0.3469 0.3469 ( 14157 PWs)   bands (ev):

   -32.5822 -30.7626 -13.8026 -13.8020 -13.7732 -13.3005 -13.2989 -13.2911
    -5.7797  -5.3591  -5.3586   2.8121   3.3492   3.8045   3.8985   4.3491
     4.3834   5.1074   5.3435   5.6898   7.4209   7.8875   7.9185   8.2661

     occupation numbers 
     1.0000   1.0000   1.0000   1.0000   1.0000   1.0000   1.0000   1.0000
     1.0000   1.0000   1.0000   1.0000   1.0000   1.0000   1.0000   1.0000
     1.0000   1.0000   1.0000   1.0264  -0.0000  -0.0000  -0.0000  -0.0000

          k = 0.0867 0.3469 0.4337 ( 14171 PWs)   bands (ev):

   -32.5821 -30.7626 -13.8098 -13.8024 -13.7730 -13.3019 -13.2989 -13.2909
    -5.7239  -5.3661  -5.3541   2.7442   3.2386   3.7999   3.8554   4.3052
     4.4918   4.9749   5.2380   5.7446   7.5390   7.8872   8.0620   8.2608

     occupation numbers 
     1.0000   1.0000   1.0000   1.0000   1.0000   1.0000   1.0000   1.0000
     1.0000   1.0000   1.0000   1.0000   1.0000   1.0000   1.0000   1.0000
     1.0000   1.0000   1.0000   0.9248  -0.0000  -0.0000  -0.0000  -0.0000

          k = 0.0867 0.3469-0.5204 ( 14162 PWs)   bands (ev):

   -32.5821 -30.7626 -13.8125 -13.8024 -13.7729 -13.3026 -13.2987 -13.2908
    -5.7024  -5.3696  -5.3524   2.7225   3.1979   3.8036   3.8236   4.2920
     4.5741   4.8808   5.2124   5.7591   7.6783   7.7750   8.0772   8.3248

     occupation numbers 
     1.0000   1.0000   1.0000   1.0000   1.0000   1.0000   1.0000   1.0000
     1.0000   1.0000   1.0000   1.0000   1.0000   1.0000   1.0000   1.0000
     1.0000   1.0000   1.0000   0.8721  -0.0000  -0.0000  -0.0000  -0.0000

          k = 0.0867 0.4337 0.4337 ( 14162 PWs)   bands (ev):

   -32.5821 -30.7626 -13.8101 -13.8099 -13.7728 -13.3012 -13.3007 -13.2907
    -5.6728  -5.3597  -5.3581   2.6265   3.1593   3.7952   3.8305   4.4702
     4.4785   4.8708   5.0482   5.8827   7.5438   7.7750   8.1925   8.4109

     occupation numbers 
     1.0000   1.0000   1.0000   1.0000   1.0000   1.0000   1.0000   1.0000
     1.0000   1.0000   1.0000   1.0000   1.0000   1.0000   1.0000   1.0000
     1.0000   1.0000   1.0000   0.1867  -0.0000  -0.0000  -0.0000  -0.0000

          k = 0.0867 0.4337-0.5204 ( 14162 PWs)   bands (ev):

   -32.5821 -30.7625 -13.8127 -13.8100 -13.7727 -13.3016 -13.3006 -13.2906
    -5.6535  -5.3610  -5.3563   2.5859   3.1308   3.8015   3.8071   4.4703
     4.6095   4.7599   4.9871   5.9264   7.6147   7.6460   8.2517   8.4937

     occupation numbers 
     1.0000   1.0000   1.0000   1.0000   1.0000   1.0000   1.0000   1.0000
     1.0000   1.0000   1.0000   1.0000   1.0000   1.0000   1.0000   1.0000
     1.0000   1.0000   1.0000   0.0315  -0.0000  -0.0000  -0.0000  -0.0000

          k = 0.0867-0.5204-0.5204 ( 14156 PWs)   bands (ev):

   -32.5820 -30.7625 -13.8128 -13.8128 -13.7727 -13.3013 -13.3013 -13.2905
    -5.6353  -5.3578  -5.3578   2.5394   3.1058   3.7986   3.7986   4.6277
     4.6277   4.6701   4.8637   5.9805   7.5799   7.6020   8.3309   8.5698

     occupation numbers 
     1.0000   1.0000   1.0000   1.0000   1.0000   1.0000   1.0000   1.0000
     1.0000   1.0000   1.0000   1.0000   1.0000   1.0000   1.0000   1.0000
     1.0000   1.0000   1.0000  -0.0336  -0.0000  -0.0000  -0.0000  -0.0000

          k = 0.1735 0.1735 0.1735 ( 14120 PWs)   bands (ev):

   -32.5823 -30.7628 -13.7820 -13.7820 -13.7815 -13.2958 -13.2939 -13.2939
    -6.0202  -5.3562  -5.3562   3.0511   3.7201   3.7201   4.3030   4.3030
     4.8343   5.3836   5.8318   5.8318   7.1131   7.1131   7.3851   8.1156

     occupation numbers 
     1.0000   1.0000   1.0000   1.0000   1.0000   1.0000   1.0000   1.0000
     1.0000   1.0000   1.0000   1.0000   1.0000   1.0000   1.0000   1.0000
     1.0000   1.0000   0.4744   0.4744  -0.0000  -0.0000  -0.0000  -0.0000

          k = 0.1735 0.1735 0.2602 ( 14159 PWs)   bands (ev):

   -32.5823 -30.7628 -13.7920 -13.7817 -13.7815 -13.2982 -13.2942 -13.2938
    -5.9483  -5.3603  -5.3529   2.9771   3.6989   3.7616   4.1089   4.2376
     4.5991   5.3936   5.6723   5.7658   7.2055   7.2960   7.4664   8.1969

     occupation numbers 
     1.0000   1.0000   1.0000   1.0000   1.0000   1.0000   1.0000   1.0000
     1.0000   1.0000   1.0000   1.0000   1.0000   1.0000   1.0000   1.0000
     1.0000   1.0000   1.0343   0.8440  -0.0000  -0.0000  -0.0000  -0.0000

          k = 0.1735 0.1735 0.3469 ( 14175 PWs)   bands (ev):

   -32.5822 -30.7627 -13.8021 -13.7817 -13.7811 -13.3013 -13.2937 -13.2937
    -5.8707  -5.3692  -5.3496   2.9665   3.6415   3.6720   4.0117   4.0660
     4.6082   5.3261   5.4601   5.6957   7.3360   7.6127   7.6174   8.2268

     occupation numbers 
     1.0000   1.0000   1.0000   1.0000   1.0000   1.0000   1.0000   1.0000
     1.0000   1.0000   1.0000   1.0000   1.0000   1.0000   1.0000   1.0000
     1.0000   1.0000   1.0004   1.0217  -0.0000  -0.0000  -0.0000  -0.0000

          k = 0.1735 0.1735 0.4337 ( 14164 PWs)   bands (ev):

   -32.5822 -30.7627 -13.8094 -13.7817 -13.7807 -13.3036 -13.2936 -13.2933
    -5.8087  -5.3806  -5.3471   3.0348   3.4481   3.5774   3.9719   3.9853
     4.7444   5.2363   5.2556   5.6458   7.4420   7.8236   7.9473   8.1993

     occupation numbers 
     1.0000   1.0000   1.0000   1.0000   1.0000   1.0000   1.0000   1.0000
     1.0000   1.0000   1.0000   1.0000   1.0000   1.0000   1.0000   1.0000
     1.0000   1.0000   1.0000   1.0338  -0.0000  -0.0000  -0.0000  -0.0000

          k = 0.1735 0.1735-0.5204 ( 14180 PWs)   bands (ev):

   -32.5822 -30.7627 -13.8120 -13.7817 -13.7806 -13.3045 -13.2936 -13.2931
    -5.7843  -5.3863  -5.3462   3.1405   3.2718   3.5512   3.9483   3.9820
     4.8611   5.0926   5.2273   5.6281   7.4799   7.9798   8.1240   8.1355

     occupation numbers 
     1.0000   1.0000   1.0000   1.0000   1.0000   1.0000   1.0000   1.0000
     1.0000   1.0000   1.0000   1.0000   1.0000   1.0000   1.0000   1.0000
     1.0000   1.0000   1.0000   1.0291  -0.0000  -0.0000  -0.0000  -0.0000

          k = 0.1735 0.2602 0.2602 ( 14162 PWs)   bands (ev):

   -32.5822 -30.7627 -13.7921 -13.7916 -13.7813 -13.2981 -13.2964 -13.2937
    -5.8780  -5.3577  -5.3551   2.8946   3.6074   3.7479   4.0349   4.2962
     4.3412   5.4690   5.6396   5.6552   7.2833   7.3517   7.5076   8.3975

     occupation numbers 
     1.0000   1.0000   1.0000   1.0000   1.0000   1.0000   1.0000   1.0000
     1.0000   1.0000   1.0000   1.0000   1.0000   1.0000   1.0000   1.0000
     1.0000   1.0006   1.0324   1.0352  -0.0000  -0.0000  -0.0000  -0.0000

          k = 0.1735 0.2602 0.3469 ( 14183 PWs)   bands (ev):

   -32.5822 -30.7627 -13.8020 -13.7917 -13.7810 -13.3005 -13.2965 -13.2935
    -5.8028  -5.3635  -5.3529   2.8667   3.4514   3.6655   3.9155   4.1990
     4.4838   5.3672   5.5531   5.6103   7.3938   7.5432   7.6580   8.3823

     occupation numbers 
     1.0000   1.0000   1.0000   1.0000   1.0000   1.0000   1.0000   1.0000
     1.0000   1.0000   1.0000   1.0000   1.0000   1.0000   1.0000   1.0000
     1.0000   1.0000   1.0075   1.0232  -0.0000  -0.0000  -0.0000  -0.0000

          k = 0.1735 0.2602 0.4337 ( 14184 PWs)   bands (ev):

   -32.5821 -30.7626 -13.8094 -13.7916 -13.7808 -13.3026 -13.2962 -13.2932
    -5.7429  -5.3726  -5.3507   2.9058   3.2764   3.5388   3.8510   4.1783
     4.6922   5.1554   5.5207   5.5597   7.5084   7.7376   7.9266   8.2609

     occupation numbers 
     1.0000   1.0000   1.0000   1.0000   1.0000   1.0000   1.0000   1.0000
     1.0000   1.0000   1.0000   1.0000   1.0000   1.0000   1.0000   1.0000
     1.0000   1.0000   1.0032   1.0088  -0.0000  -0.0000  -0.0000  -0.0000

          k = 0.1735 0.2602-0.5204 ( 14174 PWs)   bands (ev):

   -32.5821 -30.7626 -13.8121 -13.7916 -13.7807 -13.3034 -13.2961 -13.2931
    -5.7195  -5.3772  -5.3499   2.9645   3.1614   3.4901   3.8343   4.1781
     4.9045   4.9369   5.5237   5.5247   7.5497   7.9296   8.0093   8.1925

     occupation numbers 
     1.0000   1.0000   1.0000   1.0000   1.0000   1.0000   1.0000   1.0000
     1.0000   1.0000   1.0000   1.0000   1.0000   1.0000   1.0000   1.0000
     1.0000   1.0000   1.0035   1.0036  -0.0000  -0.0000  -0.0000  -0.0000

          k = 0.1735 0.3469 0.3469 ( 14203 PWs)   bands (ev):

   -32.5821 -30.7626 -13.8021 -13.8018 -13.7807 -13.3001 -13.2989 -13.2932
    -5.7310  -5.3587  -5.3582   2.8009   3.2701   3.6476   3.7561   4.3587
     4.4607   5.3001   5.4251   5.7280   7.4396   7.6897   7.7153   8.3656

     occupation numbers 
     1.0000   1.0000   1.0000   1.0000   1.0000   1.0000   1.0000   1.0000
     1.0000   1.0000   1.0000   1.0000   1.0000   1.0000   1.0000   1.0000
     1.0000   1.0000   1.0001   0.9707  -0.0000  -0.0000  -0.0000  -0.0000

          k = 0.1735 0.3469 0.4337 ( 14189 PWs)   bands (ev):

   -32.5821 -30.7626 -13.8094 -13.8020 -13.7805 -13.3016 -13.2988 -13.2930
    -5.6747  -5.3649  -5.3552   2.7796   3.1326   3.5540   3.6976   4.3872
     4.6316   5.1256   5.3625   5.7877   7.5475   7.7450   7.9176   8.2486

     occupation numbers 
     1.0000   1.0000   1.0000   1.0000   1.0000   1.0000   1.0000   1.0000
     1.0000   1.0000   1.0000   1.0000   1.0000   1.0000   1.0000   1.0000
     1.0000   1.0000   1.0000   0.7368  -0.0000  -0.0000  -0.0000  -0.0000

          k = 0.1735 0.3469-0.5204 ( 14158 PWs)   bands (ev):

   -32.5821 -30.7625 -13.8122 -13.8020 -13.7804 -13.3023 -13.2987 -13.2929
    -5.6530  -5.3682  -5.3541   2.7822   3.0745   3.5039   3.6905   4.3906
     4.7889   4.9640   5.3523   5.8019   7.6582   7.7380   7.9444   8.3303

     occupation numbers 
     1.0000   1.0000   1.0000   1.0000   1.0000   1.0000   1.0000   1.0000
     1.0000   1.0000   1.0000   1.0000   1.0000   1.0000   1.0000   1.0000
     1.0000   1.0000   1.0000   0.6573  -0.0000  -0.0000  -0.0000  -0.0000

          k = 0.1735 0.4337 0.4337 ( 14177 PWs)   bands (ev):

   -32.5820 -30.7625 -13.8095 -13.8094 -13.7802 -13.3011 -13.3007 -13.2928
    -5.6226  -5.3600  -5.3590   2.6917   3.0467   3.5615   3.5785   4.5985
     4.6061   5.0988   5.1813   5.9283   7.5478   7.7485   8.0125   8.2438

     occupation numbers 
     1.0000   1.0000   1.0000   1.0000   1.0000   1.0000   1.0000   1.0000
     1.0000   1.0000   1.0000   1.0000   1.0000   1.0000   1.0000   1.0000
     1.0000   1.0000   1.0000   0.0270  -0.0000  -0.0000  -0.0000  -0.0000

          k = 0.1735 0.4337-0.5204 ( 14176 PWs)   bands (ev):

   -32.5820 -30.7625 -13.8122 -13.8095 -13.7801 -13.3016 -13.3006 -13.2927
    -5.6029  -5.3616  -5.3576   2.6608   3.0176   3.5232   3.5744   4.5964
     4.7447   4.9904   5.1490   5.9719   7.6088   7.6471   8.0837   8.3734

     occupation numbers 
     1.0000   1.0000   1.0000   1.0000   1.0000   1.0000   1.0000   1.0000
     1.0000   1.0000   1.0000   1.0000   1.0000   1.0000   1.0000   1.0000
     1.0000   1.0000   1.0000  -0.0303  -0.0000  -0.0000  -0.0000  -0.0000

          k = 0.1735-0.5204-0.5204 ( 14200 PWs)   bands (ev):

   -32.5820 -30.7625 -13.8122 -13.8122 -13.7800 -13.3013 -13.3013 -13.2927
    -5.5841  -5.3591  -5.3591   2.6189   2.9974   3.5306   3.5306   4.6745
     4.7993   5.0030   5.0030   6.0267   7.5640   7.6168   8.2289   8.3698

     occupation numbers 
     1.0000   1.0000   1.0000   1.0000   1.0000   1.0000   1.0000   1.0000
     1.0000   1.0000   1.0000   1.0000   1.0000   1.0000   1.0000   1.0000
     1.0000   1.0000   1.0000  -0.0293  -0.0000  -0.0000  -0.0000  -0.0000

          k = 0.2602 0.2602 0.2602 ( 14186 PWs)   bands (ev):

   -32.5822 -30.7627 -13.7918 -13.7915 -13.7915 -13.2976 -13.2964 -13.2964
    -5.8085  -5.3561  -5.3561   2.8233   3.5787   3.5787   3.9697   4.2836
     4.2836   5.6006   5.6006   5.6428   7.3385   7.3385   7.4602   8.5291

     occupation numbers 
     1.0000   1.0000   1.0000   1.0000   1.0000   1.0000   1.0000   1.0000
     1.0000   1.0000   1.0000   1.0000   1.0000   1.0000   1.0000   1.0000
     1.0000   1.0199   1.0199   1.0332  -0.0000  -0.0000  -0.0000  -0.0000

          k = 0.2602 0.2602 0.3469 ( 14199 PWs)   bands (ev):

   -32.5821 -30.7626 -13.8018 -13.7917 -13.7909 -13.2998 -13.2963 -13.2963
    -5.7345  -5.3607  -5.3546   2.8023   3.4311   3.4538   3.7572   4.2996
     4.4810   5.4745   5.5710   5.6923   7.4203   7.5019   7.5223   8.4939

     occupation numbers 
     1.0000   1.0000   1.0000   1.0000   1.0000   1.0000   1.0000   1.0000
     1.0000   1.0000   1.0000   1.0000   1.0000   1.0000   1.0000   1.0000
     1.0000   1.0007   1.0113   1.0246  -0.0000  -0.0000  -0.0000  -0.0000

          k = 0.2602 0.2602 0.4337 ( 14196 PWs)   bands (ev):

   -32.5821 -30.7626 -13.8092 -13.7918 -13.7905 -13.3019 -13.2962 -13.2958
    -5.6757  -5.3678  -5.3534   2.8530   3.2128   3.3348   3.6978   4.3198
     4.6799   5.3072   5.5484   5.6771   7.5001   7.6833   7.7716   8.3930

     occupation numbers 
     1.0000   1.0000   1.0000   1.0000   1.0000   1.0000   1.0000   1.0000
     1.0000   1.0000   1.0000   1.0000   1.0000   1.0000   1.0000   1.0000
     1.0000   1.0000   1.0067   1.0329  -0.0000  -0.0000  -0.0000  -0.0000

          k = 0.2602 0.2602-0.5204 ( 14170 PWs)   bands (ev):

   -32.5821 -30.7625 -13.8119 -13.7918 -13.7903 -13.3027 -13.2962 -13.2956
    -5.6527  -5.3718  -5.3530   2.9540   3.0339   3.3016   3.6871   4.3286
     4.7901   5.2041   5.5402   5.6634   7.5298   7.8217   7.9733   8.2422

     occupation numbers 
     1.0000   1.0000   1.0000   1.0000   1.0000   1.0000   1.0000   1.0000
     1.0000   1.0000   1.0000   1.0000   1.0000   1.0000   1.0000   1.0000
     1.0000   1.0000   1.0055   1.0354  -0.0000  -0.0000  -0.0000  -0.0000

          k = 0.2602 0.3469 0.3469 ( 14195 PWs)   bands (ev):

   -32.5821 -30.7625 -13.8016 -13.8014 -13.7909 -13.2995 -13.2988 -13.2960
    -5.6625  -5.3588  -5.3577   2.7691   3.2451   3.4301   3.5373   4.4481
     4.5260   5.4782   5.5129   5.8186   7.4661   7.5437   7.5492   8.4063

     occupation numbers 
     1.0000   1.0000   1.0000   1.0000   1.0000   1.0000   1.0000   1.0000
     1.0000   1.0000   1.0000   1.0000   1.0000   1.0000   1.0000   1.0000
     1.0000   1.0008   1.0026   0.5562  -0.0000  -0.0000  -0.0000  -0.0000

          k = 0.2602 0.3469 0.4337 ( 14165 PWs)   bands (ev):

   -32.5820 -30.7625 -13.8089 -13.8013 -13.7906 -13.3012 -13.2987 -13.2958
    -5.6060  -5.3634  -5.3569   2.7933   3.0606   3.3169   3.4961   4.4954
     4.6588   5.3849   5.5017   5.8707   7.5508   7.5991   7.7541   8.2165

     occupation numbers 
     1.0000   1.0000   1.0000   1.0000   1.0000   1.0000   1.0000   1.0000
     1.0000   1.0000   1.0000   1.0000   1.0000   1.0000   1.0000   1.0000
     1.0000   1.0000   1.0018   0.2465  -0.0000  -0.0000  -0.0000  -0.0000

          k = 0.2602 0.3469-0.5204 ( 14190 PWs)   bands (ev):

   -32.5820 -30.7625 -13.8116 -13.8013 -13.7905 -13.3020 -13.2986 -13.2957
    -5.5840  -5.3663  -5.3564   2.8609   2.9303   3.2671   3.4981   4.5057
     4.7315   5.3250   5.5019   5.8802   7.5999   7.6687   7.8845   8.1434

     occupation numbers 
     1.0000   1.0000   1.0000   1.0000   1.0000   1.0000   1.0000   1.0000
     1.0000   1.0000   1.0000   1.0000   1.0000   1.0000   1.0000   1.0000
     1.0000   1.0000   1.0018   0.1986  -0.0000  -0.0000  -0.0000  -0.0000

          k = 0.2602 0.4337 0.4337 ( 14185 PWs)   bands (ev):

   -32.5820 -30.7625 -13.8088 -13.8087 -13.7902 -13.3009 -13.3007 -13.2957
    -5.5526  -5.3606  -5.3604   2.7649   2.9247   3.3350   3.3526   4.6457
     4.6526   5.4176   5.4301   6.0010   7.5231   7.7011   7.8076   8.0635

     occupation numbers 
     1.0000   1.0000   1.0000   1.0000   1.0000   1.0000   1.0000   1.0000
     1.0000   1.0000   1.0000   1.0000   1.0000   1.0000   1.0000   1.0000
     1.0000   1.0001   1.0001  -0.0351  -0.0000  -0.0000  -0.0000  -0.0000

          k = 0.2602 0.4337-0.5204 ( 14180 PWs)   bands (ev):

   -32.5820 -30.7624 -13.8114 -13.8087 -13.7901 -13.3015 -13.3006 -13.2956
    -5.5322  -5.3624  -5.3595   2.7686   2.8620   3.2902   3.3550   4.6487
     4.7143   5.3813   5.4367   6.0417   7.5431   7.6840   7.8849   8.0975

     occupation numbers 
     1.0000   1.0000   1.0000   1.0000   1.0000   1.0000   1.0000   1.0000
     1.0000   1.0000   1.0000   1.0000   1.0000   1.0000   1.0000   1.0000
     1.0000   1.0000   1.0002  -0.0243  -0.0000  -0.0000  -0.0000  -0.0000

          k = 0.2602-0.5204-0.5204 ( 14168 PWs)   bands (ev):

   -32.5820 -30.7624 -13.8114 -13.8114 -13.7900 -13.3013 -13.3013 -13.2956
    -5.5128  -5.3609  -5.3609   2.7342   2.8379   3.3030   3.3030   4.6806
     4.7403   5.4007   5.4007   6.0958   7.4964   7.6691   8.0839   8.0839

     occupation numbers 
     1.0000   1.0000   1.0000   1.0000   1.0000   1.0000   1.0000   1.0000
     1.0000   1.0000   1.0000   1.0000   1.0000   1.0000   1.0000   1.0000
     1.0000   1.0000   1.0000  -0.0088  -0.0000  -0.0000  -0.0000  -0.0000

          k = 0.3469 0.3469 0.3469 ( 14192 PWs)   bands (ev):

   -32.5820 -30.7625 -13.8016 -13.8007 -13.8007 -13.2989 -13.2988 -13.2988
    -5.5908  -5.3589  -5.3589   2.7414   3.2653   3.2653   3.2692   4.5698
     4.5698   5.5745   5.5745   5.9329   7.4503   7.5233   7.5233   8.3780

     occupation numbers 
     1.0000   1.0000   1.0000   1.0000   1.0000   1.0000   1.0000   1.0000
     1.0000   1.0000   1.0000   1.0000   1.0000   1.0000   1.0000   1.0000
     1.0000   1.0122   1.0122   0.0171  -0.0000  -0.0000  -0.0000  -0.0000

          k = 0.3469 0.3469 0.4337 ( 14181 PWs)   bands (ev):

   -32.5820 -30.7624 -13.8084 -13.8012 -13.8002 -13.3009 -13.2988 -13.2984
    -5.5349  -5.3622  -5.3590   2.7543   3.0357   3.1633   3.2966   4.5974
     4.6667   5.5949   5.6241   5.9908   7.4937   7.5558   7.6552   8.1570

     occupation numbers 
     1.0000   1.0000   1.0000   1.0000   1.0000   1.0000   1.0000   1.0000
     1.0000   1.0000   1.0000   1.0000   1.0000   1.0000   1.0000   1.0000
     1.0000   1.0181   1.0278  -0.0354  -0.0000  -0.0000  -0.0000  -0.0000

          k = 0.3469 0.3469-0.5204 ( 14176 PWs)   bands (ev):

   -32.5820 -30.7624 -13.8111 -13.8011 -13.8000 -13.3017 -13.2988 -13.2983
    -5.5132  -5.3645  -5.3591   2.7986   2.9119   3.1288   3.3095   4.6071
     4.7046   5.5947   5.6420   6.0009   7.5646   7.5689   7.8571   7.9301

     occupation numbers 
     1.0000   1.0000   1.0000   1.0000   1.0000   1.0000   1.0000   1.0000
     1.0000   1.0000   1.0000   1.0000   1.0000   1.0000   1.0000   1.0000
     1.0000   1.0180   1.0330  -0.0351  -0.0000  -0.0000  -0.0000  -0.0000

          k = 0.3469 0.4337 0.4337 ( 14188 PWs)   bands (ev):

   -32.5819 -30.7624 -13.8081 -13.8079 -13.8002 -13.3007 -13.3006 -13.2985
    -5.4806  -5.3617  -5.3615   2.7152   2.9362   3.1612   3.1665   4.6683
     4.6740   5.7057   5.7148   6.0910   7.4530   7.6311   7.6372   7.9611

     occupation numbers 
     1.0000   1.0000   1.0000   1.0000   1.0000   1.0000   1.0000   1.0000
     1.0000   1.0000   1.0000   1.0000   1.0000   1.0000   1.0000   1.0000
     1.0000   1.0107   0.9972  -0.0098  -0.0000  -0.0000  -0.0000  -0.0000

          k = 0.3469 0.4337-0.5204 ( 14188 PWs)   bands (ev):

   -32.5819 -30.7624 -13.8107 -13.8079 -13.8001 -13.3014 -13.3006 -13.2985
    -5.4597  -5.3632  -5.3615   2.7040   2.8831   3.1194   3.1793   4.6742
     4.6969   5.7411   5.7467   6.1245   7.4636   7.6298   7.7895   7.8019

     occupation numbers 
     1.0000   1.0000   1.0000   1.0000   1.0000   1.0000   1.0000   1.0000
     1.0000   1.0000   1.0000   1.0000   1.0000   1.0000   1.0000   1.0000
     1.0000   0.9355   0.9177  -0.0043  -0.0000  -0.0000  -0.0000  -0.0000

          k = 0.3469-0.5204-0.5204 ( 14188 PWs)   bands (ev):

   -32.5819 -30.7624 -13.8106 -13.8106 -13.7999 -13.3013 -13.3013 -13.2985
    -5.4396  -5.3627  -5.3627   2.6690   2.8589   3.1339   3.1339   4.6867
     4.7069   5.7865   5.7865   6.1739   7.4162   7.7238   7.7621   7.7621

     occupation numbers 
     1.0000   1.0000   1.0000   1.0000   1.0000   1.0000   1.0000   1.0000
     1.0000   1.0000   1.0000   1.0000   1.0000   1.0000   1.0000   1.0000
     1.0000   0.7432   0.7432  -0.0009  -0.0000  -0.0000  -0.0000  -0.0000

          k = 0.4337 0.4337 0.4337 ( 14172 PWs)   bands (ev):

   -32.5819 -30.7624 -13.8078 -13.8073 -13.8073 -13.3006 -13.3006 -13.3005
    -5.4261  -5.3627  -5.3627   2.6224   2.9788   3.0630   3.0630   4.6853
     4.6853   5.9259   5.9259   6.1709   7.3931   7.5561   7.5561   7.9137

     occupation numbers 
     1.0000   1.0000   1.0000   1.0000   1.0000   1.0000   1.0000   1.0000
     1.0000   1.0000   1.0000   1.0000   1.0000   1.0000   1.0000   1.0000
     1.0000   0.0326   0.0326  -0.0010  -0.0000  -0.0000  -0.0000  -0.0000

          k = 0.4337 0.4337-0.5204 ( 14182 PWs)   bands (ev):

   -32.5819 -30.7624 -13.8102 -13.8075 -13.8071 -13.3014 -13.3006 -13.3005
    -5.4053  -5.3637  -5.3631   2.5855   2.9601   3.0282   3.0679   4.6890
     4.6922   6.0047   6.0127   6.2010   7.3917   7.5091   7.5589   7.7967

     occupation numbers 
     1.0000   1.0000   1.0000   1.0000   1.0000   1.0000   1.0000   1.0000
     1.0000   1.0000   1.0000   1.0000   1.0000   1.0000   1.0000   1.0000
     1.0000  -0.0346  -0.0331  -0.0004  -0.0000  -0.0000  -0.0000  -0.0000

          k = 0.4337-0.5204-0.5204 ( 14200 PWs)   bands (ev):

   -32.5819 -30.7623 -13.8100 -13.8100 -13.8071 -13.3013 -13.3013 -13.3006
    -5.3848  -5.3640  -5.3640   2.5414   2.9575   3.0302   3.0302   4.6911
     4.6950   6.1143   6.1143   6.2388   7.3515   7.4671   7.4671   7.8217

     occupation numbers 
     1.0000   1.0000   1.0000   1.0000   1.0000   1.0000   1.0000   1.0000
     1.0000   1.0000   1.0000   1.0000   1.0000   1.0000   1.0000   1.0000
     1.0000  -0.0056  -0.0056  -0.0001  -0.0000  -0.0000  -0.0000  -0.0000

          k =-0.5204-0.5204-0.5204 ( 14328 PWs)   bands (ev):

   -32.5819 -30.7623 -13.8097 -13.8097 -13.8097 -13.3013 -13.3013 -13.3013
    -5.3644  -5.3644  -5.3644   2.4941   2.9953   2.9953   2.9953   4.6928
     4.6928   6.2648   6.2648   6.2648   7.3268   7.3268   7.3268   7.8017

     occupation numbers 
     1.0000   1.0000   1.0000   1.0000   1.0000   1.0000   1.0000   1.0000
     1.0000   1.0000   1.0000   1.0000   1.0000   1.0000   1.0000   1.0000
     1.0000  -0.0000  -0.0000  -0.0000  -0.0000  -0.0000  -0.0000  -0.0000

     the Fermi energy is     5.8276 ev

!    total energy              =   -1173.58985442 Ry
     total all-electron energy =    -33662.970966 Ry
     estimated scf accuracy    <          4.5E-13 Ry
     smearing contrib. (-TS)   =      -0.00000800 Ry
     internal energy E=F+TS    =   -1173.58984642 Ry

     The total energy is F=E-TS. E is the sum of the following terms:
     one-electron contribution =     -45.68303186 Ry
     hartree contribution      =      38.78500584 Ry
     xc contribution           =    -104.44644109 Ry
     ewald contribution        =    -148.14704973 Ry
     one-center paw contrib.   =    -914.09832958 Ry
      -> PAW hartree energy AE =      47.75791245 Ry
      -> PAW hartree energy PS =     -47.53586611 Ry
      -> PAW xc energy AE      =     -71.53062085 Ry
      -> PAW xc energy PS      =      11.32231181 Ry
      -> total E_H with PAW    =      39.00705218 Ry
      -> total E_XC with PAW   =    -164.65475013 Ry

     convergence has been achieved in  18 iterations

     Forces acting on atoms (cartesian axes, Ry/au):

     atom    1 type  1   force =     0.00000000    0.00000000    0.00000000
     atom    2 type  2   force =     0.00000000    0.00000000    0.00000000
     atom    3 type  3   force =     0.00000000    0.00000000    0.00000000
     atom    4 type  3   force =     0.00000000    0.00000000    0.00000000
     atom    5 type  3   force =     0.00000000    0.00000000    0.00000000
     The non-local contrib.  to forces
     atom    1 type  1   force =     0.00000000    0.00000000    0.00000000
     atom    2 type  2   force =     0.00000000    0.00000000    0.00000000
     atom    3 type  3   force =     0.00000000    0.00000000    0.00000000
     atom    4 type  3   force =     0.00000000    0.00000000    0.00000000
     atom    5 type  3   force =     0.00000000    0.00000000    0.00000000
     The ionic contribution  to forces
     atom    1 type  1   force =    -0.00000000   -0.00000000   -0.00000000
     atom    2 type  2   force =    -0.00000000   -0.00000000   -0.00000000
     atom    3 type  3   force =     0.00000000   -0.00000000   -0.00000000
     atom    4 type  3   force =    -0.00000000    0.00000000   -0.00000000
     atom    5 type  3   force =    -0.00000000   -0.00000000    0.00000000
     The local contribution  to forces
     atom    1 type  1   force =     0.00000000    0.00000000    0.00000000
     atom    2 type  2   force =     0.00000000    0.00000000    0.00000000
     atom    3 type  3   force =    -0.00000000    0.00000000   -0.00000000
     atom    4 type  3   force =     0.00000000   -0.00000000   -0.00000000
     atom    5 type  3   force =    -0.00000000   -0.00000000   -0.00000000
     The core correction contribution to forces
     atom    1 type  1   force =     0.00000000    0.00000000   -0.00000000
     atom    2 type  2   force =     0.00000000    0.00000000    0.00000000
     atom    3 type  3   force =    -0.00000000   -0.00000000   -0.00000000
     atom    4 type  3   force =     0.00000000   -0.00000000   -0.00000000
     atom    5 type  3   force =     0.00000000    0.00000000   -0.00000000
     The Hubbard contrib.    to forces
     atom    1 type  1   force =     0.00000000    0.00000000    0.00000000
     atom    2 type  2   force =     0.00000000    0.00000000    0.00000000
     atom    3 type  3   force =     0.00000000    0.00000000    0.00000000
     atom    4 type  3   force =     0.00000000    0.00000000    0.00000000
     atom    5 type  3   force =     0.00000000    0.00000000    0.00000000
     The SCF correction term to forces
     atom    1 type  1   force =    -0.00000000   -0.00000000    0.00000000
     atom    2 type  2   force =    -0.00000000    0.00000000    0.00000000
     atom    3 type  3   force =     0.00000000   -0.00000000   -0.00000000
     atom    4 type  3   force =    -0.00000000    0.00000000   -0.00000000
     atom    5 type  3   force =     0.00000000   -0.00000000    0.00000000

     Total force =     0.000000     Total SCF correction =     0.000000


     Computing stress (Cartesian axis) and pressure

          total   stress  (Ry/bohr**3)                   (kbar)     P=      -13.92
  -0.00009464   0.00000000   0.00000000          -13.92        0.00        0.00
   0.00000000  -0.00009464   0.00000000            0.00      -13.92        0.00
   0.00000000   0.00000000  -0.00009464            0.00        0.00      -13.92

     kinetic stress (kbar)   6828.46      0.00      0.00
                                0.00   6828.46      0.00
                                0.00      0.00   6828.46

     local   stress (kbar)  -2082.42     -0.00      0.00
                               -0.00  -2082.42      0.00
                                0.00      0.00  -2082.42

     nonloc. stress (kbar)   2321.06      0.00      0.00
                                0.00   2321.06      0.00
                                0.00      0.00   2321.06

     hartree stress (kbar)   1828.79      0.00     -0.00
                                0.00   1828.79     -0.00
                               -0.00     -0.00   1828.79

     exc-cor stress (kbar)   8274.31      0.00     -0.00
                                0.00   8274.31     -0.00
                               -0.00     -0.00   8274.31

     corecor stress (kbar) -10198.70     -0.00     -0.00
                               -0.00 -10198.70     -0.00
                               -0.00     -0.00 -10198.70

     ewald   stress (kbar)  -6985.42      0.00     -0.00
                                0.00  -6985.42     -0.00
                               -0.00     -0.00  -6985.42

     hubbard stress (kbar)      0.00      0.00      0.00
                                0.00      0.00      0.00
                                0.00      0.00      0.00

     DFT-D   stress (kbar)      0.00      0.00      0.00
                                0.00      0.00      0.00
                                0.00      0.00      0.00

     XDM     stress (kbar)      0.00      0.00      0.00
                                0.00      0.00      0.00
                                0.00      0.00      0.00

     dft-nl  stress (kbar)      0.00      0.00      0.00
                                0.00      0.00      0.00
                                0.00      0.00      0.00

     TS-vdW  stress (kbar)      0.00      0.00      0.00
                                0.00      0.00      0.00
                                0.00      0.00      0.00

     MDB     stress (kbar)      0.00      0.00      0.00
                                0.00      0.00      0.00
                                0.00      0.00      0.00

     3D-RISM stress (kbar)      0.00      0.00      0.00
                                0.00      0.00      0.00
                                0.00      0.00      0.00

     Energy error            =      1.0E-02 Ry
     Gradient error          =      0.0E+00 Ry/Bohr
     Cell gradient error     =      1.4E+01 kbar

     number of scf cycles    =   4
     number of bfgs steps    =   3

     enthalpy           old  =   -1173.5798491634 Ry
     enthalpy           new  =   -1173.5898544163 Ry

     CASE: enthalpy          _new < enthalpy          _old

     new trust radius        =       0.0853297329 bohr
     new conv_thr            =            1.0E-12 Ry

     new unit-cell volume =    999.20518 a.u.^3 (   148.06693 Ang^3 )
     density =      4.67740 g/cm^3

CELL_PARAMETERS (angstrom)
   5.290369743   0.000000000   0.000000000
   0.000000000   5.290369743   0.000000000
   0.000000000   0.000000000   5.290369743

ATOMIC_POSITIONS (crystal)
Ca               0.0000000000        0.0000000000        0.0000000000
Ce               0.5000000000        0.5000000000        0.5000000000
Se               0.5000000000        0.0000000000        0.0000000000
Se               0.0000000000        0.5000000000        0.0000000000
Se               0.0000000000        0.0000000000        0.5000000000



     Writing config-only to output data dir ./tmp/caces3.save/ :
     XML data file
     NEW-OLD atomic charge density approx. for the potential

     total cpu time spent up to now is    13624.8 secs

     Self-consistent Calculation

     iteration #  1     ecut=    80.00 Ry     beta= 0.30
     Davidson diagonalization with overlap

---- Real-time Memory Report at c_bands before calling an iterative solver
           267 MiB given to the printing process from OS
             0 MiB allocation reported by mallinfo(arena+hblkhd)
         51059 MiB available memory on the node where the printing process lives
------------------
     ethr =  1.00E-06,  avg # of iterations =  9.0

     total cpu time spent up to now is    13998.5 secs

     total energy              =   -1173.59182759 Ry
     estimated scf accuracy    <       0.00045690 Ry

     iteration #  2     ecut=    80.00 Ry     beta= 0.30
     Davidson diagonalization with overlap

---- Real-time Memory Report at c_bands before calling an iterative solver
           267 MiB given to the printing process from OS
             0 MiB allocation reported by mallinfo(arena+hblkhd)
         51150 MiB available memory on the node where the printing process lives
------------------
     ethr =  1.17E-06,  avg # of iterations =  2.1

     total cpu time spent up to now is    14111.3 secs

     total energy              =   -1173.59166222 Ry
     estimated scf accuracy    <       0.00003893 Ry

     iteration #  3     ecut=    80.00 Ry     beta= 0.30
     Davidson diagonalization with overlap

---- Real-time Memory Report at c_bands before calling an iterative solver
           267 MiB given to the printing process from OS
             0 MiB allocation reported by mallinfo(arena+hblkhd)
         51172 MiB available memory on the node where the printing process lives
------------------
     ethr =  9.98E-08,  avg # of iterations =  5.3

     total cpu time spent up to now is    14334.9 secs

     total energy              =   -1173.59155071 Ry
     estimated scf accuracy    <       0.00001614 Ry

     iteration #  4     ecut=    80.00 Ry     beta= 0.30
     Davidson diagonalization with overlap

---- Real-time Memory Report at c_bands before calling an iterative solver
           267 MiB given to the printing process from OS
             0 MiB allocation reported by mallinfo(arena+hblkhd)
         51283 MiB available memory on the node where the printing process lives
------------------
     ethr =  4.14E-08,  avg # of iterations =  2.9

     total cpu time spent up to now is    14482.4 secs

     total energy              =   -1173.59151250 Ry
     estimated scf accuracy    <       0.00000382 Ry

     iteration #  5     ecut=    80.00 Ry     beta= 0.30
     Davidson diagonalization with overlap

---- Real-time Memory Report at c_bands before calling an iterative solver
           267 MiB given to the printing process from OS
             0 MiB allocation reported by mallinfo(arena+hblkhd)
         51109 MiB available memory on the node where the printing process lives
------------------
     ethr =  9.80E-09,  avg # of iterations =  5.6

     total cpu time spent up to now is    14721.4 secs

     total energy              =   -1173.59151718 Ry
     estimated scf accuracy    <       0.00000221 Ry

     iteration #  6     ecut=    80.00 Ry     beta= 0.30
     Davidson diagonalization with overlap

---- Real-time Memory Report at c_bands before calling an iterative solver
           267 MiB given to the printing process from OS
             0 MiB allocation reported by mallinfo(arena+hblkhd)
         51159 MiB available memory on the node where the printing process lives
------------------
     ethr =  5.66E-09,  avg # of iterations =  2.1

     total cpu time spent up to now is    14831.8 secs

     total energy              =   -1173.59151750 Ry
     estimated scf accuracy    <       0.00000052 Ry

     iteration #  7     ecut=    80.00 Ry     beta= 0.30
     Davidson diagonalization with overlap

---- Real-time Memory Report at c_bands before calling an iterative solver
           267 MiB given to the printing process from OS
             0 MiB allocation reported by mallinfo(arena+hblkhd)
         51115 MiB available memory on the node where the printing process lives
------------------
     ethr =  1.33E-09,  avg # of iterations =  6.5

     total cpu time spent up to now is    15102.3 secs

     total energy              =   -1173.59151807 Ry
     estimated scf accuracy    <       0.00000216 Ry

     iteration #  8     ecut=    80.00 Ry     beta= 0.30
     Davidson diagonalization with overlap

---- Real-time Memory Report at c_bands before calling an iterative solver
           267 MiB given to the printing process from OS
             0 MiB allocation reported by mallinfo(arena+hblkhd)
         51122 MiB available memory on the node where the printing process lives
------------------
     ethr =  1.33E-09,  avg # of iterations =  3.5

     total cpu time spent up to now is    15269.3 secs

     total energy              =   -1173.59151861 Ry
     estimated scf accuracy    <       0.00000011 Ry

     iteration #  9     ecut=    80.00 Ry     beta= 0.30
     Davidson diagonalization with overlap

---- Real-time Memory Report at c_bands before calling an iterative solver
           267 MiB given to the printing process from OS
             0 MiB allocation reported by mallinfo(arena+hblkhd)
         51021 MiB available memory on the node where the printing process lives
------------------
     ethr =  2.73E-10,  avg # of iterations =  3.5

     total cpu time spent up to now is    15428.4 secs

     total energy              =   -1173.59151878 Ry
     estimated scf accuracy    <       0.00000004 Ry

     iteration # 10     ecut=    80.00 Ry     beta= 0.30
     Davidson diagonalization with overlap

---- Real-time Memory Report at c_bands before calling an iterative solver
           267 MiB given to the printing process from OS
             0 MiB allocation reported by mallinfo(arena+hblkhd)
         51129 MiB available memory on the node where the printing process lives
------------------
     ethr =  9.99E-11,  avg # of iterations =  3.0

     total cpu time spent up to now is    15575.3 secs

     total energy              =   -1173.59151886 Ry
     estimated scf accuracy    <       0.00000002 Ry

     iteration # 11     ecut=    80.00 Ry     beta= 0.30
     Davidson diagonalization with overlap

---- Real-time Memory Report at c_bands before calling an iterative solver
           267 MiB given to the printing process from OS
             0 MiB allocation reported by mallinfo(arena+hblkhd)
         51443 MiB available memory on the node where the printing process lives
------------------
     ethr =  4.81E-11,  avg # of iterations =  4.3

     total cpu time spent up to now is    15763.4 secs

     total energy              =   -1173.59151890 Ry
     estimated scf accuracy    <          7.6E-11 Ry

     iteration # 12     ecut=    80.00 Ry     beta= 0.30
     Davidson diagonalization with overlap

---- Real-time Memory Report at c_bands before calling an iterative solver
           267 MiB given to the printing process from OS
             0 MiB allocation reported by mallinfo(arena+hblkhd)
         51192 MiB available memory on the node where the printing process lives
------------------
     ethr =  1.96E-13,  avg # of iterations =  9.4

     total cpu time spent up to now is    16137.4 secs

     total energy              =   -1173.59151892 Ry
     estimated scf accuracy    <          7.8E-10 Ry

     iteration # 13     ecut=    80.00 Ry     beta= 0.30
     Davidson diagonalization with overlap

---- Real-time Memory Report at c_bands before calling an iterative solver
           267 MiB given to the printing process from OS
             0 MiB allocation reported by mallinfo(arena+hblkhd)
         51124 MiB available memory on the node where the printing process lives
------------------
     ethr =  1.96E-13,  avg # of iterations =  5.2

     total cpu time spent up to now is    16364.0 secs

     total energy              =   -1173.59151893 Ry
     estimated scf accuracy    <          5.8E-11 Ry

     iteration # 14     ecut=    80.00 Ry     beta= 0.30
     Davidson diagonalization with overlap

---- Real-time Memory Report at c_bands before calling an iterative solver
           267 MiB given to the printing process from OS
             0 MiB allocation reported by mallinfo(arena+hblkhd)
         51311 MiB available memory on the node where the printing process lives
------------------
     ethr =  1.48E-13,  avg # of iterations =  4.5

     total cpu time spent up to now is    16566.2 secs

     total energy              =   -1173.59151894 Ry
     estimated scf accuracy    <          4.3E-12 Ry

     iteration # 15     ecut=    80.00 Ry     beta= 0.30
     Davidson diagonalization with overlap

---- Real-time Memory Report at c_bands before calling an iterative solver
           267 MiB given to the printing process from OS
             0 MiB allocation reported by mallinfo(arena+hblkhd)
         50965 MiB available memory on the node where the printing process lives
------------------
     ethr =  1.00E-13,  avg # of iterations =  1.6

     total cpu time spent up to now is    16661.9 secs

     total energy              =   -1173.59151894 Ry
     estimated scf accuracy    <          6.1E-12 Ry

     iteration # 16     ecut=    80.00 Ry     beta= 0.30
     Davidson diagonalization with overlap

---- Real-time Memory Report at c_bands before calling an iterative solver
           267 MiB given to the printing process from OS
             0 MiB allocation reported by mallinfo(arena+hblkhd)
         51152 MiB available memory on the node where the printing process lives
------------------
     ethr =  1.00E-13,  avg # of iterations =  1.0

     total cpu time spent up to now is    16737.6 secs

     End of self-consistent calculation

          k = 0.0000 0.0000 0.0000 ( 14147 PWs)   bands (ev):

   -32.0587 -30.2238 -13.2808 -13.2808 -13.2808 -12.7597 -12.7597 -12.7597
    -5.9382  -4.9978  -4.9978   3.8332   3.8332   3.8332   5.5216   5.5216
     5.5216   6.6635   6.6635   6.6635   7.1763   7.1763   7.5364   7.8488

     occupation numbers 
     1.0000   1.0000   1.0000   1.0000   1.0000   1.0000   1.0000   1.0000
     1.0000   1.0000   1.0000   1.0000   1.0000   1.0000   1.0000   1.0000
     1.0000  -0.0001  -0.0001  -0.0001  -0.0000  -0.0000  -0.0000  -0.0000

          k = 0.0000 0.0000 0.0879 ( 14114 PWs)   bands (ev):

   -32.0587 -30.2237 -13.2841 -13.2806 -13.2806 -12.7611 -12.7597 -12.7597
    -5.9177  -4.9975  -4.9962   3.8080   3.8395   3.8395   5.4041   5.4467
     5.4467   6.4470   6.6264   6.6264   7.2221   7.3366   7.5492   7.6628

     occupation numbers 
     1.0000   1.0000   1.0000   1.0000   1.0000   1.0000   1.0000   1.0000
     1.0000   1.0000   1.0000   1.0000   1.0000   1.0000   1.0000   1.0000
     1.0000  -0.0331  -0.0005  -0.0005  -0.0000  -0.0000  -0.0000  -0.0000

          k = 0.0000 0.0000 0.1758 ( 14106 PWs)   bands (ev):

   -32.0587 -30.2237 -13.2931 -13.2803 -13.2803 -12.7648 -12.7596 -12.7596
    -5.8602  -4.9978  -4.9918   3.7520   3.8577   3.8577   5.1524   5.2687
     5.2687   5.9766   6.5363   6.5363   7.3498   7.5851   7.7089   7.9810

     occupation numbers 
     1.0000   1.0000   1.0000   1.0000   1.0000   1.0000   1.0000   1.0000
     1.0000   1.0000   1.0000   1.0000   1.0000   1.0000   1.0000   1.0000
     1.0000   1.0058  -0.0075  -0.0075  -0.0000  -0.0000  -0.0000  -0.0000

          k = 0.0000 0.0000 0.2637 ( 14138 PWs)   bands (ev):

   -32.0586 -30.2236 -13.3053 -13.2798 -13.2798 -12.7698 -12.7595 -12.7595
    -5.7774  -5.0021  -4.9859   3.7098   3.8863   3.8863   4.8926   5.0643
     5.0643   5.4344   6.4277   6.4277   7.5415   7.6370   8.1435   8.3906

     occupation numbers 
     1.0000   1.0000   1.0000   1.0000   1.0000   1.0000   1.0000   1.0000
     1.0000   1.0000   1.0000   1.0000   1.0000   1.0000   1.0000   1.0000
     1.0000   1.0000  -0.0355  -0.0355  -0.0000  -0.0000  -0.0000  -0.0000

          k = 0.0000 0.0000 0.3516 ( 14158 PWs)   bands (ev):

   -32.0585 -30.2235 -13.3174 -13.2792 -13.2792 -12.7747 -12.7593 -12.7593
    -5.6880  -5.0124  -4.9799   3.7266   3.9208   3.9208   4.6836   4.8840
     4.8840   4.9127   6.3294   6.3294   7.6928   7.7619   8.5408   8.8051

     occupation numbers 
     1.0000   1.0000   1.0000   1.0000   1.0000   1.0000   1.0000   1.0000
     1.0000   1.0000   1.0000   1.0000   1.0000   1.0000   1.0000   1.0000
     1.0000   1.0000   0.1312   0.1312  -0.0000  -0.0000  -0.0000  -0.0000

          k = 0.0000 0.0000 0.4395 ( 14170 PWs)   bands (ev):

   -32.0585 -30.2235 -13.3262 -13.2789 -13.2789 -12.7784 -12.7593 -12.7593
    -5.6165  -5.0256  -4.9755   3.8309   3.9519   3.9519   4.4720   4.5508
     4.7594   4.7594   6.2622   6.2622   7.7364   7.9494   8.8216   9.1303

     occupation numbers 
     1.0000   1.0000   1.0000   1.0000   1.0000   1.0000   1.0000   1.0000
     1.0000   1.0000   1.0000   1.0000   1.0000   1.0000   1.0000   1.0000
     1.0000   1.0000   0.4967   0.4967  -0.0000  -0.0000  -0.0000  -0.0000

          k = 0.0000 0.0000-0.5274 ( 14190 PWs)   bands (ev):

   -32.0585 -30.2235 -13.3294 -13.2787 -13.2787 -12.7797 -12.7592 -12.7592
    -5.5886  -5.0321  -4.9738   3.9602   3.9650   3.9650   4.2250   4.5054
     4.7143   4.7143   6.2385   6.2385   7.7531   8.0255   8.9236   9.2578

     occupation numbers 
     1.0000   1.0000   1.0000   1.0000   1.0000   1.0000   1.0000   1.0000
     1.0000   1.0000   1.0000   1.0000   1.0000   1.0000   1.0000   1.0000
     1.0000   1.0000   0.6420   0.6420  -0.0000  -0.0000  -0.0000  -0.0000

          k = 0.0000 0.0879 0.0879 ( 14125 PWs)   bands (ev):

   -32.0587 -30.2237 -13.2841 -13.2838 -13.2805 -12.7614 -12.7606 -12.7597
    -5.8973  -4.9963  -4.9954   3.7373   3.8462   3.8948   5.2082   5.3780
     5.4952   6.3007   6.5661   6.5863   7.3241   7.3388   7.6238   7.7212

     occupation numbers 
     1.0000   1.0000   1.0000   1.0000   1.0000   1.0000   1.0000   1.0000
     1.0000   1.0000   1.0000   1.0000   1.0000   1.0000   1.0000   1.0000
     1.0000   0.2681  -0.0035  -0.0019  -0.0000  -0.0000  -0.0000  -0.0000

          k = 0.0000 0.0879 0.1758 ( 14150 PWs)   bands (ev):

   -32.0587 -30.2237 -13.2930 -13.2836 -13.2801 -12.7647 -12.7607 -12.7595
    -5.8401  -4.9962  -4.9915   3.6527   3.8657   3.9489   4.9334   5.2121
     5.4030   5.9118   6.4619   6.4893   7.4117   7.6225   7.6796   8.0065

     occupation numbers 
     1.0000   1.0000   1.0000   1.0000   1.0000   1.0000   1.0000   1.0000
     1.0000   1.0000   1.0000   1.0000   1.0000   1.0000   1.0000   1.0000
     1.0000   1.0008  -0.0289  -0.0197  -0.0000  -0.0000  -0.0000  -0.0000

          k = 0.0000 0.0879 0.2637 ( 14161 PWs)   bands (ev):

   -32.0586 -30.2236 -13.3053 -13.2832 -13.2797 -12.7695 -12.7605 -12.7594
    -5.7579  -4.9999  -4.9858   3.5971   3.8962   3.9943   4.6684   5.0181
     5.1966   5.4746   6.3449   6.3733   7.5804   7.7304   8.0142   8.4031

     occupation numbers 
     1.0000   1.0000   1.0000   1.0000   1.0000   1.0000   1.0000   1.0000
     1.0000   1.0000   1.0000   1.0000   1.0000   1.0000   1.0000   1.0000
     1.0000   1.0000   0.0749   0.0049  -0.0000  -0.0000  -0.0000  -0.0000

          k = 0.0000 0.0879 0.3516 ( 14170 PWs)   bands (ev):

   -32.0585 -30.2235 -13.3175 -13.2828 -13.2792 -12.7743 -12.7603 -12.7593
    -5.6692  -5.0094  -4.9801   3.6037   3.9330   4.0291   4.4476   4.8448
     4.8487   5.2040   6.2406   6.2686   7.7824   7.7923   8.4154   8.8258

     occupation numbers 
     1.0000   1.0000   1.0000   1.0000   1.0000   1.0000   1.0000   1.0000
     1.0000   1.0000   1.0000   1.0000   1.0000   1.0000   1.0000   1.0000
     1.0000   1.0000   0.6290   0.4568  -0.0000  -0.0000  -0.0000  -0.0000

          k = 0.0000 0.0879 0.4395 ( 14152 PWs)   bands (ev):

   -32.0585 -30.2235 -13.3263 -13.2825 -13.2788 -12.7778 -12.7601 -12.7592
    -5.5983  -5.0219  -4.9759   3.6926   3.9662   4.0164   4.3002   4.5178
     4.7237   5.0768   6.1695   6.1972   7.8226   7.9787   8.7432   9.0416

     occupation numbers 
     1.0000   1.0000   1.0000   1.0000   1.0000   1.0000   1.0000   1.0000
     1.0000   1.0000   1.0000   1.0000   1.0000   1.0000   1.0000   1.0000
     1.0000   1.0000   0.9518   0.8553  -0.0000  -0.0000  -0.0000  -0.0000

          k = 0.0000 0.0879-0.5274 ( 14170 PWs)   bands (ev):

   -32.0584 -30.2234 -13.3295 -13.2824 -13.2787 -12.7791 -12.7601 -12.7591
    -5.5706  -5.0282  -4.9743   3.8195   3.9104   3.9803   4.2782   4.3759
     4.6794   5.0355   6.1442   6.1720   7.8379   8.0554   8.8850   9.1030

     occupation numbers 
     1.0000   1.0000   1.0000   1.0000   1.0000   1.0000   1.0000   1.0000
     1.0000   1.0000   1.0000   1.0000   1.0000   1.0000   1.0000   1.0000
     1.0000   1.0000   1.0045   0.9447  -0.0000  -0.0000  -0.0000  -0.0000

          k = 0.0000 0.1758 0.1758 ( 14135 PWs)   bands (ev):

   -32.0586 -30.2236 -13.2934 -13.2923 -13.2798 -12.7654 -12.7629 -12.7594
    -5.7840  -4.9921  -4.9910   3.5284   3.8888   4.0573   4.6432   5.0714
     5.4698   5.6654   6.3324   6.3747   7.5226   7.6860   7.8643   8.1340

     occupation numbers 
     1.0000   1.0000   1.0000   1.0000   1.0000   1.0000   1.0000   1.0000
     1.0000   1.0000   1.0000   1.0000   1.0000   1.0000   1.0000   1.0000
     1.0000   1.0000   0.1194   0.0024  -0.0000  -0.0000  -0.0000  -0.0000

          k = 0.0000 0.1758 0.2637 ( 14144 PWs)   bands (ev):

   -32.0585 -30.2235 -13.3053 -13.2926 -13.2794 -12.7690 -12.7631 -12.7592
    -5.7034  -4.9942  -4.9859   3.4407   3.9248   4.1395   4.3746   4.9013
     5.2421   5.5086   6.1928   6.2373   7.6499   7.9659   7.9661   8.4482

     occupation numbers 
     1.0000   1.0000   1.0000   1.0000   1.0000   1.0000   1.0000   1.0000
     1.0000   1.0000   1.0000   1.0000   1.0000   1.0000   1.0000   1.0000
     1.0000   1.0000   0.8735   0.6492  -0.0000  -0.0000  -0.0000  -0.0000

          k = 0.0000 0.1758 0.3516 ( 14160 PWs)   bands (ev):

   -32.0585 -30.2235 -13.3176 -13.2924 -13.2789 -12.7733 -12.7628 -12.7590
    -5.6168  -5.0017  -4.9806   3.4145   3.9683   4.0991   4.2428   4.7449
     4.8589   5.4849   6.0526   6.1132   7.8487   8.0227   8.2867   8.8109

     occupation numbers 
     1.0000   1.0000   1.0000   1.0000   1.0000   1.0000   1.0000   1.0000
     1.0000   1.0000   1.0000   1.0000   1.0000   1.0000   1.0000   1.0000
     1.0000   1.0000   1.0260   1.0322  -0.0000  -0.0000  -0.0000  -0.0000

          k = 0.0000 0.1758 0.4395 ( 14172 PWs)   bands (ev):

   -32.0584 -30.2234 -13.3266 -13.2922 -13.2786 -12.7764 -12.7625 -12.7589
    -5.5480  -5.0120  -4.9768   3.4556   3.9081   4.0080   4.2945   4.5631
     4.6326   5.4723   5.9449   6.0285   8.0476   8.0592   8.5781   8.8955

     occupation numbers 
     1.0000   1.0000   1.0000   1.0000   1.0000   1.0000   1.0000   1.0000
     1.0000   1.0000   1.0000   1.0000   1.0000   1.0000   1.0000   1.0000
     1.0000   1.0000   1.0024   1.0179  -0.0000  -0.0000  -0.0000  -0.0000

          k = 0.0000 0.1758-0.5274 ( 14176 PWs)   bands (ev):

   -32.0584 -30.2234 -13.3299 -13.2921 -13.2785 -12.7776 -12.7624 -12.7588
    -5.5212  -5.0173  -4.9754   3.5057   3.8033   4.0252   4.3808   4.3930
     4.5905   5.4702   5.9034   5.9985   8.0724   8.1349   8.7912   8.8104

     occupation numbers 
     1.0000   1.0000   1.0000   1.0000   1.0000   1.0000   1.0000   1.0000
     1.0000   1.0000   1.0000   1.0000   1.0000   1.0000   1.0000   1.0000
     1.0000   1.0000   1.0006   1.0098  -0.0000  -0.0000  -0.0000  -0.0000

          k = 0.0000 0.2637 0.2637 ( 14143 PWs)   bands (ev):

   -32.0585 -30.2235 -13.3060 -13.3046 -13.2790 -12.7692 -12.7659 -12.7589
    -5.6257  -4.9890  -4.9859   3.3122   3.9691   4.1107   4.2616   4.7569
     5.1098   5.4915   6.0705   6.0930   7.7153   8.1322   8.2200   8.5760

     occupation numbers 
     1.0000   1.0000   1.0000   1.0000   1.0000   1.0000   1.0000   1.0000
     1.0000   1.0000   1.0000   1.0000   1.0000   1.0000   1.0000   1.0000
     1.0000   1.0000   1.0316   1.0354  -0.0000  -0.0000  -0.0000  -0.0000

          k = 0.0000 0.2637 0.3516 ( 14147 PWs)   bands (ev):

   -32.0584 -30.2234 -13.3179 -13.3053 -13.2786 -12.7720 -12.7661 -12.7587
    -5.5432  -4.9926  -4.9809   3.2315   3.8982   4.0228   4.3493   4.6212
     4.8520   5.5202   5.9174   6.0045   7.8611   8.3470   8.3584   8.7556

     occupation numbers 
     1.0000   1.0000   1.0000   1.0000   1.0000   1.0000   1.0000   1.0000
     1.0000   1.0000   1.0000   1.0000   1.0000   1.0000   1.0000   1.0000
     1.0000   1.0000   1.0010   1.0112  -0.0000  -0.0000  -0.0000  -0.0000

          k = 0.0000 0.2637 0.4395 ( 14151 PWs)   bands (ev):

   -32.0583 -30.2233 -13.3271 -13.3054 -13.2783 -12.7746 -12.7657 -12.7585
    -5.4783  -4.9990  -4.9773   3.2012   3.7463   4.0728   4.4155   4.5206
     4.6282   5.5723   5.8110   5.9110   8.0732   8.3943   8.5137   8.7442

     occupation numbers 
     1.0000   1.0000   1.0000   1.0000   1.0000   1.0000   1.0000   1.0000
     1.0000   1.0000   1.0000   1.0000   1.0000   1.0000   1.0000   1.0000
     1.0000   1.0000   1.0000   1.0008  -0.0000  -0.0000  -0.0000  -0.0000

          k = 0.0000 0.2637-0.5274 ( 14194 PWs)   bands (ev):

   -32.0583 -30.2233 -13.3304 -13.3054 -13.2782 -12.7756 -12.7655 -12.7584
    -5.4533  -5.0024  -4.9760   3.1982   3.6871   4.0953   4.4813   4.4904
     4.4932   5.6045   5.7730   5.8626   8.2102   8.4079   8.5326   8.7186

     occupation numbers 
     1.0000   1.0000   1.0000   1.0000   1.0000   1.0000   1.0000   1.0000
     1.0000   1.0000   1.0000   1.0000   1.0000   1.0000   1.0000   1.0000
     1.0000   1.0000   1.0000   1.0001  -0.0000  -0.0000  -0.0000  -0.0000

          k = 0.0000 0.3516 0.3516 ( 14163 PWs)   bands (ev):

   -32.0583 -30.2233 -13.3187 -13.3177 -13.2783 -12.7713 -12.7688 -12.7583
    -5.4664  -4.9873  -4.9793   3.0835   3.7290   4.0886   4.4551   4.5057
     4.7925   5.4007   5.7320   6.0909   7.9019   8.5456   8.6433   8.6550

     occupation numbers 
     1.0000   1.0000   1.0000   1.0000   1.0000   1.0000   1.0000   1.0000
     1.0000   1.0000   1.0000   1.0000   1.0000   1.0000   1.0000   1.0000
     1.0000   1.0000   1.0000   1.0353  -0.0000  -0.0000  -0.0000  -0.0000

          k = 0.0000 0.3516 0.4395 ( 14162 PWs)   bands (ev):

   -32.0583 -30.2233 -13.3275 -13.3184 -13.2780 -12.7728 -12.7689 -12.7581
    -5.4076  -4.9870  -4.9763   2.9903   3.6190   4.1509   4.4189   4.5349
     4.6938   5.3393   5.5988   6.1445   8.0329   8.4798   8.7137   8.7596

     occupation numbers 
     1.0000   1.0000   1.0000   1.0000   1.0000   1.0000   1.0000   1.0000
     1.0000   1.0000   1.0000   1.0000   1.0000   1.0000   1.0000   1.0000
     1.0000   1.0000   1.0000   1.0040  -0.0000  -0.0000  -0.0000  -0.0000

          k = 0.0000 0.3516-0.5274 ( 14124 PWs)   bands (ev):

   -32.0583 -30.2232 -13.3309 -13.3185 -13.2779 -12.7736 -12.7686 -12.7580
    -5.3853  -4.9873  -4.9753   2.9590   3.5798   4.1806   4.3829   4.5972
     4.6149   5.3257   5.5499   6.1594   8.1827   8.3174   8.7731   8.7797

     occupation numbers 
     1.0000   1.0000   1.0000   1.0000   1.0000   1.0000   1.0000   1.0000
     1.0000   1.0000   1.0000   1.0000   1.0000   1.0000   1.0000   1.0000
     1.0000   1.0000   1.0000   0.9767  -0.0000  -0.0000  -0.0000  -0.0000

          k = 0.0000 0.4395 0.4395 ( 14154 PWs)   bands (ev):

   -32.0582 -30.2232 -13.3280 -13.3276 -13.2778 -12.7717 -12.7709 -12.7578
    -5.3552  -4.9792  -4.9741   2.8553   3.5326   4.2233   4.3470   4.6333
     4.7297   5.1707   5.4399   6.2901   8.0392   8.3089   8.8342   9.0434

     occupation numbers 
     1.0000   1.0000   1.0000   1.0000   1.0000   1.0000   1.0000   1.0000
     1.0000   1.0000   1.0000   1.0000   1.0000   1.0000   1.0000   1.0000
     1.0000   1.0000   1.0000   0.3276  -0.0000  -0.0000  -0.0000  -0.0000

          k = 0.0000 0.4395-0.5274 ( 14156 PWs)   bands (ev):

   -32.0582 -30.2232 -13.3312 -13.3279 -13.2777 -12.7722 -12.7709 -12.7577
    -5.3359  -4.9762  -4.9733   2.8092   3.5012   4.2589   4.3163   4.6966
     4.7144   5.1133   5.3795   6.3366   8.0994   8.1828   8.8880   9.0963

     occupation numbers 
     1.0000   1.0000   1.0000   1.0000   1.0000   1.0000   1.0000   1.0000
     1.0000   1.0000   1.0000   1.0000   1.0000   1.0000   1.0000   1.0000
     1.0000   1.0000   1.0000   0.1034  -0.0000  -0.0000  -0.0000  -0.0000

          k = 0.0000-0.5274-0.5274 ( 14108 PWs)   bands (ev):

   -32.0582 -30.2232 -13.3314 -13.3314 -13.2777 -12.7717 -12.7717 -12.7576
    -5.3180  -4.9722  -4.9722   2.7583   3.4719   4.2929   4.2929   4.7531
     4.7531   5.0182   5.3134   6.3942   8.0611   8.1371   8.9392   9.2285

     occupation numbers 
     1.0000   1.0000   1.0000   1.0000   1.0000   1.0000   1.0000   1.0000
     1.0000   1.0000   1.0000   1.0000   1.0000   1.0000   1.0000   1.0000
     1.0000   1.0000   1.0000  -0.0222  -0.0000  -0.0000  -0.0000  -0.0000

          k = 0.0879 0.0879 0.0879 ( 14126 PWs)   bands (ev):

   -32.0587 -30.2237 -13.2840 -13.2840 -13.2835 -12.7617 -12.7605 -12.7605
    -5.8770  -4.9949  -4.9949   3.6708   3.9009   3.9009   5.1618   5.1618
     5.5860   6.1533   6.5399   6.5399   7.3517   7.3517   7.6711   7.9001

     occupation numbers 
     1.0000   1.0000   1.0000   1.0000   1.0000   1.0000   1.0000   1.0000
     1.0000   1.0000   1.0000   1.0000   1.0000   1.0000   1.0000   1.0000
     1.0000   0.9891  -0.0069  -0.0069  -0.0000  -0.0000  -0.0000  -0.0000

          k = 0.0879 0.0879 0.1758 ( 14146 PWs)   bands (ev):

   -32.0586 -30.2236 -13.2929 -13.2836 -13.2834 -12.7647 -12.7608 -12.7605
    -5.8201  -4.9947  -4.9910   3.5773   3.9188   3.9713   4.8693   5.0334
     5.5458   5.8081   6.4122   6.4630   7.4307   7.5611   7.7451   8.1055

     occupation numbers 
     1.0000   1.0000   1.0000   1.0000   1.0000   1.0000   1.0000   1.0000
     1.0000   1.0000   1.0000   1.0000   1.0000   1.0000   1.0000   1.0000
     1.0000   1.0000  -0.0329  -0.0285  -0.0000  -0.0000  -0.0000  -0.0000

          k = 0.0879 0.0879 0.2637 ( 14152 PWs)   bands (ev):

   -32.0586 -30.2236 -13.3053 -13.2831 -13.2831 -12.7693 -12.7605 -12.7603
    -5.7383  -4.9978  -4.9856   3.5164   3.9474   4.0243   4.6023   4.8412
     5.4036   5.4115   6.2579   6.3624   7.5844   7.8208   7.9299   8.3815

     occupation numbers 
     1.0000   1.0000   1.0000   1.0000   1.0000   1.0000   1.0000   1.0000
     1.0000   1.0000   1.0000   1.0000   1.0000   1.0000   1.0000   1.0000
     1.0000   1.0000   0.5236   0.0267  -0.0000  -0.0000  -0.0000  -0.0000

          k = 0.0879 0.0879 0.3516 ( 14161 PWs)   bands (ev):

   -32.0585 -30.2235 -13.3175 -13.2828 -13.2825 -12.7740 -12.7602 -12.7602
    -5.6502  -5.0067  -4.9802   3.5206   3.9849   4.0447   4.3891   4.5880
     5.1063   5.2511   6.1192   6.2701   7.7583   7.9152   8.3428   8.6798

     occupation numbers 
     1.0000   1.0000   1.0000   1.0000   1.0000   1.0000   1.0000   1.0000
     1.0000   1.0000   1.0000   1.0000   1.0000   1.0000   1.0000   1.0000
     1.0000   1.0000   1.0294   0.4474  -0.0000  -0.0000  -0.0000  -0.0000

          k = 0.0879 0.0879 0.4395 ( 14164 PWs)   bands (ev):

   -32.0584 -30.2234 -13.3264 -13.2826 -13.2821 -12.7774 -12.7601 -12.7599
    -5.5799  -5.0185  -4.9763   3.6096   3.9789   4.0283   4.2410   4.3614
     4.9500   5.1416   6.0233   6.2070   7.8552   8.0487   8.6941   8.9262

     occupation numbers 
     1.0000   1.0000   1.0000   1.0000   1.0000   1.0000   1.0000   1.0000
     1.0000   1.0000   1.0000   1.0000   1.0000   1.0000   1.0000   1.0000
     1.0000   1.0000   1.0163   0.8117  -0.0000  -0.0000  -0.0000  -0.0000

          k = 0.0879 0.0879-0.5274 ( 14174 PWs)   bands (ev):

   -32.0584 -30.2234 -13.3296 -13.2825 -13.2820 -12.7786 -12.7601 -12.7599
    -5.5524  -5.0245  -4.9748   3.7483   3.8259   4.0579   4.1770   4.2953
     4.9044   5.1022   5.9890   6.1846   7.8805   8.1174   8.8487   9.0257

     occupation numbers 
     1.0000   1.0000   1.0000   1.0000   1.0000   1.0000   1.0000   1.0000
     1.0000   1.0000   1.0000   1.0000   1.0000   1.0000   1.0000   1.0000
     1.0000   1.0000   1.0079   0.9042  -0.0000  -0.0000  -0.0000  -0.0000

          k = 0.0879 0.1758 0.1758 ( 14144 PWs)   bands (ev):

   -32.0586 -30.2236 -13.2932 -13.2923 -13.2832 -12.7653 -12.7628 -12.7604
    -5.7641  -4.9911  -4.9901   3.4624   3.9520   4.0569   4.6397   4.8909
     5.5398   5.6211   6.3165   6.3584   7.5282   7.5902   7.8538   8.3260

     occupation numbers 
     1.0000   1.0000   1.0000   1.0000   1.0000   1.0000   1.0000   1.0000
     1.0000   1.0000   1.0000   1.0000   1.0000   1.0000   1.0000   1.0000
     1.0000   1.0000   0.1879   0.0363  -0.0000  -0.0000  -0.0000  -0.0000

          k = 0.0879 0.1758 0.2637 ( 14146 PWs)   bands (ev):

   -32.0585 -30.2235 -13.3053 -13.2925 -13.2828 -12.7688 -12.7631 -12.7602
    -5.6838  -4.9927  -4.9855   3.3817   3.9718   4.1272   4.3915   4.7465
     5.2302   5.5832   6.1506   6.2499   7.6469   7.8530   7.9833   8.5123

     occupation numbers 
     1.0000   1.0000   1.0000   1.0000   1.0000   1.0000   1.0000   1.0000
     1.0000   1.0000   1.0000   1.0000   1.0000   1.0000   1.0000   1.0000
     1.0000   1.0000   0.9941   0.5727  -0.0000  -0.0000  -0.0000  -0.0000

          k = 0.0879 0.1758 0.3516 ( 14163 PWs)   bands (ev):

   -32.0584 -30.2234 -13.3176 -13.2922 -13.2824 -12.7730 -12.7627 -12.7599
    -5.5976  -4.9996  -4.9807   3.3652   3.9620   4.1246   4.2275   4.5503
     5.0239   5.5165   5.9621   6.1563   7.8175   8.0670   8.2502   8.6813

     occupation numbers 
     1.0000   1.0000   1.0000   1.0000   1.0000   1.0000   1.0000   1.0000
     1.0000   1.0000   1.0000   1.0000   1.0000   1.0000   1.0000   1.0000
     1.0000   1.0000   1.0040   0.9832  -0.0000  -0.0000  -0.0000  -0.0000

          k = 0.0879 0.1758 0.4395 ( 14175 PWs)   bands (ev):

   -32.0584 -30.2234 -13.3266 -13.2921 -13.2821 -12.7760 -12.7624 -12.7598
    -5.5291  -5.0094  -4.9772   3.4240   3.8376   4.0913   4.1641   4.3997
     4.9429   5.4817   5.8031   6.0923   7.9511   8.2121   8.5647   8.8045

     occupation numbers 
     1.0000   1.0000   1.0000   1.0000   1.0000   1.0000   1.0000   1.0000
     1.0000   1.0000   1.0000   1.0000   1.0000   1.0000   1.0000   1.0000
     1.0000   1.0000   1.0000   1.0354  -0.0000  -0.0000  -0.0000  -0.0000

          k = 0.0879 0.1758-0.5274 ( 14192 PWs)   bands (ev):

   -32.0584 -30.2234 -13.3299 -13.2920 -13.2820 -12.7772 -12.7623 -12.7597
    -5.5024  -5.0145  -4.9759   3.4990   3.7176   4.0925   4.1298   4.3597
     4.9237   5.4805   5.7334   6.0696   7.9935   8.2882   8.7602   8.7840

     occupation numbers 
     1.0000   1.0000   1.0000   1.0000   1.0000   1.0000   1.0000   1.0000
     1.0000   1.0000   1.0000   1.0000   1.0000   1.0000   1.0000   1.0000
     1.0000   1.0000   1.0000   1.0313  -0.0000  -0.0000  -0.0000  -0.0000

          k = 0.0879 0.2637 0.2637 ( 14147 PWs)   bands (ev):

   -32.0584 -30.2234 -13.3058 -13.3046 -13.2824 -12.7689 -12.7659 -12.7599
    -5.6061  -4.9877  -4.9855   3.2706   3.9390   4.2048   4.2100   4.6963
     4.9951   5.6221   6.0828   6.0828   7.7240   7.9955   8.1315   8.7327

     occupation numbers 
     1.0000   1.0000   1.0000   1.0000   1.0000   1.0000   1.0000   1.0000
     1.0000   1.0000   1.0000   1.0000   1.0000   1.0000   1.0000   1.0000
     1.0000   1.0000   1.0344   1.0344  -0.0000  -0.0000  -0.0000  -0.0000

          k = 0.0879 0.2637 0.3516 ( 14151 PWs)   bands (ev):

   -32.0584 -30.2234 -13.3178 -13.3052 -13.2821 -12.7717 -12.7661 -12.7596
    -5.5236  -4.9912  -4.9810   3.2096   3.8151   4.1400   4.2201   4.6012
     4.8704   5.5784   5.9342   6.0110   7.8651   8.1832   8.3515   8.7767

     occupation numbers 
     1.0000   1.0000   1.0000   1.0000   1.0000   1.0000   1.0000   1.0000
     1.0000   1.0000   1.0000   1.0000   1.0000   1.0000   1.0000   1.0000
     1.0000   1.0000   1.0017   1.0129  -0.0000  -0.0000  -0.0000  -0.0000

          k = 0.0879 0.2637 0.4395 ( 14173 PWs)   bands (ev):

   -32.0583 -30.2233 -13.3270 -13.3052 -13.2818 -12.7743 -12.7656 -12.7594
    -5.4587  -4.9974  -4.9777   3.2014   3.6780   4.1196   4.1713   4.5065
     4.8855   5.5069   5.8606   5.9290   8.0512   8.3147   8.6023   8.6955

     occupation numbers 
     1.0000   1.0000   1.0000   1.0000   1.0000   1.0000   1.0000   1.0000
     1.0000   1.0000   1.0000   1.0000   1.0000   1.0000   1.0000   1.0000
     1.0000   1.0000   1.0001   1.0015  -0.0000  -0.0000  -0.0000  -0.0000

          k = 0.0879 0.2637-0.5274 ( 14166 PWs)   bands (ev):

   -32.0583 -30.2233 -13.3303 -13.3052 -13.2817 -12.7753 -12.7655 -12.7593
    -5.4337  -5.0007  -4.9767   3.2115   3.6152   4.0996   4.1515   4.4809
     4.9069   5.4688   5.8636   5.8724   8.1381   8.4793   8.5191   8.7195

     occupation numbers 
     1.0000   1.0000   1.0000   1.0000   1.0000   1.0000   1.0000   1.0000
     1.0000   1.0000   1.0000   1.0000   1.0000   1.0000   1.0000   1.0000
     1.0000   1.0000   1.0001   1.0002  -0.0000  -0.0000  -0.0000  -0.0000

          k = 0.0879 0.3516 0.3516 ( 14157 PWs)   bands (ev):

   -32.0583 -30.2233 -13.3184 -13.3176 -13.2817 -12.7711 -12.7688 -12.7593
    -5.4464  -4.9866  -4.9794   3.0844   3.6646   4.1296   4.2131   4.6889
     4.7479   5.4862   5.7621   6.1006   7.9094   8.4154   8.4438   8.8169

     occupation numbers 
     1.0000   1.0000   1.0000   1.0000   1.0000   1.0000   1.0000   1.0000
     1.0000   1.0000   1.0000   1.0000   1.0000   1.0000   1.0000   1.0000
     1.0000   1.0000   1.0000   1.0352  -0.0000  -0.0000  -0.0000  -0.0000

          k = 0.0879 0.3516 0.4395 ( 14171 PWs)   bands (ev):

   -32.0583 -30.2232 -13.3273 -13.3181 -13.2814 -12.7726 -12.7688 -12.7590
    -5.3872  -4.9864  -4.9768   3.0071   3.5622   4.1148   4.1651   4.6545
     4.8450   5.3518   5.6500   6.1581   8.0379   8.4189   8.6040   8.8087

     occupation numbers 
     1.0000   1.0000   1.0000   1.0000   1.0000   1.0000   1.0000   1.0000
     1.0000   1.0000   1.0000   1.0000   1.0000   1.0000   1.0000   1.0000
     1.0000   1.0000   1.0000   0.9794  -0.0000  -0.0000  -0.0000  -0.0000

          k = 0.0879 0.3516-0.5274 ( 14162 PWs)   bands (ev):

   -32.0582 -30.2232 -13.3307 -13.3182 -13.2813 -12.7735 -12.7686 -12.7589
    -5.3648  -4.9868  -4.9760   2.9818   3.5251   4.1078   4.1375   4.6408
     4.9254   5.2598   5.6215   6.1734   8.1820   8.3064   8.6177   8.8821

     occupation numbers 
     1.0000   1.0000   1.0000   1.0000   1.0000   1.0000   1.0000   1.0000
     1.0000   1.0000   1.0000   1.0000   1.0000   1.0000   1.0000   1.0000
     1.0000   1.0000   1.0000   0.9406  -0.0000  -0.0000  -0.0000  -0.0000

          k = 0.0879 0.4395 0.4395 ( 14162 PWs)   bands (ev):

   -32.0582 -30.2232 -13.3277 -13.3274 -13.2812 -12.7717 -12.7710 -12.7588
    -5.3343  -4.9794  -4.9747   2.8806   3.4867   4.1033   4.1351   4.8167
     4.8400   5.2356   5.4576   6.3062   8.0455   8.2999   8.7478   8.9721

     occupation numbers 
     1.0000   1.0000   1.0000   1.0000   1.0000   1.0000   1.0000   1.0000
     1.0000   1.0000   1.0000   1.0000   1.0000   1.0000   1.0000   1.0000
     1.0000   1.0000   1.0000   0.2388  -0.0000  -0.0000  -0.0000  -0.0000

          k = 0.0879 0.4395-0.5274 ( 14162 PWs)   bands (ev):

   -32.0582 -30.2232 -13.3310 -13.3276 -13.2811 -12.7722 -12.7709 -12.7587
    -5.3148  -4.9766  -4.9740   2.8371   3.4594   4.1040   4.1123   4.8231
     4.9649   5.1253   5.3930   6.3531   8.1127   8.1719   8.8117   9.0660

     occupation numbers 
     1.0000   1.0000   1.0000   1.0000   1.0000   1.0000   1.0000   1.0000
     1.0000   1.0000   1.0000   1.0000   1.0000   1.0000   1.0000   1.0000
     1.0000   1.0000   1.0000   0.0504  -0.0000  -0.0000  -0.0000  -0.0000

          k = 0.0879-0.5274-0.5274 ( 14156 PWs)   bands (ev):

   -32.0582 -30.2231 -13.3311 -13.3311 -13.2810 -12.7717 -12.7717 -12.7586
    -5.2967  -4.9729  -4.9729   2.7879   3.4348   4.1004   4.1004   4.9850
     4.9850   5.0200   5.2768   6.4112   8.0756   8.1260   8.8989   9.1516

     occupation numbers 
     1.0000   1.0000   1.0000   1.0000   1.0000   1.0000   1.0000   1.0000
     1.0000   1.0000   1.0000   1.0000   1.0000   1.0000   1.0000   1.0000
     1.0000   1.0000   1.0000  -0.0326  -0.0000  -0.0000  -0.0000  -0.0000

          k = 0.1758 0.1758 0.1758 ( 14120 PWs)   bands (ev):

   -32.0585 -30.2235 -13.2927 -13.2927 -13.2921 -12.7653 -12.7627 -12.7627
    -5.7086  -4.9884  -4.9884   3.3506   4.0502   4.0502   4.6293   4.6293
     5.2528   5.7705   6.2711   6.2711   7.5695   7.5695   7.8720   8.6539

     occupation numbers 
     1.0000   1.0000   1.0000   1.0000   1.0000   1.0000   1.0000   1.0000
     1.0000   1.0000   1.0000   1.0000   1.0000   1.0000   1.0000   1.0000
     1.0000   1.0000   0.4416   0.4416  -0.0000  -0.0000  -0.0000  -0.0000

          k = 0.1758 0.1758 0.2637 ( 14159 PWs)   bands (ev):

   -32.0585 -30.2235 -13.3051 -13.2923 -13.2921 -12.7682 -12.7631 -12.7626
    -5.6292  -4.9889  -4.9847   3.2711   4.0172   4.0855   4.4341   4.5785
     4.9936   5.7799   6.0975   6.2006   7.6720   7.7674   7.9604   8.7435

     occupation numbers 
     1.0000   1.0000   1.0000   1.0000   1.0000   1.0000   1.0000   1.0000
     1.0000   1.0000   1.0000   1.0000   1.0000   1.0000   1.0000   1.0000
     1.0000   1.0000   1.0354   0.8407  -0.0000  -0.0000  -0.0000  -0.0000

          k = 0.1758 0.1758 0.3516 ( 14175 PWs)   bands (ev):

   -32.0584 -30.2234 -13.3176 -13.2924 -13.2915 -12.7721 -12.7625 -12.7625
    -5.5443  -4.9940  -4.9810   3.2581   3.9432   3.9891   4.3437   4.4194
     4.9792   5.7062   5.8714   6.1267   7.8167   8.1106   8.1204   8.7782

     occupation numbers 
     1.0000   1.0000   1.0000   1.0000   1.0000   1.0000   1.0000   1.0000
     1.0000   1.0000   1.0000   1.0000   1.0000   1.0000   1.0000   1.0000
     1.0000   1.0000   1.0002   1.0243  -0.0000  -0.0000  -0.0000  -0.0000

          k = 0.1758 0.1758 0.4395 ( 14164 PWs)   bands (ev):

   -32.0583 -30.2233 -13.3267 -13.2924 -13.2910 -12.7750 -12.7624 -12.7619
    -5.4770  -5.0023  -4.9782   3.3272   3.7642   3.8688   4.3135   4.3215
     5.1143   5.6300   5.6370   6.0747   7.9356   8.3391   8.4734   8.7507

     occupation numbers 
     1.0000   1.0000   1.0000   1.0000   1.0000   1.0000   1.0000   1.0000
     1.0000   1.0000   1.0000   1.0000   1.0000   1.0000   1.0000   1.0000
     1.0000   1.0000   1.0000   1.0327  -0.0000  -0.0000  -0.0000  -0.0000

          k = 0.1758 0.1758-0.5274 ( 14180 PWs)   bands (ev):

   -32.0583 -30.2233 -13.3300 -13.2924 -13.2908 -12.7761 -12.7624 -12.7617
    -5.4508  -5.0067  -4.9772   3.4293   3.5908   3.8395   4.2848   4.3194
     5.2305   5.4910   5.5994   6.0564   7.9783   8.5046   8.6717   8.6775

     occupation numbers 
     1.0000   1.0000   1.0000   1.0000   1.0000   1.0000   1.0000   1.0000
     1.0000   1.0000   1.0000   1.0000   1.0000   1.0000   1.0000   1.0000
     1.0000   1.0000   1.0000   1.0273  -0.0000  -0.0000  -0.0000  -0.0000

          k = 0.1758 0.2637 0.2637 ( 14162 PWs)   bands (ev):

   -32.0584 -30.2234 -13.3052 -13.3047 -13.2919 -12.7681 -12.7658 -12.7625
    -5.5517  -4.9850  -4.9844   3.1826   3.9114   4.0612   4.3796   4.6361
     4.7205   5.8635   6.0558   6.0809   7.7556   7.8317   8.0068   8.9638

     occupation numbers 
     1.0000   1.0000   1.0000   1.0000   1.0000   1.0000   1.0000   1.0000
     1.0000   1.0000   1.0000   1.0000   1.0000   1.0000   1.0000   1.0000
     1.0000   1.0001   1.0271   1.0340  -0.0000  -0.0000  -0.0000  -0.0000

          k = 0.1758 0.2637 0.3516 ( 14183 PWs)   bands (ev):

   -32.0583 -30.2233 -13.3176 -13.3048 -13.2915 -12.7710 -12.7659 -12.7622
    -5.4693  -4.9877  -4.9811   3.1508   3.7511   3.9719   4.2620   4.5483
     4.8429   5.7630   5.9634   6.0232   7.8783   8.0432   8.1651   8.9460

     occupation numbers 
     1.0000   1.0000   1.0000   1.0000   1.0000   1.0000   1.0000   1.0000
     1.0000   1.0000   1.0000   1.0000   1.0000   1.0000   1.0000   1.0000
     1.0000   1.0000   1.0041   1.0163  -0.0000  -0.0000  -0.0000  -0.0000

          k = 0.1758 0.2637 0.4395 ( 14184 PWs)   bands (ev):

   -32.0583 -30.2233 -13.3267 -13.3047 -13.2912 -12.7736 -12.7655 -12.7619
    -5.4046  -4.9930  -4.9790   3.1868   3.5852   3.8345   4.1832   4.5247
     5.0597   5.5425   5.9256   5.9688   8.0063   8.2546   8.4537   8.8130

     occupation numbers 
     1.0000   1.0000   1.0000   1.0000   1.0000   1.0000   1.0000   1.0000
     1.0000   1.0000   1.0000   1.0000   1.0000   1.0000   1.0000   1.0000
     1.0000   1.0000   1.0013   1.0047  -0.0000  -0.0000  -0.0000  -0.0000

          k = 0.1758 0.2637-0.5274 ( 14174 PWs)   bands (ev):

   -32.0583 -30.2232 -13.3301 -13.3047 -13.2911 -12.7746 -12.7654 -12.7617
    -5.3796  -4.9961  -4.9782   3.2391   3.4803   3.7791   4.1618   4.5244
     5.2867   5.3086   5.9192   5.9404   8.0532   8.4675   8.5390   8.7356

     occupation numbers 
     1.0000   1.0000   1.0000   1.0000   1.0000   1.0000   1.0000   1.0000
     1.0000   1.0000   1.0000   1.0000   1.0000   1.0000   1.0000   1.0000
     1.0000   1.0000   1.0011   1.0021  -0.0000  -0.0000  -0.0000  -0.0000

          k = 0.1758 0.3516 0.3516 ( 14203 PWs)   bands (ev):

   -32.0583 -30.2232 -13.3178 -13.3174 -13.2911 -12.7705 -12.7688 -12.7619
    -5.3911  -4.9846  -4.9798   3.0769   3.5736   3.9478   4.0906   4.7195
     4.8103   5.6909   5.8356   6.1392   7.9308   8.2021   8.2291   8.9281

     occupation numbers 
     1.0000   1.0000   1.0000   1.0000   1.0000   1.0000   1.0000   1.0000
     1.0000   1.0000   1.0000   1.0000   1.0000   1.0000   1.0000   1.0000
     1.0000   1.0000   1.0000   1.0115  -0.0000  -0.0000  -0.0000  -0.0000

          k = 0.1758 0.3516 0.4395 ( 14189 PWs)   bands (ev):

   -32.0582 -30.2232 -13.3268 -13.3175 -13.2907 -12.7723 -12.7688 -12.7616
    -5.3310  -4.9850  -4.9782   3.0472   3.4470   3.8506   4.0146   4.7431
     4.9935   5.5082   5.7671   6.2026   8.0491   8.2662   8.4482   8.7986

     occupation numbers 
     1.0000   1.0000   1.0000   1.0000   1.0000   1.0000   1.0000   1.0000
     1.0000   1.0000   1.0000   1.0000   1.0000   1.0000   1.0000   1.0000
     1.0000   1.0000   1.0000   0.8318  -0.0000  -0.0000  -0.0000  -0.0000

          k = 0.1758 0.3516-0.5274 ( 14158 PWs)   bands (ev):

   -32.0582 -30.2232 -13.3302 -13.3175 -13.2906 -12.7732 -12.7686 -12.7615
    -5.3082  -4.9855  -4.9778   3.0445   3.3965   3.7952   4.0036   4.7453
     5.1616   5.3362   5.7556   6.2175   8.1651   8.2671   8.4735   8.8862

     occupation numbers 
     1.0000   1.0000   1.0000   1.0000   1.0000   1.0000   1.0000   1.0000
     1.0000   1.0000   1.0000   1.0000   1.0000   1.0000   1.0000   1.0000
     1.0000   1.0000   1.0000   0.7591  -0.0000  -0.0000  -0.0000  -0.0000

          k = 0.1758 0.4395 0.4395 ( 14177 PWs)   bands (ev):

   -32.0581 -30.2231 -13.3269 -13.3268 -13.2904 -12.7715 -12.7710 -12.7614
    -5.2764  -4.9801  -4.9762   2.9499   3.3693   3.8559   3.8820   4.9571
     4.9724   5.4775   5.5761   6.3539   8.0543   8.2688   8.5535   8.7938

     occupation numbers 
     1.0000   1.0000   1.0000   1.0000   1.0000   1.0000   1.0000   1.0000
     1.0000   1.0000   1.0000   1.0000   1.0000   1.0000   1.0000   1.0000
     1.0000   1.0000   1.0000   0.0480  -0.0000  -0.0000  -0.0000  -0.0000

          k = 0.1758 0.4395-0.5274 ( 14176 PWs)   bands (ev):

   -32.0581 -30.2231 -13.3302 -13.3269 -13.2903 -12.7721 -12.7709 -12.7613
    -5.2563  -4.9776  -4.9760   2.9158   3.3439   3.8155   3.8730   4.9536
     5.1207   5.3642   5.5383   6.4008   8.1324   8.1490   8.6292   8.9426

     occupation numbers 
     1.0000   1.0000   1.0000   1.0000   1.0000   1.0000   1.0000   1.0000
     1.0000   1.0000   1.0000   1.0000   1.0000   1.0000   1.0000   1.0000
     1.0000   1.0000   1.0000  -0.0273  -0.0000  -0.0000  -0.0000  -0.0000

          k = 0.1758-0.5274-0.5274 ( 14200 PWs)   bands (ev):

   -32.0581 -30.2231 -13.3303 -13.3303 -13.2901 -12.7718 -12.7718 -12.7612
    -5.2376  -4.9748  -4.9748   2.8715   3.3258   3.8232   3.8232   5.0248
     5.1945   5.3777   5.3777   6.4600   8.0857   8.1163   8.7878   8.9387

     occupation numbers 
     1.0000   1.0000   1.0000   1.0000   1.0000   1.0000   1.0000   1.0000
     1.0000   1.0000   1.0000   1.0000   1.0000   1.0000   1.0000   1.0000
     1.0000   1.0000   1.0000  -0.0295  -0.0000  -0.0000  -0.0000  -0.0000

          k = 0.2637 0.2637 0.2637 ( 14186 PWs)   bands (ev):

   -32.0583 -30.2233 -13.3049 -13.3045 -13.3045 -12.7675 -12.7657 -12.7657
    -5.4745  -4.9829  -4.9829   3.1073   3.8765   3.8765   4.3441   4.6299
     4.6299   6.0168   6.0168   6.0457   7.8171   7.8171   7.9598   9.1093

     occupation numbers 
     1.0000   1.0000   1.0000   1.0000   1.0000   1.0000   1.0000   1.0000
     1.0000   1.0000   1.0000   1.0000   1.0000   1.0000   1.0000   1.0000
     1.0000   1.0144   1.0144   1.0236  -0.0000  -0.0000  -0.0000  -0.0000

          k = 0.2637 0.2637 0.3516 ( 14199 PWs)   bands (ev):

   -32.0583 -30.2232 -13.3172 -13.3049 -13.3037 -12.7701 -12.7657 -12.7657
    -5.3931  -4.9837  -4.9813   3.0846   3.7188   3.7567   4.1053   4.6492
     4.8370   5.8800   5.9845   6.0978   7.9096   7.9945   8.0268   9.0700

     occupation numbers 
     1.0000   1.0000   1.0000   1.0000   1.0000   1.0000   1.0000   1.0000
     1.0000   1.0000   1.0000   1.0000   1.0000   1.0000   1.0000   1.0000
     1.0000   1.0003   1.0071   1.0354  -0.0000  -0.0000  -0.0000  -0.0000

          k = 0.2637 0.2637 0.4395 ( 14196 PWs)   bands (ev):

   -32.0582 -30.2232 -13.3264 -13.3049 -13.3031 -12.7727 -12.7656 -12.7650
    -5.3294  -4.9874  -4.9802   3.1357   3.5211   3.6167   4.0238   4.6712
     5.0447   5.7021   5.9603   6.0802   8.0000   8.2005   8.2865   8.9623

     occupation numbers 
     1.0000   1.0000   1.0000   1.0000   1.0000   1.0000   1.0000   1.0000
     1.0000   1.0000   1.0000   1.0000   1.0000   1.0000   1.0000   1.0000
     1.0000   1.0000   1.0038   1.0339  -0.0000  -0.0000  -0.0000  -0.0000

          k = 0.2637 0.2637-0.5274 ( 14170 PWs)   bands (ev):

   -32.0582 -30.2232 -13.3298 -13.3050 -13.3029 -12.7736 -12.7656 -12.7647
    -5.3049  -4.9899  -4.9798   3.2274   3.3506   3.5816   4.0082   4.6806
     5.1598   5.5932   5.9517   6.0650   8.0338   8.3534   8.5027   8.8033

     occupation numbers 
     1.0000   1.0000   1.0000   1.0000   1.0000   1.0000   1.0000   1.0000
     1.0000   1.0000   1.0000   1.0000   1.0000   1.0000   1.0000   1.0000
     1.0000   1.0000   1.0029   1.0300  -0.0000  -0.0000  -0.0000  -0.0000

          k = 0.2637 0.3516 0.3516 ( 14195 PWs)   bands (ev):

   -32.0582 -30.2232 -13.3171 -13.3168 -13.3037 -12.7697 -12.7688 -12.7653
    -5.3137  -4.9823  -4.9804   3.0497   3.5396   3.7192   3.8691   4.8058
     4.8805   5.8814   5.9204   6.2334   7.9630   8.0452   8.0523   8.9764

     occupation numbers 
     1.0000   1.0000   1.0000   1.0000   1.0000   1.0000   1.0000   1.0000
     1.0000   1.0000   1.0000   1.0000   1.0000   1.0000   1.0000   1.0000
     1.0000   1.0003   1.0011   0.6716  -0.0000  -0.0000  -0.0000  -0.0000

          k = 0.2637 0.3516 0.4395 ( 14165 PWs)   bands (ev):

   -32.0581 -30.2231 -13.3261 -13.3167 -13.3033 -12.7718 -12.7687 -12.7651
    -5.2527  -4.9830  -4.9799   3.0724   3.3637   3.6032   3.8054   4.8539
     5.0189   5.7822   5.9071   6.2892   8.0566   8.1104   8.2717   8.7685

     occupation numbers 
     1.0000   1.0000   1.0000   1.0000   1.0000   1.0000   1.0000   1.0000
     1.0000   1.0000   1.0000   1.0000   1.0000   1.0000   1.0000   1.0000
     1.0000   1.0000   1.0007   0.3327  -0.0000  -0.0000  -0.0000  -0.0000

          k = 0.2637 0.3516-0.5274 ( 14190 PWs)   bands (ev):

   -32.0581 -30.2231 -13.3294 -13.3167 -13.3032 -12.7727 -12.7685 -12.7649
    -5.2295  -4.9836  -4.9801   3.1272   3.2486   3.5478   3.8039   4.8641
     5.0947   5.7188   5.9070   6.2992   8.1086   8.1926   8.4076   8.6979

     occupation numbers 
     1.0000   1.0000   1.0000   1.0000   1.0000   1.0000   1.0000   1.0000
     1.0000   1.0000   1.0000   1.0000   1.0000   1.0000   1.0000   1.0000
     1.0000   1.0000   1.0007   0.2760  -0.0000  -0.0000  -0.0000  -0.0000

          k = 0.2637 0.4395 0.4395 ( 14185 PWs)   bands (ev):

   -32.0581 -30.2231 -13.3259 -13.3258 -13.3028 -12.7713 -12.7710 -12.7649
    -5.1957  -4.9809  -4.9782   3.0355   3.2359   3.6200   3.6477   5.0055
     5.0153   5.8151   5.8296   6.4302   8.0340   8.2145   8.3340   8.6017

     occupation numbers 
     1.0000   1.0000   1.0000   1.0000   1.0000   1.0000   1.0000   1.0000
     1.0000   1.0000   1.0000   1.0000   1.0000   1.0000   1.0000   1.0000
     1.0000   1.0000   1.0000  -0.0354  -0.0000  -0.0000  -0.0000  -0.0000

          k = 0.2637 0.4395-0.5274 ( 14180 PWs)   bands (ev):

   -32.0581 -30.2230 -13.3292 -13.3258 -13.3027 -12.7721 -12.7710 -12.7648
    -5.1747  -4.9790  -4.9786   3.0291   3.1842   3.5732   3.6454   5.0055
     5.0823   5.7767   5.8356   6.4743   8.0613   8.1924   8.4142   8.6488

     occupation numbers 
     1.0000   1.0000   1.0000   1.0000   1.0000   1.0000   1.0000   1.0000
     1.0000   1.0000   1.0000   1.0000   1.0000   1.0000   1.0000   1.0000
     1.0000   1.0000   1.0000  -0.0248  -0.0000  -0.0000  -0.0000  -0.0000

          k = 0.2637-0.5274-0.5274 ( 14168 PWs)   bands (ev):

   -32.0580 -30.2230 -13.3291 -13.3291 -13.3025 -12.7718 -12.7718 -12.7648
    -5.1550  -4.9773  -4.9773   2.9928   3.1622   3.5867   3.5867   5.0314
     5.1163   5.7967   5.7967   6.5330   8.0126   8.1740   8.6342   8.6342

     occupation numbers 
     1.0000   1.0000   1.0000   1.0000   1.0000   1.0000   1.0000   1.0000
     1.0000   1.0000   1.0000   1.0000   1.0000   1.0000   1.0000   1.0000
     1.0000   1.0000   1.0000  -0.0082  -0.0000  -0.0000  -0.0000  -0.0000

          k = 0.3516 0.3516 0.3516 ( 14192 PWs)   bands (ev):

   -32.0581 -30.2231 -13.3171 -13.3159 -13.3159 -12.7689 -12.7688 -12.7688
    -5.2336  -4.9810  -4.9810   3.0264   3.5466   3.5466   3.5967   4.9271
     4.9271   5.9829   5.9829   6.3553   7.9522   8.0240   8.0240   8.9492

     occupation numbers 
     1.0000   1.0000   1.0000   1.0000   1.0000   1.0000   1.0000   1.0000
     1.0000   1.0000   1.0000   1.0000   1.0000   1.0000   1.0000   1.0000
     1.0000   1.0068   1.0068   0.0443  -0.0000  -0.0000  -0.0000  -0.0000

          k = 0.3516 0.3516 0.4395 ( 14181 PWs)   bands (ev):

   -32.0581 -30.2230 -13.3254 -13.3165 -13.3152 -12.7714 -12.7688 -12.7683
    -5.1725  -4.9814  -4.9812   3.0476   3.3317   3.4399   3.5901   4.9564
     5.0240   6.0043   6.0342   6.4172   8.0010   8.0628   8.1669   8.7112

     occupation numbers 
     1.0000   1.0000   1.0000   1.0000   1.0000   1.0000   1.0000   1.0000
     1.0000   1.0000   1.0000   1.0000   1.0000   1.0000   1.0000   1.0000
     1.0000   1.0112   1.0198  -0.0343  -0.0000  -0.0000  -0.0000  -0.0000

          k = 0.3516 0.3516-0.5274 ( 14176 PWs)   bands (ev):

   -32.0580 -30.2230 -13.3287 -13.3164 -13.3149 -12.7723 -12.7688 -12.7681
    -5.1494  -4.9818  -4.9815   3.1157   3.1805   3.4038   3.6025   4.9667
     5.0618   6.0044   6.0526   6.4277   8.0734   8.0860   8.3803   8.4712

     occupation numbers 
     1.0000   1.0000   1.0000   1.0000   1.0000   1.0000   1.0000   1.0000
     1.0000   1.0000   1.0000   1.0000   1.0000   1.0000   1.0000   1.0000
     1.0000   1.0112   1.0260  -0.0355  -0.0000  -0.0000  -0.0000  -0.0000

          k = 0.3516 0.4395 0.4395 ( 14188 PWs)   bands (ev):

   -32.0580 -30.2230 -13.3251 -13.3248 -13.3152 -12.7711 -12.7711 -12.7684
    -5.1128  -4.9817  -4.9803   3.0213   3.2152   3.4438   3.4446   5.0280
     5.0289   6.1198   6.1301   6.5255   7.9601   8.1433   8.1529   8.4937

     occupation numbers 
     1.0000   1.0000   1.0000   1.0000   1.0000   1.0000   1.0000   1.0000
     1.0000   1.0000   1.0000   1.0000   1.0000   1.0000   1.0000   1.0000
     1.0000   1.0290   1.0214  -0.0097  -0.0000  -0.0000  -0.0000  -0.0000

          k = 0.3516 0.4395-0.5274 ( 14188 PWs)   bands (ev):

   -32.0580 -30.2230 -13.3282 -13.3247 -13.3150 -12.7720 -12.7710 -12.7684
    -5.0909  -4.9811  -4.9804   3.0209   3.1494   3.3955   3.4608   5.0302
     5.0551   6.1576   6.1627   6.5618   7.9750   8.1447   8.3064   8.3345

     occupation numbers 
     1.0000   1.0000   1.0000   1.0000   1.0000   1.0000   1.0000   1.0000
     1.0000   1.0000   1.0000   1.0000   1.0000   1.0000   1.0000   1.0000
     1.0000   0.9806   0.9691  -0.0039  -0.0000  -0.0000  -0.0000  -0.0000

          k = 0.3516-0.5274-0.5274 ( 14188 PWs)   bands (ev):

   -32.0580 -30.2229 -13.3280 -13.3280 -13.3147 -12.7719 -12.7719 -12.7684
    -5.0701  -4.9799  -4.9799   2.9858   3.1239   3.4110   3.4110   5.0380
     5.0689   6.2047   6.2047   6.6156   7.9254   8.2347   8.2918   8.2918

     occupation numbers 
     1.0000   1.0000   1.0000   1.0000   1.0000   1.0000   1.0000   1.0000
     1.0000   1.0000   1.0000   1.0000   1.0000   1.0000   1.0000   1.0000
     1.0000   0.8223   0.8223  -0.0007  -0.0000  -0.0000  -0.0000  -0.0000

          k = 0.4395 0.4395 0.4395 ( 14172 PWs)   bands (ev):

   -32.0580 -30.2229 -13.3246 -13.3240 -13.3240 -12.7711 -12.7711 -12.7709
    -5.0511  -4.9818  -4.9818   2.9339   3.2534   3.3370   3.3370   5.0401
     5.0401   6.3531   6.3531   6.6108   7.8964   8.0691   8.0691   8.4476

     occupation numbers 
     1.0000   1.0000   1.0000   1.0000   1.0000   1.0000   1.0000   1.0000
     1.0000   1.0000   1.0000   1.0000   1.0000   1.0000   1.0000   1.0000
     1.0000   0.0502   0.0502  -0.0009  -0.0000  -0.0000  -0.0000  -0.0000

          k = 0.4395 0.4395-0.5274 ( 14182 PWs)   bands (ev):

   -32.0579 -30.2229 -13.3275 -13.3242 -13.3237 -12.7720 -12.7711 -12.7709
    -5.0285  -4.9824  -4.9815   2.8972   3.2302   3.3008   3.3432   5.0440
     5.0451   6.4359   6.4452   6.6434   7.8977   8.0197   8.0762   8.3186

     occupation numbers 
     1.0000   1.0000   1.0000   1.0000   1.0000   1.0000   1.0000   1.0000
     1.0000   1.0000   1.0000   1.0000   1.0000   1.0000   1.0000   1.0000
     1.0000  -0.0350  -0.0335  -0.0003  -0.0000  -0.0000  -0.0000  -0.0000

          k = 0.4395-0.5274-0.5274 ( 14200 PWs)   bands (ev):

   -32.0579 -30.2229 -13.3272 -13.3272 -13.3237 -12.7720 -12.7720 -12.7710
    -5.0063  -4.9819  -4.9819   2.8507   3.2274   3.3034   3.3034   5.0429
     5.0492   6.5522   6.5522   6.6845   7.8552   7.9780   7.9780   8.3464

     occupation numbers 
     1.0000   1.0000   1.0000   1.0000   1.0000   1.0000   1.0000   1.0000
     1.0000   1.0000   1.0000   1.0000   1.0000   1.0000   1.0000   1.0000
     1.0000  -0.0050  -0.0050  -0.0001  -0.0000  -0.0000  -0.0000  -0.0000

          k =-0.5274-0.5274-0.5274 ( 14328 PWs)   bands (ev):

   -32.0579 -30.2229 -13.3269 -13.3269 -13.3269 -12.7720 -12.7720 -12.7720
    -4.9826  -4.9826  -4.9826   2.8004   3.2672   3.2672   3.2672   5.0447
     5.0447   6.7121   6.7121   6.7121   7.8285   7.8285   7.8285   8.2779

     occupation numbers 
     1.0000   1.0000   1.0000   1.0000   1.0000   1.0000   1.0000   1.0000
     1.0000   1.0000   1.0000   1.0000   1.0000   1.0000   1.0000   1.0000
     1.0000  -0.0000  -0.0000  -0.0000  -0.0000  -0.0000  -0.0000  -0.0000

     the Fermi energy is     6.2617 ev

!    total energy              =   -1173.59151894 Ry
     total all-electron energy =    -33662.972631 Ry
     estimated scf accuracy    <          2.8E-14 Ry
     smearing contrib. (-TS)   =       0.00000847 Ry
     internal energy E=F+TS    =   -1173.59152742 Ry

     The total energy is F=E-TS. E is the sum of the following terms:
     one-electron contribution =     -42.84306586 Ry
     hartree contribution      =      38.02861105 Ry
     xc contribution           =    -104.53816335 Ry
     ewald contribution        =    -150.13334579 Ry
     one-center paw contrib.   =    -914.10556346 Ry
      -> PAW hartree energy AE =      48.02298728 Ry
      -> PAW hartree energy PS =     -47.80074615 Ry
      -> PAW xc energy AE      =     -71.56026661 Ry
      -> PAW xc energy PS      =      11.35161724 Ry
      -> total E_H with PAW    =      38.25085217 Ry
      -> total E_XC with PAW   =    -164.74681271 Ry

     convergence has been achieved in  16 iterations

     Forces acting on atoms (cartesian axes, Ry/au):

     atom    1 type  1   force =     0.00000000    0.00000000    0.00000000
     atom    2 type  2   force =     0.00000000    0.00000000    0.00000000
     atom    3 type  3   force =     0.00000000    0.00000000    0.00000000
     atom    4 type  3   force =     0.00000000    0.00000000    0.00000000
     atom    5 type  3   force =     0.00000000    0.00000000    0.00000000
     The non-local contrib.  to forces
     atom    1 type  1   force =     0.00000000    0.00000000    0.00000000
     atom    2 type  2   force =     0.00000000    0.00000000    0.00000000
     atom    3 type  3   force =     0.00000000    0.00000000    0.00000000
     atom    4 type  3   force =     0.00000000    0.00000000    0.00000000
     atom    5 type  3   force =     0.00000000    0.00000000    0.00000000
     The ionic contribution  to forces
     atom    1 type  1   force =    -0.00000000   -0.00000000   -0.00000000
     atom    2 type  2   force =    -0.00000000   -0.00000000   -0.00000000
     atom    3 type  3   force =     0.00000000   -0.00000000   -0.00000000
     atom    4 type  3   force =    -0.00000000    0.00000000   -0.00000000
     atom    5 type  3   force =    -0.00000000   -0.00000000    0.00000000
     The local contribution  to forces
     atom    1 type  1   force =     0.00000000    0.00000000    0.00000000
     atom    2 type  2   force =     0.00000000    0.00000000    0.00000000
     atom    3 type  3   force =    -0.00000000    0.00000000   -0.00000000
     atom    4 type  3   force =     0.00000000   -0.00000000   -0.00000000
     atom    5 type  3   force =     0.00000000    0.00000000   -0.00000000
     The core correction contribution to forces
     atom    1 type  1   force =     0.00000000   -0.00000000   -0.00000000
     atom    2 type  2   force =     0.00000000    0.00000000    0.00000000
     atom    3 type  3   force =    -0.00000000    0.00000000   -0.00000000
     atom    4 type  3   force =     0.00000000   -0.00000000   -0.00000000
     atom    5 type  3   force =     0.00000000    0.00000000   -0.00000000
     The Hubbard contrib.    to forces
     atom    1 type  1   force =     0.00000000    0.00000000    0.00000000
     atom    2 type  2   force =     0.00000000    0.00000000    0.00000000
     atom    3 type  3   force =     0.00000000    0.00000000    0.00000000
     atom    4 type  3   force =     0.00000000    0.00000000    0.00000000
     atom    5 type  3   force =     0.00000000    0.00000000    0.00000000
     The SCF correction term to forces
     atom    1 type  1   force =    -0.00000000    0.00000000    0.00000000
     atom    2 type  2   force =     0.00000000   -0.00000000    0.00000000
     atom    3 type  3   force =     0.00000000   -0.00000000    0.00000000
     atom    4 type  3   force =    -0.00000000    0.00000000    0.00000000
     atom    5 type  3   force =    -0.00000000   -0.00000000    0.00000000

     Total force =     0.000000     Total SCF correction =     0.000000


     Computing stress (Cartesian axis) and pressure

          total   stress  (Ry/bohr**3)                   (kbar)     P=        2.47
   0.00001681   0.00000000   0.00000000            2.47        0.00        0.00
   0.00000000   0.00001681   0.00000000            0.00        2.47        0.00
   0.00000000   0.00000000   0.00001681            0.00        0.00        2.47

     kinetic stress (kbar)   7127.93      0.00      0.00
                                0.00   7127.93      0.00
                                0.00      0.00   7127.93

     local   stress (kbar)  -2032.56     -0.00      0.00
                               -0.00  -2032.56      0.00
                                0.00      0.00  -2032.56

     nonloc. stress (kbar)   2415.55      0.00      0.00
                                0.00   2415.55      0.00
                                0.00      0.00   2415.55

     hartree stress (kbar)   1866.22     -0.00     -0.00
                               -0.00   1866.22      0.00
                               -0.00      0.00   1866.22

     exc-cor stress (kbar)   8608.13      0.00     -0.00
                                0.00   8608.13      0.00
                               -0.00      0.00   8608.13

     corecor stress (kbar) -10615.15     -0.00      0.00
                               -0.00 -10615.15     -0.00
                                0.00     -0.00 -10615.15

     ewald   stress (kbar)  -7367.65     -0.00     -0.00
                               -0.00  -7367.65     -0.00
                               -0.00     -0.00  -7367.65

     hubbard stress (kbar)      0.00      0.00      0.00
                                0.00      0.00      0.00
                                0.00      0.00      0.00

     DFT-D   stress (kbar)      0.00      0.00      0.00
                                0.00      0.00      0.00
                                0.00      0.00      0.00

     XDM     stress (kbar)      0.00      0.00      0.00
                                0.00      0.00      0.00
                                0.00      0.00      0.00

     dft-nl  stress (kbar)      0.00      0.00      0.00
                                0.00      0.00      0.00
                                0.00      0.00      0.00

     TS-vdW  stress (kbar)      0.00      0.00      0.00
                                0.00      0.00      0.00
                                0.00      0.00      0.00

     MDB     stress (kbar)      0.00      0.00      0.00
                                0.00      0.00      0.00
                                0.00      0.00      0.00

     3D-RISM stress (kbar)      0.00      0.00      0.00
                                0.00      0.00      0.00
                                0.00      0.00      0.00

     Energy error            =      1.7E-03 Ry
     Gradient error          =      0.0E+00 Ry/Bohr
     Cell gradient error     =      2.5E+00 kbar

     number of scf cycles    =   5
     number of bfgs steps    =   4

     enthalpy           old  =   -1173.5898544163 Ry
     enthalpy           new  =   -1173.5915189421 Ry

     CASE: enthalpy          _new < enthalpy          _old

     new trust radius        =       0.0124968934 bohr
     new conv_thr            =            1.0E-12 Ry

     new unit-cell volume =   1005.14235 a.u.^3 (   148.94673 Ang^3 )
     density =      4.64977 g/cm^3

CELL_PARAMETERS (angstrom)
   5.300827312   0.000000000   0.000000000
   0.000000000   5.300827312   0.000000000
   0.000000000   0.000000000   5.300827312

ATOMIC_POSITIONS (crystal)
Ca               0.0000000000        0.0000000000        0.0000000000
Ce               0.5000000000        0.5000000000        0.5000000000
Se               0.5000000000        0.0000000000        0.0000000000
Se               0.0000000000        0.5000000000        0.0000000000
Se               0.0000000000        0.0000000000        0.5000000000



     Writing config-only to output data dir ./tmp/caces3.save/ :
     XML data file
     NEW-OLD atomic charge density approx. for the potential

     total cpu time spent up to now is    16765.7 secs

     Self-consistent Calculation

     iteration #  1     ecut=    80.00 Ry     beta= 0.30
     Davidson diagonalization with overlap

---- Real-time Memory Report at c_bands before calling an iterative solver
           267 MiB given to the printing process from OS
             0 MiB allocation reported by mallinfo(arena+hblkhd)
         51009 MiB available memory on the node where the printing process lives
------------------
     ethr =  1.00E-06,  avg # of iterations =  3.7

     Threshold (ethr) on eigenvalues was too large:
     Diagonalizing with lowered threshold

     Davidson diagonalization with overlap

---- Real-time Memory Report at c_bands before calling an iterative solver
           267 MiB given to the printing process from OS
             0 MiB allocation reported by mallinfo(arena+hblkhd)
         51772 MiB available memory on the node where the printing process lives
------------------
     ethr =  1.60E-08,  avg # of iterations =  6.6

     total cpu time spent up to now is    17208.6 secs

     total energy              =   -1173.59157001 Ry
     estimated scf accuracy    <       0.00001003 Ry

     iteration #  2     ecut=    80.00 Ry     beta= 0.30
     Davidson diagonalization with overlap

---- Real-time Memory Report at c_bands before calling an iterative solver
           267 MiB given to the printing process from OS
             0 MiB allocation reported by mallinfo(arena+hblkhd)
         51061 MiB available memory on the node where the printing process lives
------------------
     ethr =  2.57E-08,  avg # of iterations =  2.1

     total cpu time spent up to now is    17321.1 secs

     total energy              =   -1173.59156780 Ry
     estimated scf accuracy    <       0.00000082 Ry

     iteration #  3     ecut=    80.00 Ry     beta= 0.30
     Davidson diagonalization with overlap

---- Real-time Memory Report at c_bands before calling an iterative solver
           267 MiB given to the printing process from OS
             0 MiB allocation reported by mallinfo(arena+hblkhd)
         51002 MiB available memory on the node where the printing process lives
------------------
     ethr =  2.11E-09,  avg # of iterations =  5.4

     total cpu time spent up to now is    17551.5 secs

     total energy              =   -1173.59156585 Ry
     estimated scf accuracy    <       0.00000034 Ry

     iteration #  4     ecut=    80.00 Ry     beta= 0.30
     Davidson diagonalization with overlap

---- Real-time Memory Report at c_bands before calling an iterative solver
           267 MiB given to the printing process from OS
             0 MiB allocation reported by mallinfo(arena+hblkhd)
         51198 MiB available memory on the node where the printing process lives
------------------
     ethr =  8.84E-10,  avg # of iterations =  2.6

     total cpu time spent up to now is    17686.8 secs

     total energy              =   -1173.59156535 Ry
     estimated scf accuracy    <       0.00000008 Ry

     iteration #  5     ecut=    80.00 Ry     beta= 0.30
     Davidson diagonalization with overlap

---- Real-time Memory Report at c_bands before calling an iterative solver
           267 MiB given to the printing process from OS
             0 MiB allocation reported by mallinfo(arena+hblkhd)
         51075 MiB available memory on the node where the printing process lives
------------------
     ethr =  2.07E-10,  avg # of iterations =  6.0

     total cpu time spent up to now is    17940.9 secs

     total energy              =   -1173.59156561 Ry
     estimated scf accuracy    <       0.00000008 Ry

     iteration #  6     ecut=    80.00 Ry     beta= 0.30
     Davidson diagonalization with overlap

---- Real-time Memory Report at c_bands before calling an iterative solver
           267 MiB given to the printing process from OS
             0 MiB allocation reported by mallinfo(arena+hblkhd)
         51019 MiB available memory on the node where the printing process lives
------------------
     ethr =  2.05E-10,  avg # of iterations =  2.0

     total cpu time spent up to now is    18046.9 secs

     total energy              =   -1173.59156569 Ry
     estimated scf accuracy    <          9.4E-09 Ry

     iteration #  7     ecut=    80.00 Ry     beta= 0.30
     Davidson diagonalization with overlap

---- Real-time Memory Report at c_bands before calling an iterative solver
           267 MiB given to the printing process from OS
             0 MiB allocation reported by mallinfo(arena+hblkhd)
         51017 MiB available memory on the node where the printing process lives
------------------
     ethr =  2.42E-11,  avg # of iterations =  6.5

     total cpu time spent up to now is    18317.7 secs

     total energy              =   -1173.59156573 Ry
     estimated scf accuracy    <       0.00000004 Ry

     iteration #  8     ecut=    80.00 Ry     beta= 0.30
     Davidson diagonalization with overlap

---- Real-time Memory Report at c_bands before calling an iterative solver
           267 MiB given to the printing process from OS
             0 MiB allocation reported by mallinfo(arena+hblkhd)
         51243 MiB available memory on the node where the printing process lives
------------------
     ethr =  2.42E-11,  avg # of iterations =  5.3

     total cpu time spent up to now is    18548.3 secs

     total energy              =   -1173.59156576 Ry
     estimated scf accuracy    <          3.9E-09 Ry

     iteration #  9     ecut=    80.00 Ry     beta= 0.30
     Davidson diagonalization with overlap

---- Real-time Memory Report at c_bands before calling an iterative solver
           267 MiB given to the printing process from OS
             0 MiB allocation reported by mallinfo(arena+hblkhd)
         51334 MiB available memory on the node where the printing process lives
------------------
     ethr =  1.01E-11,  avg # of iterations =  2.0

     total cpu time spent up to now is    18654.8 secs

     total energy              =   -1173.59156577 Ry
     estimated scf accuracy    <          1.6E-10 Ry

     iteration # 10     ecut=    80.00 Ry     beta= 0.30
     Davidson diagonalization with overlap

---- Real-time Memory Report at c_bands before calling an iterative solver
           267 MiB given to the printing process from OS
             0 MiB allocation reported by mallinfo(arena+hblkhd)
         50989 MiB available memory on the node where the printing process lives
------------------
     ethr =  4.00E-13,  avg # of iterations =  7.4

     total cpu time spent up to now is    18962.3 secs

     total energy              =   -1173.59156578 Ry
     estimated scf accuracy    <          5.4E-11 Ry

     iteration # 11     ecut=    80.00 Ry     beta= 0.30
     Davidson diagonalization with overlap

---- Real-time Memory Report at c_bands before calling an iterative solver
           267 MiB given to the printing process from OS
             0 MiB allocation reported by mallinfo(arena+hblkhd)
         51067 MiB available memory on the node where the printing process lives
------------------
     ethr =  1.38E-13,  avg # of iterations =  2.6

     total cpu time spent up to now is    19095.8 secs

     End of self-consistent calculation

          k = 0.0000 0.0000 0.0000 ( 14147 PWs)   bands (ev):

   -32.1369 -30.3049 -13.3540 -13.3540 -13.3540 -12.8397 -12.8397 -12.8397
    -5.9817  -5.0522  -5.0522   3.7832   3.7832   3.7832   5.4654   5.4654
     5.4654   6.5918   6.5918   6.5918   7.1116   7.1116   7.4702   7.7686

     occupation numbers 
     1.0000   1.0000   1.0000   1.0000   1.0000   1.0000   1.0000   1.0000
     1.0000   1.0000   1.0000   1.0000   1.0000   1.0000   1.0000   1.0000
     1.0000  -0.0002  -0.0002  -0.0002  -0.0000  -0.0000  -0.0000  -0.0000

          k = 0.0000 0.0000 0.0877 ( 14114 PWs)   bands (ev):

   -32.1369 -30.3049 -13.3572 -13.3538 -13.3538 -12.8410 -12.8396 -12.8396
    -5.9615  -5.0520  -5.0506   3.7583   3.7895   3.7895   5.3491   5.3913
     5.3913   6.3765   6.5551   6.5551   7.1568   7.2700   7.4827   7.5950

     occupation numbers 
     1.0000   1.0000   1.0000   1.0000   1.0000   1.0000   1.0000   1.0000
     1.0000   1.0000   1.0000   1.0000   1.0000   1.0000   1.0000   1.0000
     1.0000  -0.0341  -0.0006  -0.0006  -0.0000  -0.0000  -0.0000  -0.0000

          k = 0.0000 0.0000 0.1754 ( 14106 PWs)   bands (ev):

   -32.1368 -30.3048 -13.3659 -13.3535 -13.3535 -12.8445 -12.8395 -12.8395
    -5.9049  -5.0528  -5.0464   3.7029   3.8080   3.8080   5.0999   5.2151
     5.2151   5.9094   6.4659   6.4659   7.2831   7.5179   7.6383   7.9093

     occupation numbers 
     1.0000   1.0000   1.0000   1.0000   1.0000   1.0000   1.0000   1.0000
     1.0000   1.0000   1.0000   1.0000   1.0000   1.0000   1.0000   1.0000
     1.0000   1.0056  -0.0084  -0.0084  -0.0000  -0.0000  -0.0000  -0.0000

          k = 0.0000 0.0000 0.2632 ( 14138 PWs)   bands (ev):

   -32.1368 -30.3047 -13.3777 -13.3530 -13.3530 -12.8494 -12.8394 -12.8394
    -5.8233  -5.0577  -5.0405   3.6613   3.8369   3.8369   4.8423   5.0125
     5.0125   5.3715   6.3582   6.3582   7.4725   7.5687   8.0682   8.3139

     occupation numbers 
     1.0000   1.0000   1.0000   1.0000   1.0000   1.0000   1.0000   1.0000
     1.0000   1.0000   1.0000   1.0000   1.0000   1.0000   1.0000   1.0000
     1.0000   1.0000  -0.0353  -0.0353  -0.0000  -0.0000  -0.0000  -0.0000

          k = 0.0000 0.0000 0.3509 ( 14158 PWs)   bands (ev):

   -32.1367 -30.3047 -13.3895 -13.3525 -13.3525 -12.8542 -12.8393 -12.8393
    -5.7351  -5.0686  -5.0347   3.6781   3.8718   3.8718   4.6351   4.8337
     4.8337   4.8543   6.2605   6.2605   7.6232   7.6900   8.4608   8.7230

     occupation numbers 
     1.0000   1.0000   1.0000   1.0000   1.0000   1.0000   1.0000   1.0000
     1.0000   1.0000   1.0000   1.0000   1.0000   1.0000   1.0000   1.0000
     1.0000   1.0000   0.1449   0.1449  -0.0000  -0.0000  -0.0000  -0.0000

          k = 0.0000 0.0000 0.4386 ( 14170 PWs)   bands (ev):

   -32.1366 -30.3046 -13.3980 -13.3522 -13.3522 -12.8577 -12.8392 -12.8392
    -5.6645  -5.0822  -5.0304   3.7815   3.9031   3.9031   4.4175   4.5034
     4.7099   4.7099   6.1937   6.1937   7.6657   7.8746   8.7380   9.0434

     occupation numbers 
     1.0000   1.0000   1.0000   1.0000   1.0000   1.0000   1.0000   1.0000
     1.0000   1.0000   1.0000   1.0000   1.0000   1.0000   1.0000   1.0000
     1.0000   1.0000   0.5150   0.5150  -0.0000  -0.0000  -0.0000  -0.0000

          k = 0.0000 0.0000-0.5263 ( 14190 PWs)   bands (ev):

   -32.1366 -30.3046 -13.4011 -13.3520 -13.3520 -12.8589 -12.8392 -12.8392
    -5.6369  -5.0889  -5.0288   3.9094   3.9164   3.9164   4.1731   4.4584
     4.6650   4.6650   6.1701   6.1701   7.6820   7.9494   8.8386   9.1689

     occupation numbers 
     1.0000   1.0000   1.0000   1.0000   1.0000   1.0000   1.0000   1.0000
     1.0000   1.0000   1.0000   1.0000   1.0000   1.0000   1.0000   1.0000
     1.0000   1.0000   0.6586   0.6586  -0.0000  -0.0000  -0.0000  -0.0000

          k = 0.0000 0.0877 0.0877 ( 14125 PWs)   bands (ev):

   -32.1369 -30.3049 -13.3572 -13.3569 -13.3537 -12.8413 -12.8405 -12.8396
    -5.9414  -5.0510  -5.0499   3.6882   3.7963   3.8445   5.1551   5.3233
     5.4393   6.2308   6.4958   6.5155   7.2577   7.2726   7.5564   7.6525

     occupation numbers 
     1.0000   1.0000   1.0000   1.0000   1.0000   1.0000   1.0000   1.0000
     1.0000   1.0000   1.0000   1.0000   1.0000   1.0000   1.0000   1.0000
     1.0000   0.2919  -0.0039  -0.0022  -0.0000  -0.0000  -0.0000  -0.0000

          k = 0.0000 0.0877 0.1754 ( 14150 PWs)   bands (ev):

   -32.1368 -30.3048 -13.3658 -13.3567 -13.3534 -12.8445 -12.8406 -12.8395
    -5.8851  -5.0512  -5.0461   3.6045   3.8160   3.8985   4.8826   5.1591
     5.3480   5.8448   6.3928   6.4196   7.3446   7.5532   7.6113   7.9342

     occupation numbers 
     1.0000   1.0000   1.0000   1.0000   1.0000   1.0000   1.0000   1.0000
     1.0000   1.0000   1.0000   1.0000   1.0000   1.0000   1.0000   1.0000
     1.0000   1.0008  -0.0300  -0.0211  -0.0000  -0.0000  -0.0000  -0.0000

          k = 0.0000 0.0877 0.2632 ( 14161 PWs)   bands (ev):

   -32.1367 -30.3047 -13.3777 -13.3563 -13.3529 -12.8491 -12.8404 -12.8394
    -5.8040  -5.0555  -5.0406   3.5497   3.8469   3.9441   4.6193   4.9667
     5.1418   5.4132   6.2767   6.3044   7.5112   7.6611   7.9405   8.3261

     occupation numbers 
     1.0000   1.0000   1.0000   1.0000   1.0000   1.0000   1.0000   1.0000
     1.0000   1.0000   1.0000   1.0000   1.0000   1.0000   1.0000   1.0000
     1.0000   1.0000   0.0833   0.0109  -0.0000  -0.0000  -0.0000  -0.0000

          k = 0.0000 0.0877 0.3509 ( 14170 PWs)   bands (ev):

   -32.1367 -30.3047 -13.3895 -13.3559 -13.3524 -12.8538 -12.8402 -12.8392
    -5.7165  -5.0657  -5.0350   3.5564   3.8840   3.9793   4.3995   4.7933
     4.7948   5.1493   6.1731   6.2004   7.7119   7.7203   8.3370   8.7267

     occupation numbers 
     1.0000   1.0000   1.0000   1.0000   1.0000   1.0000   1.0000   1.0000
     1.0000   1.0000   1.0000   1.0000   1.0000   1.0000   1.0000   1.0000
     1.0000   1.0000   0.6405   0.4729  -0.0000  -0.0000  -0.0000  -0.0000

          k = 0.0000 0.0877 0.4386 ( 14152 PWs)   bands (ev):

   -32.1366 -30.3046 -13.3981 -13.3556 -13.3521 -12.8572 -12.8401 -12.8391
    -5.6465  -5.0786  -5.0309   3.6449   3.9175   3.9670   4.2513   4.4662
     4.6745   5.0243   6.1023   6.1294   7.7511   7.9038   8.6608   8.9557

     occupation numbers 
     1.0000   1.0000   1.0000   1.0000   1.0000   1.0000   1.0000   1.0000
     1.0000   1.0000   1.0000   1.0000   1.0000   1.0000   1.0000   1.0000
     1.0000   1.0000   0.9561   0.8645  -0.0000  -0.0000  -0.0000  -0.0000

          k = 0.0000 0.0877-0.5263 ( 14170 PWs)   bands (ev):

   -32.1366 -30.3046 -13.4012 -13.3555 -13.3520 -12.8584 -12.8400 -12.8391
    -5.6191  -5.0850  -5.0294   3.7712   3.8613   3.9318   4.2267   4.3284
     4.6305   4.9835   6.0772   6.1043   7.7660   7.9791   8.8006   9.0164

     occupation numbers 
     1.0000   1.0000   1.0000   1.0000   1.0000   1.0000   1.0000   1.0000
     1.0000   1.0000   1.0000   1.0000   1.0000   1.0000   1.0000   1.0000
     1.0000   1.0000   1.0066   0.9506  -0.0000  -0.0000  -0.0000  -0.0000

          k = 0.0000 0.1754 0.1754 ( 14135 PWs)   bands (ev):

   -32.1368 -30.3047 -13.3662 -13.3651 -13.3531 -12.8451 -12.8427 -12.8394
    -5.8298  -5.0475  -5.0459   3.4814   3.8394   4.0064   4.5942   5.0196
     5.4142   5.6000   6.2654   6.3062   7.4546   7.6156   7.7941   8.0598

     occupation numbers 
     1.0000   1.0000   1.0000   1.0000   1.0000   1.0000   1.0000   1.0000
     1.0000   1.0000   1.0000   1.0000   1.0000   1.0000   1.0000   1.0000
     1.0000   1.0000   0.1246   0.0076  -0.0000  -0.0000  -0.0000  -0.0000

          k = 0.0000 0.1754 0.2632 ( 14144 PWs)   bands (ev):

   -32.1367 -30.3047 -13.3777 -13.3654 -13.3526 -12.8487 -12.8430 -12.8392
    -5.7503  -5.0500  -5.0411   3.3948   3.8757   4.0886   4.3266   4.8509
     5.1828   5.4505   6.1275   6.1698   7.5803   7.8922   7.8944   8.3702

     occupation numbers 
     1.0000   1.0000   1.0000   1.0000   1.0000   1.0000   1.0000   1.0000
     1.0000   1.0000   1.0000   1.0000   1.0000   1.0000   1.0000   1.0000
     1.0000   1.0000   0.8722   0.6600  -0.0000  -0.0000  -0.0000  -0.0000

          k = 0.0000 0.1754 0.3509 ( 14160 PWs)   bands (ev):

   -32.1366 -30.3046 -13.3897 -13.3652 -13.3522 -12.8528 -12.8426 -12.8390
    -5.6649  -5.0581  -5.0358   3.3693   3.9195   4.0505   4.1931   4.6957
     4.8031   5.4281   5.9884   6.0466   7.7766   7.9497   8.2091   8.7273

     occupation numbers 
     1.0000   1.0000   1.0000   1.0000   1.0000   1.0000   1.0000   1.0000
     1.0000   1.0000   1.0000   1.0000   1.0000   1.0000   1.0000   1.0000
     1.0000   1.0000   1.0265   1.0326  -0.0000  -0.0000  -0.0000  -0.0000

          k = 0.0000 0.1754 0.4386 ( 14172 PWs)   bands (ev):

   -32.1366 -30.3046 -13.3984 -13.3650 -13.3519 -12.8558 -12.8423 -12.8388
    -5.5969  -5.0690  -5.0321   3.4109   3.8594   3.9595   4.2444   4.5108
     4.5841   5.4162   5.8811   5.9623   7.9725   7.9854   8.4971   8.8110

     occupation numbers 
     1.0000   1.0000   1.0000   1.0000   1.0000   1.0000   1.0000   1.0000
     1.0000   1.0000   1.0000   1.0000   1.0000   1.0000   1.0000   1.0000
     1.0000   1.0000   1.0025   1.0178  -0.0000  -0.0000  -0.0000  -0.0000

          k = 0.0000 0.1754-0.5263 ( 14176 PWs)   bands (ev):

   -32.1366 -30.3045 -13.4016 -13.3650 -13.3518 -12.8569 -12.8422 -12.8388
    -5.5704  -5.0744  -5.0307   3.4616   3.7537   3.9768   4.3292   4.3438
     4.5424   5.4144   5.8396   5.9324   7.9982   8.0584   8.7081   8.7269

     occupation numbers 
     1.0000   1.0000   1.0000   1.0000   1.0000   1.0000   1.0000   1.0000
     1.0000   1.0000   1.0000   1.0000   1.0000   1.0000   1.0000   1.0000
     1.0000   1.0000   1.0007   1.0097  -0.0000  -0.0000  -0.0000  -0.0000

          k = 0.0000 0.2632 0.2632 ( 14143 PWs)   bands (ev):

   -32.1366 -30.3046 -13.3784 -13.3770 -13.3523 -12.8488 -12.8457 -12.8389
    -5.6737  -5.0443  -5.0423   3.2678   3.9204   4.0632   4.2103   4.7077
     5.0500   5.4350   6.0044   6.0298   7.6448   8.0565   8.1457   8.4959

     occupation numbers 
     1.0000   1.0000   1.0000   1.0000   1.0000   1.0000   1.0000   1.0000
     1.0000   1.0000   1.0000   1.0000   1.0000   1.0000   1.0000   1.0000
     1.0000   1.0000   1.0314   1.0355  -0.0000  -0.0000  -0.0000  -0.0000

          k = 0.0000 0.2632 0.3509 ( 14147 PWs)   bands (ev):

   -32.1366 -30.3045 -13.3900 -13.3777 -13.3519 -12.8515 -12.8459 -12.8387
    -5.5922  -5.0490  -5.0370   3.1886   3.8501   3.9744   4.2980   4.5731
     4.7960   5.4626   5.8522   5.9428   7.7888   8.2708   8.2796   8.6725

     occupation numbers 
     1.0000   1.0000   1.0000   1.0000   1.0000   1.0000   1.0000   1.0000
     1.0000   1.0000   1.0000   1.0000   1.0000   1.0000   1.0000   1.0000
     1.0000   1.0000   1.0010   1.0122  -0.0000  -0.0000  -0.0000  -0.0000

          k = 0.0000 0.2632 0.4386 ( 14151 PWs)   bands (ev):

   -32.1365 -30.3045 -13.3988 -13.3778 -13.3516 -12.8540 -12.8455 -12.8385
    -5.5280  -5.0562  -5.0333   3.1595   3.6972   4.0248   4.3645   4.4731
     4.5755   5.5133   5.7464   5.8507   7.9984   8.3171   8.4325   8.6613

     occupation numbers 
     1.0000   1.0000   1.0000   1.0000   1.0000   1.0000   1.0000   1.0000
     1.0000   1.0000   1.0000   1.0000   1.0000   1.0000   1.0000   1.0000
     1.0000   1.0000   1.0000   1.0010  -0.0000  -0.0000  -0.0000  -0.0000

          k = 0.0000 0.2632-0.5263 ( 14194 PWs)   bands (ev):

   -32.1365 -30.3045 -13.4020 -13.3778 -13.3515 -12.8550 -12.8453 -12.8384
    -5.5032  -5.0599  -5.0320   3.1572   3.6372   4.0474   4.4340   4.4387
     4.4426   5.5447   5.7085   5.8031   8.1338   8.3303   8.4512   8.6359

     occupation numbers 
     1.0000   1.0000   1.0000   1.0000   1.0000   1.0000   1.0000   1.0000
     1.0000   1.0000   1.0000   1.0000   1.0000   1.0000   1.0000   1.0000
     1.0000   1.0000   1.0000   1.0002  -0.0000  -0.0000  -0.0000  -0.0000

          k = 0.0000 0.3509 0.3509 ( 14163 PWs)   bands (ev):

   -32.1365 -30.3045 -13.3907 -13.3897 -13.3516 -12.8509 -12.8485 -12.8383
    -5.5162  -5.0435  -5.0366   3.0427   3.6802   4.0407   4.4035   4.4584
     4.7375   5.3442   5.6678   6.0289   7.8287   8.4647   8.5640   8.5727

     occupation numbers 
     1.0000   1.0000   1.0000   1.0000   1.0000   1.0000   1.0000   1.0000
     1.0000   1.0000   1.0000   1.0000   1.0000   1.0000   1.0000   1.0000
     1.0000   1.0000   1.0000   1.0355  -0.0000  -0.0000  -0.0000  -0.0000

          k = 0.0000 0.3509 0.4386 ( 14162 PWs)   bands (ev):

   -32.1364 -30.3044 -13.3992 -13.3904 -13.3513 -12.8523 -12.8485 -12.8381
    -5.4579  -5.0442  -5.0334   2.9509   3.5694   4.1035   4.3722   4.4832
     4.6406   5.2830   5.5350   6.0823   7.9581   8.3991   8.6307   8.6783

     occupation numbers 
     1.0000   1.0000   1.0000   1.0000   1.0000   1.0000   1.0000   1.0000
     1.0000   1.0000   1.0000   1.0000   1.0000   1.0000   1.0000   1.0000
     1.0000   1.0000   1.0000   0.9988  -0.0000  -0.0000  -0.0000  -0.0000

          k = 0.0000 0.3509-0.5263 ( 14124 PWs)   bands (ev):

   -32.1364 -30.3044 -13.4025 -13.3905 -13.3512 -12.8531 -12.8483 -12.8380
    -5.4357  -5.0452  -5.0321   2.9201   3.5299   4.1335   4.3364   4.5451
     4.5630   5.2693   5.4863   6.0970   8.1072   8.2374   8.6892   8.6978

     occupation numbers 
     1.0000   1.0000   1.0000   1.0000   1.0000   1.0000   1.0000   1.0000
     1.0000   1.0000   1.0000   1.0000   1.0000   1.0000   1.0000   1.0000
     1.0000   1.0000   1.0000   0.9694  -0.0000  -0.0000  -0.0000  -0.0000

          k = 0.0000 0.4386 0.4386 ( 14154 PWs)   bands (ev):

   -32.1364 -30.3044 -13.3997 -13.3994 -13.3511 -12.8513 -12.8506 -12.8378
    -5.4057  -5.0367  -5.0321   2.8172   3.4828   4.1767   4.3008   4.5812
     4.6765   5.1164   5.3764   6.2263   7.9642   8.2297   8.7496   8.9584

     occupation numbers 
     1.0000   1.0000   1.0000   1.0000   1.0000   1.0000   1.0000   1.0000
     1.0000   1.0000   1.0000   1.0000   1.0000   1.0000   1.0000   1.0000
     1.0000   1.0000   1.0000   0.3169  -0.0000  -0.0000  -0.0000  -0.0000

          k = 0.0000 0.4386-0.5263 ( 14156 PWs)   bands (ev):

   -32.1364 -30.3043 -13.4029 -13.3996 -13.3511 -12.8518 -12.8505 -12.8377
    -5.3864  -5.0344  -5.0311   2.7715   3.4514   4.2127   4.2704   4.6440
     4.6615   5.0595   5.3160   6.2724   8.0249   8.1036   8.8027   9.0101

     occupation numbers 
     1.0000   1.0000   1.0000   1.0000   1.0000   1.0000   1.0000   1.0000
     1.0000   1.0000   1.0000   1.0000   1.0000   1.0000   1.0000   1.0000
     1.0000   1.0000   1.0000   0.0983  -0.0000  -0.0000  -0.0000  -0.0000

          k = 0.0000-0.5263-0.5263 ( 14108 PWs)   bands (ev):

   -32.1364 -30.3043 -13.4030 -13.4030 -13.3510 -12.8513 -12.8513 -12.8376
    -5.3685  -5.0304  -5.0304   2.7210   3.4222   4.2472   4.2472   4.6999
     4.6999   4.9656   5.2497   6.3294   7.9869   8.0582   8.8532   9.1402

     occupation numbers 
     1.0000   1.0000   1.0000   1.0000   1.0000   1.0000   1.0000   1.0000
     1.0000   1.0000   1.0000   1.0000   1.0000   1.0000   1.0000   1.0000
     1.0000   1.0000   1.0000  -0.0229  -0.0000  -0.0000  -0.0000  -0.0000

          k = 0.0877 0.0877 0.0877 ( 14126 PWs)   bands (ev):

   -32.1368 -30.3048 -13.3571 -13.3571 -13.3566 -12.8416 -12.8405 -12.8405
    -5.9214  -5.0496  -5.0496   3.6224   3.8507   3.8507   5.1091   5.1091
     5.5293   6.0842   6.4699   6.4699   7.2855   7.2855   7.6024   7.8289

     occupation numbers 
     1.0000   1.0000   1.0000   1.0000   1.0000   1.0000   1.0000   1.0000
     1.0000   1.0000   1.0000   1.0000   1.0000   1.0000   1.0000   1.0000
     1.0000   0.9955  -0.0077  -0.0077  -0.0000  -0.0000  -0.0000  -0.0000

          k = 0.0877 0.0877 0.1754 ( 14146 PWs)   bands (ev):

   -32.1368 -30.3048 -13.3658 -13.3567 -13.3566 -12.8444 -12.8407 -12.8404
    -5.8654  -5.0498  -5.0457   3.5298   3.8688   3.9209   4.8190   4.9816
     5.4896   5.7415   6.3438   6.3938   7.3635   7.4928   7.6755   8.0309

     occupation numbers 
     1.0000   1.0000   1.0000   1.0000   1.0000   1.0000   1.0000   1.0000
     1.0000   1.0000   1.0000   1.0000   1.0000   1.0000   1.0000   1.0000
     1.0000   1.0000  -0.0319  -0.0297  -0.0000  -0.0000  -0.0000  -0.0000

          k = 0.0877 0.0877 0.2632 ( 14152 PWs)   bands (ev):

   -32.1367 -30.3047 -13.3777 -13.3563 -13.3562 -12.8489 -12.8404 -12.8403
    -5.7848  -5.0536  -5.0405   3.4697   3.8978   3.9741   4.5540   4.7897
     5.3489   5.3493   6.1909   6.2941   7.5153   7.7502   7.8574   8.3031

     occupation numbers 
     1.0000   1.0000   1.0000   1.0000   1.0000   1.0000   1.0000   1.0000
     1.0000   1.0000   1.0000   1.0000   1.0000   1.0000   1.0000   1.0000
     1.0000   1.0000   0.5324   0.0333  -0.0000  -0.0000  -0.0000  -0.0000

          k = 0.0877 0.0877 0.3509 ( 14161 PWs)   bands (ev):

   -32.1367 -30.3046 -13.3896 -13.3560 -13.3557 -12.8534 -12.8401 -12.8401
    -5.6978  -5.0630  -5.0352   3.4741   3.9358   3.9951   4.3422   4.5356
     5.0497   5.1979   6.0530   6.2024   7.6870   7.8429   8.2655   8.5979

     occupation numbers 
     1.0000   1.0000   1.0000   1.0000   1.0000   1.0000   1.0000   1.0000
     1.0000   1.0000   1.0000   1.0000   1.0000   1.0000   1.0000   1.0000
     1.0000   1.0000   1.0297   0.4610  -0.0000  -0.0000  -0.0000  -0.0000

          k = 0.0877 0.0877 0.4386 ( 14164 PWs)   bands (ev):

   -32.1366 -30.3046 -13.3982 -13.3558 -13.3553 -12.8567 -12.8400 -12.8399
    -5.6284  -5.0753  -5.0314   3.5626   3.9298   3.9793   4.1951   4.3093
     4.8969   5.0894   5.9576   6.1395   7.7827   7.9738   8.6124   8.8416

     occupation numbers 
     1.0000   1.0000   1.0000   1.0000   1.0000   1.0000   1.0000   1.0000
     1.0000   1.0000   1.0000   1.0000   1.0000   1.0000   1.0000   1.0000
     1.0000   1.0000   1.0163   0.8203  -0.0000  -0.0000  -0.0000  -0.0000

          k = 0.0877 0.0877-0.5263 ( 14174 PWs)   bands (ev):

   -32.1366 -30.3046 -13.4013 -13.3557 -13.3552 -12.8579 -12.8400 -12.8398
    -5.6012  -5.0815  -5.0299   3.7008   3.7772   4.0087   4.1317   4.2439
     4.8521   5.0503   5.9234   6.1173   7.8077   8.0410   8.7649   8.9401

     occupation numbers 
     1.0000   1.0000   1.0000   1.0000   1.0000   1.0000   1.0000   1.0000
     1.0000   1.0000   1.0000   1.0000   1.0000   1.0000   1.0000   1.0000
     1.0000   1.0000   1.0079   0.9103  -0.0000  -0.0000  -0.0000  -0.0000

          k = 0.0877 0.1754 0.1754 ( 14144 PWs)   bands (ev):

   -32.1367 -30.3047 -13.3660 -13.3651 -13.3564 -12.8450 -12.8427 -12.8403
    -5.8102  -5.0465  -5.0451   3.4161   3.9022   4.0062   4.5907   4.8403
     5.4749   5.5642   6.2497   6.2905   7.4603   7.5213   7.7822   8.2493

     occupation numbers 
     1.0000   1.0000   1.0000   1.0000   1.0000   1.0000   1.0000   1.0000
     1.0000   1.0000   1.0000   1.0000   1.0000   1.0000   1.0000   1.0000
     1.0000   1.0000   0.1937   0.0424  -0.0000  -0.0000  -0.0000  -0.0000

          k = 0.0877 0.1754 0.2632 ( 14146 PWs)   bands (ev):

   -32.1367 -30.3047 -13.3777 -13.3653 -13.3560 -12.8484 -12.8429 -12.8401
    -5.7310  -5.0485  -5.0408   3.3363   3.9227   4.0767   4.3434   4.6960
     5.1691   5.5265   6.0856   6.1831   7.5774   7.7810   7.9105   8.4325

     occupation numbers 
     1.0000   1.0000   1.0000   1.0000   1.0000   1.0000   1.0000   1.0000
     1.0000   1.0000   1.0000   1.0000   1.0000   1.0000   1.0000   1.0000
     1.0000   1.0000   0.9931   0.5804  -0.0000  -0.0000  -0.0000  -0.0000

          k = 0.0877 0.1754 0.3509 ( 14163 PWs)   bands (ev):

   -32.1366 -30.3046 -13.3897 -13.3651 -13.3556 -12.8524 -12.8426 -12.8399
    -5.6460  -5.0560  -5.0360   3.3203   3.9145   4.0747   4.1792   4.4988
     4.9680   5.4603   5.8986   6.0902   7.7456   7.9929   8.1739   8.5991

     occupation numbers 
     1.0000   1.0000   1.0000   1.0000   1.0000   1.0000   1.0000   1.0000
     1.0000   1.0000   1.0000   1.0000   1.0000   1.0000   1.0000   1.0000
     1.0000   1.0000   1.0042   0.9843  -0.0000  -0.0000  -0.0000  -0.0000

          k = 0.0877 0.1754 0.4386 ( 14175 PWs)   bands (ev):

   -32.1366 -30.3045 -13.3984 -13.3649 -13.3553 -12.8554 -12.8423 -12.8397
    -5.5783  -5.0664  -5.0326   3.3793   3.7900   4.0427   4.1163   4.3481
     4.8899   5.4258   5.7403   6.0265   7.8771   8.1364   8.4842   8.7210

     occupation numbers 
     1.0000   1.0000   1.0000   1.0000   1.0000   1.0000   1.0000   1.0000
     1.0000   1.0000   1.0000   1.0000   1.0000   1.0000   1.0000   1.0000
     1.0000   1.0000   1.0000   1.0354  -0.0000  -0.0000  -0.0000  -0.0000

          k = 0.0877 0.1754-0.5263 ( 14192 PWs)   bands (ev):

   -32.1365 -30.3045 -13.4016 -13.3649 -13.3552 -12.8565 -12.8422 -12.8396
    -5.5519  -5.0717  -5.0313   3.4549   3.6690   4.0469   4.0803   4.3083
     4.8713   5.4249   5.6706   6.0040   7.9189   8.2112   8.6775   8.7007

     occupation numbers 
     1.0000   1.0000   1.0000   1.0000   1.0000   1.0000   1.0000   1.0000
     1.0000   1.0000   1.0000   1.0000   1.0000   1.0000   1.0000   1.0000
     1.0000   1.0000   1.0000   1.0313  -0.0000  -0.0000  -0.0000  -0.0000

          k = 0.0877 0.2632 0.2632 ( 14147 PWs)   bands (ev):

   -32.1366 -30.3046 -13.3782 -13.3771 -13.3556 -12.8486 -12.8456 -12.8399
    -5.6545  -5.0432  -5.0419   3.2265   3.8919   4.1554   4.1600   4.6465
     4.9358   5.5647   6.0173   6.0198   7.6535   7.9215   8.0567   8.6506

     occupation numbers 
     1.0000   1.0000   1.0000   1.0000   1.0000   1.0000   1.0000   1.0000
     1.0000   1.0000   1.0000   1.0000   1.0000   1.0000   1.0000   1.0000
     1.0000   1.0000   1.0344   1.0347  -0.0000  -0.0000  -0.0000  -0.0000

          k = 0.0877 0.2632 0.3509 ( 14151 PWs)   bands (ev):

   -32.1365 -30.3045 -13.3899 -13.3776 -13.3552 -12.8512 -12.8458 -12.8396
    -5.5730  -5.0477  -5.0371   3.1667   3.7686   4.0900   4.1716   4.5496
     4.8151   5.5205   5.8705   5.9488   7.7927   8.1068   8.2742   8.6938

     occupation numbers 
     1.0000   1.0000   1.0000   1.0000   1.0000   1.0000   1.0000   1.0000
     1.0000   1.0000   1.0000   1.0000   1.0000   1.0000   1.0000   1.0000
     1.0000   1.0000   1.0018   1.0138  -0.0000  -0.0000  -0.0000  -0.0000

          k = 0.0877 0.2632 0.4386 ( 14173 PWs)   bands (ev):

   -32.1365 -30.3045 -13.3987 -13.3776 -13.3550 -12.8538 -12.8454 -12.8393
    -5.5088  -5.0546  -5.0338   3.1596   3.6300   4.0714   4.1236   4.4545
     4.8325   5.4479   5.7981   5.8677   7.9765   8.2369   8.5217   8.6132

     occupation numbers 
     1.0000   1.0000   1.0000   1.0000   1.0000   1.0000   1.0000   1.0000
     1.0000   1.0000   1.0000   1.0000   1.0000   1.0000   1.0000   1.0000
     1.0000   1.0000   1.0001   1.0017  -0.0000  -0.0000  -0.0000  -0.0000

          k = 0.0877 0.2632-0.5263 ( 14166 PWs)   bands (ev):

   -32.1365 -30.3044 -13.4020 -13.3776 -13.3549 -12.8547 -12.8452 -12.8393
    -5.4840  -5.0582  -5.0326   3.1704   3.5662   4.0537   4.1028   4.4291
     4.8545   5.4091   5.8000   5.8130   8.0621   8.4009   8.4378   8.6371

     occupation numbers 
     1.0000   1.0000   1.0000   1.0000   1.0000   1.0000   1.0000   1.0000
     1.0000   1.0000   1.0000   1.0000   1.0000   1.0000   1.0000   1.0000
     1.0000   1.0000   1.0002   1.0003  -0.0000  -0.0000  -0.0000  -0.0000

          k = 0.0877 0.3509 0.3509 ( 14157 PWs)   bands (ev):

   -32.1365 -30.3044 -13.3905 -13.3896 -13.3549 -12.8506 -12.8485 -12.8392
    -5.4966  -5.0428  -5.0367   3.0434   3.6170   4.0806   4.1658   4.6377
     4.6928   5.4291   5.6988   6.0387   7.8361   8.3360   8.3648   8.7340

     occupation numbers 
     1.0000   1.0000   1.0000   1.0000   1.0000   1.0000   1.0000   1.0000
     1.0000   1.0000   1.0000   1.0000   1.0000   1.0000   1.0000   1.0000
     1.0000   1.0000   1.0000   1.0347  -0.0000  -0.0000  -0.0000  -0.0000

          k = 0.0877 0.3509 0.4386 ( 14171 PWs)   bands (ev):

   -32.1364 -30.3044 -13.3991 -13.3902 -13.3546 -12.8522 -12.8485 -12.8390
    -5.4379  -5.0437  -5.0339   2.9675   3.5133   4.0673   4.1184   4.6018
     4.7917   5.2950   5.5877   6.0958   7.9630   8.3389   8.5225   8.7264

     occupation numbers 
     1.0000   1.0000   1.0000   1.0000   1.0000   1.0000   1.0000   1.0000
     1.0000   1.0000   1.0000   1.0000   1.0000   1.0000   1.0000   1.0000
     1.0000   1.0000   1.0000   0.9721  -0.0000  -0.0000  -0.0000  -0.0000

          k = 0.0877 0.3509-0.5263 ( 14162 PWs)   bands (ev):

   -32.1364 -30.3044 -13.4023 -13.3902 -13.3545 -12.8530 -12.8483 -12.8389
    -5.4157  -5.0447  -5.0328   2.9427   3.4756   4.0620   4.0902   4.5882
     4.8724   5.2027   5.5596   6.1110   8.1064   8.2264   8.5364   8.7982

     occupation numbers 
     1.0000   1.0000   1.0000   1.0000   1.0000   1.0000   1.0000   1.0000
     1.0000   1.0000   1.0000   1.0000   1.0000   1.0000   1.0000   1.0000
     1.0000   1.0000   1.0000   0.9311  -0.0000  -0.0000  -0.0000  -0.0000

          k = 0.0877 0.4386 0.4386 ( 14162 PWs)   bands (ev):

   -32.1364 -30.3043 -13.3994 -13.3991 -13.3544 -12.8513 -12.8506 -12.8387
    -5.3852  -5.0369  -5.0327   2.8423   3.4372   4.0568   4.0892   4.7645
     4.7854   5.1806   5.3956   6.2424   7.9702   8.2209   8.6643   8.8877

     occupation numbers 
     1.0000   1.0000   1.0000   1.0000   1.0000   1.0000   1.0000   1.0000
     1.0000   1.0000   1.0000   1.0000   1.0000   1.0000   1.0000   1.0000
     1.0000   1.0000   1.0000   0.2297  -0.0000  -0.0000  -0.0000  -0.0000

          k = 0.0877 0.4386-0.5263 ( 14162 PWs)   bands (ev):

   -32.1364 -30.3043 -13.4026 -13.3994 -13.3543 -12.8518 -12.8505 -12.8386
    -5.3658  -5.0348  -5.0318   2.7993   3.4097   4.0585   4.0664   4.7700
     4.9113   5.0703   5.3315   6.2887   8.0380   8.0927   8.7274   8.9799

     occupation numbers 
     1.0000   1.0000   1.0000   1.0000   1.0000   1.0000   1.0000   1.0000
     1.0000   1.0000   1.0000   1.0000   1.0000   1.0000   1.0000   1.0000
     1.0000   1.0000   1.0000   0.0469  -0.0000  -0.0000  -0.0000  -0.0000

          k = 0.0877-0.5263-0.5263 ( 14156 PWs)   bands (ev):

   -32.1363 -30.3043 -13.4027 -13.4027 -13.3542 -12.8513 -12.8513 -12.8385
    -5.3476  -5.0311  -5.0311   2.7504   3.3850   4.0550   4.0550   4.9311
     4.9311   4.9673   5.2143   6.3463   8.0012   8.0472   8.8133   9.0640

     occupation numbers 
     1.0000   1.0000   1.0000   1.0000   1.0000   1.0000   1.0000   1.0000
     1.0000   1.0000   1.0000   1.0000   1.0000   1.0000   1.0000   1.0000
     1.0000   1.0000   1.0000  -0.0328  -0.0000  -0.0000  -0.0000  -0.0000

          k = 0.1754 0.1754 0.1754 ( 14120 PWs)   bands (ev):

   -32.1367 -30.3047 -13.3656 -13.3656 -13.3649 -12.8451 -12.8426 -12.8426
    -5.7555  -5.0438  -5.0438   3.3054   4.0003   4.0003   4.5801   4.5801
     5.1894   5.7122   6.2047   6.2047   7.5011   7.5011   7.7989   8.5730

     occupation numbers 
     1.0000   1.0000   1.0000   1.0000   1.0000   1.0000   1.0000   1.0000
     1.0000   1.0000   1.0000   1.0000   1.0000   1.0000   1.0000   1.0000
     1.0000   1.0000   0.4463   0.4463  -0.0000  -0.0000  -0.0000  -0.0000

          k = 0.1754 0.1754 0.2632 ( 14159 PWs)   bands (ev):

   -32.1366 -30.3046 -13.3776 -13.3652 -13.3650 -12.8478 -12.8430 -12.8425
    -5.6773  -5.0449  -5.0402   3.2267   3.9692   4.0366   4.3851   4.5272
     4.9338   5.7217   6.0334   6.1350   7.6021   7.6967   7.8862   8.6613

     occupation numbers 
     1.0000   1.0000   1.0000   1.0000   1.0000   1.0000   1.0000   1.0000
     1.0000   1.0000   1.0000   1.0000   1.0000   1.0000   1.0000   1.0000
     1.0000   1.0000   1.0353   0.8410  -0.0000  -0.0000  -0.0000  -0.0000

          k = 0.1754 0.1754 0.3509 ( 14175 PWs)   bands (ev):

   -32.1366 -30.3045 -13.3897 -13.3652 -13.3644 -12.8516 -12.8424 -12.8423
    -5.5935  -5.0507  -5.0365   3.2141   3.8978   3.9413   4.2935   4.3661
     4.9231   5.6490   5.8093   6.0616   7.7445   8.0359   8.0449   8.6953

     occupation numbers 
     1.0000   1.0000   1.0000   1.0000   1.0000   1.0000   1.0000   1.0000
     1.0000   1.0000   1.0000   1.0000   1.0000   1.0000   1.0000   1.0000
     1.0000   1.0000   1.0002   1.0239  -0.0000  -0.0000  -0.0000  -0.0000

          k = 0.1754 0.1754 0.4386 ( 14164 PWs)   bands (ev):

   -32.1365 -30.3045 -13.3984 -13.3652 -13.3639 -12.8544 -12.8423 -12.8418
    -5.5270  -5.0595  -5.0338   3.2831   3.7165   3.8249   4.2619   4.2708
     5.0585   5.5737   5.5765   6.0100   7.8615   8.2617   8.3944   8.6678

     occupation numbers 
     1.0000   1.0000   1.0000   1.0000   1.0000   1.0000   1.0000   1.0000
     1.0000   1.0000   1.0000   1.0000   1.0000   1.0000   1.0000   1.0000
     1.0000   1.0000   1.0000   1.0329  -0.0000  -0.0000  -0.0000  -0.0000

          k = 0.1754 0.1754-0.5263 ( 14180 PWs)   bands (ev):

   -32.1365 -30.3045 -13.4017 -13.3653 -13.3637 -12.8555 -12.8423 -12.8416
    -5.5011  -5.0641  -5.0328   3.3858   3.5427   3.7961   4.2340   4.2685
     5.1747   5.4308   5.5434   5.9917   7.9034   8.4258   8.5893   8.5960

     occupation numbers 
     1.0000   1.0000   1.0000   1.0000   1.0000   1.0000   1.0000   1.0000
     1.0000   1.0000   1.0000   1.0000   1.0000   1.0000   1.0000   1.0000
     1.0000   1.0000   1.0000   1.0276  -0.0000  -0.0000  -0.0000  -0.0000

          k = 0.1754 0.2632 0.2632 ( 14162 PWs)   bands (ev):

   -32.1366 -30.3045 -13.3777 -13.3771 -13.3647 -12.8478 -12.8456 -12.8424
    -5.6009  -5.0408  -5.0407   3.1391   3.8656   4.0140   4.3277   4.5848
     4.6629   5.8041   5.9930   6.0166   7.6848   7.7596   7.9318   8.8786

     occupation numbers 
     1.0000   1.0000   1.0000   1.0000   1.0000   1.0000   1.0000   1.0000
     1.0000   1.0000   1.0000   1.0000   1.0000   1.0000   1.0000   1.0000
     1.0000   1.0002   1.0280   1.0343  -0.0000  -0.0000  -0.0000  -0.0000

          k = 0.1754 0.2632 0.3509 ( 14183 PWs)   bands (ev):

   -32.1365 -30.3045 -13.3896 -13.3773 -13.3644 -12.8506 -12.8457 -12.8421
    -5.5196  -5.0443  -5.0373   3.1080   3.7060   3.9258   4.2096   4.4955
     4.7886   5.7034   5.9017   5.9608   7.8056   7.9681   8.0888   8.8612

     occupation numbers 
     1.0000   1.0000   1.0000   1.0000   1.0000   1.0000   1.0000   1.0000
     1.0000   1.0000   1.0000   1.0000   1.0000   1.0000   1.0000   1.0000
     1.0000   1.0000   1.0045   1.0173  -0.0000  -0.0000  -0.0000  -0.0000

          k = 0.1754 0.2632 0.4386 ( 14184 PWs)   bands (ev):

   -32.1364 -30.3044 -13.3985 -13.3772 -13.3641 -12.8531 -12.8453 -12.8418
    -5.4557  -5.0504  -5.0351   3.1445   3.5387   3.7899   4.1329   4.4725
     5.0043   5.4841   5.8649   5.9068   7.9315   8.1768   8.3744   8.7300

     occupation numbers 
     1.0000   1.0000   1.0000   1.0000   1.0000   1.0000   1.0000   1.0000
     1.0000   1.0000   1.0000   1.0000   1.0000   1.0000   1.0000   1.0000
     1.0000   1.0000   1.0015   1.0052  -0.0000  -0.0000  -0.0000  -0.0000

          k = 0.1754 0.2632-0.5263 ( 14174 PWs)   bands (ev):

   -32.1364 -30.3044 -13.4017 -13.3772 -13.3640 -12.8541 -12.8451 -12.8416
    -5.4309  -5.0538  -5.0343   3.1977   3.4322   3.7355   4.1123   4.4721
     5.2290   5.2526   5.8598   5.8775   7.9775   8.3866   8.4594   8.6540

     occupation numbers 
     1.0000   1.0000   1.0000   1.0000   1.0000   1.0000   1.0000   1.0000
     1.0000   1.0000   1.0000   1.0000   1.0000   1.0000   1.0000   1.0000
     1.0000   1.0000   1.0013   1.0023  -0.0000  -0.0000  -0.0000  -0.0000

          k = 0.1754 0.3509 0.3509 ( 14203 PWs)   bands (ev):

   -32.1364 -30.3044 -13.3898 -13.3894 -13.3639 -12.8501 -12.8485 -12.8417
    -5.4424  -5.0410  -5.0371   3.0353   3.5278   3.9025   4.0400   4.6650
     4.7576   5.6319   5.7736   6.0772   7.8571   8.1251   8.1519   8.8435

     occupation numbers 
     1.0000   1.0000   1.0000   1.0000   1.0000   1.0000   1.0000   1.0000
     1.0000   1.0000   1.0000   1.0000   1.0000   1.0000   1.0000   1.0000
     1.0000   1.0000   1.0001   1.0066  -0.0000  -0.0000  -0.0000  -0.0000

          k = 0.1754 0.3509 0.4386 ( 14189 PWs)   bands (ev):

   -32.1364 -30.3043 -13.3986 -13.3896 -13.3636 -12.8518 -12.8485 -12.8415
    -5.3828  -5.0423  -5.0352   3.0069   3.3996   3.8059   3.9666   4.6894
     4.9389   5.4506   5.7060   6.1401   7.9738   8.1878   8.3684   8.7159

     occupation numbers 
     1.0000   1.0000   1.0000   1.0000   1.0000   1.0000   1.0000   1.0000
     1.0000   1.0000   1.0000   1.0000   1.0000   1.0000   1.0000   1.0000
     1.0000   1.0000   1.0000   0.8178  -0.0000  -0.0000  -0.0000  -0.0000

          k = 0.1754 0.3509-0.5263 ( 14158 PWs)   bands (ev):

   -32.1364 -30.3043 -13.4018 -13.3896 -13.3635 -12.8527 -12.8482 -12.8414
    -5.3602  -5.0433  -5.0346   3.0049   3.3479   3.7513   3.9562   4.6918
     5.1054   5.2801   5.6947   6.1549   8.0889   8.1875   8.3940   8.8026

     occupation numbers 
     1.0000   1.0000   1.0000   1.0000   1.0000   1.0000   1.0000   1.0000
     1.0000   1.0000   1.0000   1.0000   1.0000   1.0000   1.0000   1.0000
     1.0000   1.0000   1.0000   0.7436  -0.0000  -0.0000  -0.0000  -0.0000

          k = 0.1754 0.4386 0.4386 ( 14177 PWs)   bands (ev):

   -32.1363 -30.3043 -13.3987 -13.3985 -13.3633 -12.8511 -12.8506 -12.8413
    -5.3286  -5.0375  -5.0341   2.9110   3.3205   3.8115   3.8362   4.9043
     4.9159   5.4204   5.5165   6.2898   7.9783   8.1905   8.4721   8.7111

     occupation numbers 
     1.0000   1.0000   1.0000   1.0000   1.0000   1.0000   1.0000   1.0000
     1.0000   1.0000   1.0000   1.0000   1.0000   1.0000   1.0000   1.0000
     1.0000   1.0000   1.0000   0.0442  -0.0000  -0.0000  -0.0000  -0.0000

          k = 0.1754 0.4386-0.5263 ( 14176 PWs)   bands (ev):

   -32.1363 -30.3043 -13.4019 -13.3986 -13.3632 -12.8517 -12.8505 -12.8412
    -5.3085  -5.0357  -5.0337   2.8773   3.2945   3.7715   3.8280   4.8999
     5.0639   5.3079   5.4795   6.3362   8.0536   8.0736   8.5472   8.8569

     occupation numbers 
     1.0000   1.0000   1.0000   1.0000   1.0000   1.0000   1.0000   1.0000
     1.0000   1.0000   1.0000   1.0000   1.0000   1.0000   1.0000   1.0000
     1.0000   1.0000   1.0000  -0.0279  -0.0000  -0.0000  -0.0000  -0.0000

          k = 0.1754-0.5263-0.5263 ( 14200 PWs)   bands (ev):

   -32.1363 -30.3042 -13.4019 -13.4019 -13.3631 -12.8514 -12.8514 -12.8411
    -5.2898  -5.0329  -5.0329   2.8334   3.2761   3.7791   3.7791   4.9721
     5.1347   5.3212   5.3212   6.3946   8.0071   8.0413   8.7037   8.8530

     occupation numbers 
     1.0000   1.0000   1.0000   1.0000   1.0000   1.0000   1.0000   1.0000
     1.0000   1.0000   1.0000   1.0000   1.0000   1.0000   1.0000   1.0000
     1.0000   1.0000   1.0000  -0.0294  -0.0000  -0.0000  -0.0000  -0.0000

          k = 0.2632 0.2632 0.2632 ( 14186 PWs)   bands (ev):

   -32.1365 -30.3045 -13.3773 -13.3769 -13.3769 -12.8472 -12.8455 -12.8455
    -5.5249  -5.0392  -5.0392   3.0645   3.8316   3.8316   4.2873   4.5776
     4.5776   5.9540   5.9540   5.9850   7.7453   7.7453   7.8846   9.0219

     occupation numbers 
     1.0000   1.0000   1.0000   1.0000   1.0000   1.0000   1.0000   1.0000
     1.0000   1.0000   1.0000   1.0000   1.0000   1.0000   1.0000   1.0000
     1.0000   1.0152   1.0152   1.0253  -0.0000  -0.0000  -0.0000  -0.0000

          k = 0.2632 0.2632 0.3509 ( 14199 PWs)   bands (ev):

   -32.1364 -30.3044 -13.3893 -13.3773 -13.3762 -12.8497 -12.8454 -12.8454
    -5.4446  -5.0406  -5.0376   3.0420   3.6754   3.7112   4.0525   4.5965
     4.7833   5.8188   5.9221   6.0367   7.8362   7.9206   7.9510   8.9833

     occupation numbers 
     1.0000   1.0000   1.0000   1.0000   1.0000   1.0000   1.0000   1.0000
     1.0000   1.0000   1.0000   1.0000   1.0000   1.0000   1.0000   1.0000
     1.0000   1.0003   1.0077   1.0350  -0.0000  -0.0000  -0.0000  -0.0000

          k = 0.2632 0.2632 0.4386 ( 14196 PWs)   bands (ev):

   -32.1364 -30.3043 -13.3982 -13.3774 -13.3756 -12.8522 -12.8454 -12.8448
    -5.3817  -5.0449  -5.0365   3.0931   3.4746   3.5742   3.9744   4.6182
     4.9896   5.6426   5.8982   6.0195   7.9249   8.1227   8.2091   8.8302

     occupation numbers 
     1.0000   1.0000   1.0000   1.0000   1.0000   1.0000   1.0000   1.0000
     1.0000   1.0000   1.0000   1.0000   1.0000   1.0000   1.0000   1.0000
     1.0000   1.0000   1.0041   1.0347  -0.0000  -0.0000  -0.0000  -0.0000

          k = 0.2632 0.2632-0.5263 ( 14170 PWs)   bands (ev):

   -32.1364 -30.3043 -13.4014 -13.3774 -13.3754 -12.8531 -12.8454 -12.8445
    -5.3573  -5.0476  -5.0361   3.1862   3.3029   3.5394   3.9595   4.6275
     5.1040   5.5345   5.8896   6.0046   7.9580   8.2733   8.4232   8.7187

     occupation numbers 
     1.0000   1.0000   1.0000   1.0000   1.0000   1.0000   1.0000   1.0000
     1.0000   1.0000   1.0000   1.0000   1.0000   1.0000   1.0000   1.0000
     1.0000   1.0000   1.0033   1.0315  -0.0000  -0.0000  -0.0000  -0.0000

          k = 0.2632 0.3509 0.3509 ( 14195 PWs)   bands (ev):

   -32.1364 -30.3043 -13.3891 -13.3889 -13.3762 -12.8493 -12.8485 -12.8451
    -5.3663  -5.0390  -5.0376   3.0074   3.4953   3.6756   3.8186   4.7518
     4.8270   5.8206   5.8590   6.1709   7.8884   7.9699   7.9767   8.8906

     occupation numbers 
     1.0000   1.0000   1.0000   1.0000   1.0000   1.0000   1.0000   1.0000
     1.0000   1.0000   1.0000   1.0000   1.0000   1.0000   1.0000   1.0000
     1.0000   1.0003   1.0013   0.6537  -0.0000  -0.0000  -0.0000  -0.0000

          k = 0.2632 0.3509 0.4386 ( 14165 PWs)   bands (ev):

   -32.1363 -30.3043 -13.3979 -13.3888 -13.3758 -12.8514 -12.8484 -12.8448
    -5.3060  -5.0404  -5.0370   3.0304   3.3179   3.5599   3.7585   4.7999
     4.9646   5.7223   5.8459   6.2261   7.9806   8.0335   8.1939   8.6854

     occupation numbers 
     1.0000   1.0000   1.0000   1.0000   1.0000   1.0000   1.0000   1.0000
     1.0000   1.0000   1.0000   1.0000   1.0000   1.0000   1.0000   1.0000
     1.0000   1.0000   1.0008   0.3181  -0.0000  -0.0000  -0.0000  -0.0000

          k = 0.2632 0.3509-0.5263 ( 14190 PWs)   bands (ev):

   -32.1363 -30.3042 -13.4011 -13.3887 -13.3757 -12.8523 -12.8482 -12.8447
    -5.2830  -5.0415  -5.0369   3.0870   3.2006   3.5055   3.7576   4.8101
     5.0399   5.6594   5.8459   6.2361   8.0321   8.1137   8.3290   8.6144

     occupation numbers 
     1.0000   1.0000   1.0000   1.0000   1.0000   1.0000   1.0000   1.0000
     1.0000   1.0000   1.0000   1.0000   1.0000   1.0000   1.0000   1.0000
     1.0000   1.0000   1.0008   0.2627  -0.0000  -0.0000  -0.0000  -0.0000

          k = 0.2632 0.4386 0.4386 ( 14185 PWs)   bands (ev):

   -32.1363 -30.3042 -13.3977 -13.3976 -13.3754 -12.8509 -12.8506 -12.8447
    -5.2495  -5.0383  -5.0360   2.9949   3.1887   3.5770   3.6030   4.9524
     4.9595   5.7552   5.7694   6.3655   7.9572   8.1373   8.2549   8.5208

     occupation numbers 
     1.0000   1.0000   1.0000   1.0000   1.0000   1.0000   1.0000   1.0000
     1.0000   1.0000   1.0000   1.0000   1.0000   1.0000   1.0000   1.0000
     1.0000   1.0000   1.0000  -0.0354  -0.0000  -0.0000  -0.0000  -0.0000

          k = 0.2632 0.4386-0.5263 ( 14180 PWs)   bands (ev):

   -32.1362 -30.3042 -13.4009 -13.3976 -13.3752 -12.8516 -12.8506 -12.8446
    -5.2286  -5.0370  -5.0362   2.9898   3.1355   3.5305   3.6015   4.9519
     5.0267   5.7171   5.7754   6.4091   7.9833   8.1160   8.3346   8.5658

     occupation numbers 
     1.0000   1.0000   1.0000   1.0000   1.0000   1.0000   1.0000   1.0000
     1.0000   1.0000   1.0000   1.0000   1.0000   1.0000   1.0000   1.0000
     1.0000   1.0000   1.0001  -0.0247  -0.0000  -0.0000  -0.0000  -0.0000

          k = 0.2632-0.5263-0.5263 ( 14168 PWs)   bands (ev):

   -32.1362 -30.3042 -13.4008 -13.4008 -13.3750 -12.8514 -12.8514 -12.8446
    -5.2090  -5.0354  -5.0354   2.9538   3.1131   3.5439   3.5439   4.9786
     5.0596   5.7370   5.7370   6.4670   7.9349   8.0982   8.5513   8.5513

     occupation numbers 
     1.0000   1.0000   1.0000   1.0000   1.0000   1.0000   1.0000   1.0000
     1.0000   1.0000   1.0000   1.0000   1.0000   1.0000   1.0000   1.0000
     1.0000   1.0000   1.0000  -0.0082  -0.0000  -0.0000  -0.0000  -0.0000

          k = 0.3509 0.3509 0.3509 ( 14192 PWs)   bands (ev):

   -32.1363 -30.3042 -13.3892 -13.3880 -13.3880 -12.8486 -12.8485 -12.8485
    -5.2875  -5.0381  -5.0381   2.9835   3.5042   3.5042   3.5469   4.8732
     4.8732   5.9213   5.9213   6.2916   7.8768   7.9488   7.9488   8.8632

     occupation numbers 
     1.0000   1.0000   1.0000   1.0000   1.0000   1.0000   1.0000   1.0000
     1.0000   1.0000   1.0000   1.0000   1.0000   1.0000   1.0000   1.0000
     1.0000   1.0075   1.0075   0.0394  -0.0000  -0.0000  -0.0000  -0.0000

          k = 0.3509 0.3509 0.4386 ( 14181 PWs)   bands (ev):

   -32.1362 -30.3042 -13.3972 -13.3886 -13.3873 -12.8510 -12.8485 -12.8480
    -5.2273  -5.0388  -5.0384   3.0036   3.2868   3.3981   3.5456   4.9023
     4.9702   5.9426   5.9723   6.3529   7.9247   7.9866   8.0900   8.6277

     occupation numbers 
     1.0000   1.0000   1.0000   1.0000   1.0000   1.0000   1.0000   1.0000
     1.0000   1.0000   1.0000   1.0000   1.0000   1.0000   1.0000   1.0000
     1.0000   1.0121   1.0210  -0.0346  -0.0000  -0.0000  -0.0000  -0.0000

          k = 0.3509 0.3509-0.5263 ( 14176 PWs)   bands (ev):

   -32.1362 -30.3042 -13.4005 -13.3885 -13.3871 -12.8519 -12.8485 -12.8478
    -5.2043  -5.0396  -5.0386   3.0678   3.1400   3.3623   3.5582   4.9125
     5.0080   5.9426   5.9907   6.3634   7.9969   8.0082   8.3017   8.3897

     occupation numbers 
     1.0000   1.0000   1.0000   1.0000   1.0000   1.0000   1.0000   1.0000
     1.0000   1.0000   1.0000   1.0000   1.0000   1.0000   1.0000   1.0000
     1.0000   1.0121   1.0272  -0.0355  -0.0000  -0.0000  -0.0000  -0.0000

          k = 0.3509 0.4386 0.4386 ( 14188 PWs)   bands (ev):

   -32.1362 -30.3041 -13.3969 -13.3966 -13.3873 -12.8507 -12.8507 -12.8481
    -5.1684  -5.0390  -5.0379   2.9753   3.1728   3.4010   3.4026   4.9746
     4.9747   6.0574   6.0675   6.4600   7.8838   8.0663   8.0753   8.4137

     occupation numbers 
     1.0000   1.0000   1.0000   1.0000   1.0000   1.0000   1.0000   1.0000
     1.0000   1.0000   1.0000   1.0000   1.0000   1.0000   1.0000   1.0000
     1.0000   1.0270   1.0185  -0.0097  -0.0000  -0.0000  -0.0000  -0.0000

          k = 0.3509 0.4386-0.5263 ( 14188 PWs)   bands (ev):

   -32.1362 -30.3041 -13.4000 -13.3966 -13.3871 -12.8516 -12.8506 -12.8481
    -5.1466  -5.0386  -5.0383   2.9730   3.1092   3.3538   3.4183   4.9767
     5.0010   6.0948   6.1000   6.4959   7.8981   8.0672   8.2288   8.2543

     occupation numbers 
     1.0000   1.0000   1.0000   1.0000   1.0000   1.0000   1.0000   1.0000
     1.0000   1.0000   1.0000   1.0000   1.0000   1.0000   1.0000   1.0000
     1.0000   0.9745   0.9621  -0.0039  -0.0000  -0.0000  -0.0000  -0.0000

          k = 0.3509-0.5263-0.5263 ( 14188 PWs)   bands (ev):

   -32.1362 -30.3041 -13.3998 -13.3998 -13.3869 -12.8515 -12.8515 -12.8481
    -5.1259  -5.0378  -5.0378   2.9378   3.0839   3.3692   3.3692   4.9851
     5.0144   6.1416   6.1416   6.5490   7.8487   8.1580   8.2120   8.2120

     occupation numbers 
     1.0000   1.0000   1.0000   1.0000   1.0000   1.0000   1.0000   1.0000
     1.0000   1.0000   1.0000   1.0000   1.0000   1.0000   1.0000   1.0000
     1.0000   0.8105   0.8105  -0.0008  -0.0000  -0.0000  -0.0000  -0.0000

          k = 0.4386 0.4386 0.4386 ( 14172 PWs)   bands (ev):

   -32.1361 -30.3041 -13.3965 -13.3959 -13.3959 -12.8507 -12.8507 -12.8505
    -5.1077  -5.0394  -5.0394   2.8868   3.2118   3.2956   3.2956   4.9867
     4.9867   6.2887   6.2887   6.5445   7.8206   7.9919   7.9919   8.3673

     occupation numbers 
     1.0000   1.0000   1.0000   1.0000   1.0000   1.0000   1.0000   1.0000
     1.0000   1.0000   1.0000   1.0000   1.0000   1.0000   1.0000   1.0000
     1.0000   0.0470   0.0470  -0.0009  -0.0000  -0.0000  -0.0000  -0.0000

          k = 0.4386 0.4386-0.5263 ( 14182 PWs)   bands (ev):

   -32.1361 -30.3041 -13.3993 -13.3961 -13.3956 -12.8515 -12.8507 -12.8505
    -5.0854  -5.0399  -5.0393   2.8500   3.1895   3.2596   3.3016   4.9906
     4.9920   6.3709   6.3800   6.5767   7.8215   7.9429   7.9983   8.2401

     occupation numbers 
     1.0000   1.0000   1.0000   1.0000   1.0000   1.0000   1.0000   1.0000
     1.0000   1.0000   1.0000   1.0000   1.0000   1.0000   1.0000   1.0000
     1.0000  -0.0349  -0.0334  -0.0003  -0.0000  -0.0000  -0.0000  -0.0000

          k = 0.4386-0.5263-0.5263 ( 14200 PWs)   bands (ev):

   -32.1361 -30.3041 -13.3990 -13.3990 -13.3956 -12.8515 -12.8515 -12.8506
    -5.0635  -5.0396  -5.0396   2.8039   3.1867   3.2621   3.2621   4.9899
     4.9959   6.4862   6.4862   6.6173   7.7794   7.9011   7.9011   8.2670

     occupation numbers 
     1.0000   1.0000   1.0000   1.0000   1.0000   1.0000   1.0000   1.0000
     1.0000   1.0000   1.0000   1.0000   1.0000   1.0000   1.0000   1.0000
     1.0000  -0.0051  -0.0051  -0.0001  -0.0000  -0.0000  -0.0000  -0.0000

          k =-0.5263-0.5263-0.5263 ( 14328 PWs)   bands (ev):

   -32.1361 -30.3040 -13.3987 -13.3987 -13.3987 -12.8515 -12.8515 -12.8515
    -5.0403  -5.0403  -5.0403   2.7540   3.2261   3.2261   3.2261   4.9917
     4.9917   6.6446   6.6446   6.6446   7.7530   7.7530   7.7530   8.2063

     occupation numbers 
     1.0000   1.0000   1.0000   1.0000   1.0000   1.0000   1.0000   1.0000
     1.0000   1.0000   1.0000   1.0000   1.0000   1.0000   1.0000   1.0000
     1.0000  -0.0000  -0.0000  -0.0000  -0.0000  -0.0000  -0.0000  -0.0000

     the Fermi energy is     6.1961 ev

!    total energy              =   -1173.59156578 Ry
     total all-electron energy =    -33662.972678 Ry
     estimated scf accuracy    <          6.5E-13 Ry
     smearing contrib. (-TS)   =       0.00000610 Ry
     internal energy E=F+TS    =   -1173.59157188 Ry

     The total energy is F=E-TS. E is the sum of the following terms:
     one-electron contribution =     -43.26595296 Ry
     hartree contribution      =      38.14026745 Ry
     xc contribution           =    -104.52426835 Ry
     ewald contribution        =    -149.83715996 Ry
     one-center paw contrib.   =    -914.10445805 Ry
      -> PAW hartree energy AE =      47.98244305 Ry
      -> PAW hartree energy PS =     -47.76023175 Ry
      -> PAW xc energy AE      =     -71.55573447 Ry
      -> PAW xc energy PS      =      11.34713601 Ry
      -> total E_H with PAW    =      38.36247874 Ry
      -> total E_XC with PAW   =    -164.73286681 Ry

     convergence has been achieved in  11 iterations

     Forces acting on atoms (cartesian axes, Ry/au):

     atom    1 type  1   force =     0.00000000    0.00000000    0.00000000
     atom    2 type  2   force =     0.00000000    0.00000000    0.00000000
     atom    3 type  3   force =     0.00000000    0.00000000    0.00000000
     atom    4 type  3   force =     0.00000000    0.00000000    0.00000000
     atom    5 type  3   force =     0.00000000    0.00000000    0.00000000
     The non-local contrib.  to forces
     atom    1 type  1   force =     0.00000000    0.00000000    0.00000000
     atom    2 type  2   force =     0.00000000    0.00000000    0.00000000
     atom    3 type  3   force =     0.00000000    0.00000000    0.00000000
     atom    4 type  3   force =     0.00000000    0.00000000    0.00000000
     atom    5 type  3   force =     0.00000000    0.00000000    0.00000000
     The ionic contribution  to forces
     atom    1 type  1   force =    -0.00000000   -0.00000000   -0.00000000
     atom    2 type  2   force =    -0.00000000   -0.00000000   -0.00000000
     atom    3 type  3   force =     0.00000000   -0.00000000   -0.00000000
     atom    4 type  3   force =    -0.00000000    0.00000000   -0.00000000
     atom    5 type  3   force =    -0.00000000   -0.00000000    0.00000000
     The local contribution  to forces
     atom    1 type  1   force =     0.00000000    0.00000000    0.00000000
     atom    2 type  2   force =     0.00000000    0.00000000    0.00000000
     atom    3 type  3   force =    -0.00000000    0.00000000    0.00000000
     atom    4 type  3   force =     0.00000000   -0.00000000    0.00000000
     atom    5 type  3   force =     0.00000000    0.00000000   -0.00000000
     The core correction contribution to forces
     atom    1 type  1   force =     0.00000000    0.00000000   -0.00000000
     atom    2 type  2   force =     0.00000000    0.00000000    0.00000000
     atom    3 type  3   force =    -0.00000000    0.00000000   -0.00000000
     atom    4 type  3   force =     0.00000000   -0.00000000   -0.00000000
     atom    5 type  3   force =    -0.00000000    0.00000000   -0.00000000
     The Hubbard contrib.    to forces
     atom    1 type  1   force =     0.00000000    0.00000000    0.00000000
     atom    2 type  2   force =     0.00000000    0.00000000    0.00000000
     atom    3 type  3   force =     0.00000000    0.00000000    0.00000000
     atom    4 type  3   force =     0.00000000    0.00000000    0.00000000
     atom    5 type  3   force =     0.00000000    0.00000000    0.00000000
     The SCF correction term to forces
     atom    1 type  1   force =     0.00000000    0.00000000    0.00000000
     atom    2 type  2   force =     0.00000000    0.00000000    0.00000000
     atom    3 type  3   force =     0.00000000   -0.00000000    0.00000000
     atom    4 type  3   force =    -0.00000000    0.00000000    0.00000000
     atom    5 type  3   force =    -0.00000000    0.00000000   -0.00000000

     Total force =     0.000000     Total SCF correction =     0.000000


     Computing stress (Cartesian axis) and pressure

          total   stress  (Ry/bohr**3)                   (kbar)     P=       -0.14
  -0.00000093   0.00000000   0.00000000           -0.14        0.00        0.00
   0.00000000  -0.00000093   0.00000000            0.00       -0.14        0.00
   0.00000000   0.00000000  -0.00000093            0.00        0.00       -0.14

     kinetic stress (kbar)   7082.62      0.00      0.00
                                0.00   7082.62      0.00
                                0.00      0.00   7082.62

     local   stress (kbar)  -2040.47     -0.00      0.00
                               -0.00  -2040.47     -0.00
                                0.00     -0.00  -2040.47

     nonloc. stress (kbar)   2401.29      0.00      0.00
                                0.00   2401.29      0.00
                                0.00      0.00   2401.29

     hartree stress (kbar)   1860.64     -0.00     -0.00
                               -0.00   1860.64     -0.00
                               -0.00     -0.00   1860.64

     exc-cor stress (kbar)   8557.81     -0.00     -0.00
                               -0.00   8557.81     -0.00
                               -0.00     -0.00   8557.81

     corecor stress (kbar) -10552.34     -0.00      0.00
                               -0.00 -10552.34     -0.00
                                0.00     -0.00 -10552.34

     ewald   stress (kbar)  -7309.68     -0.00     -0.00
                               -0.00  -7309.68     -0.00
                               -0.00     -0.00  -7309.68

     hubbard stress (kbar)      0.00      0.00      0.00
                                0.00      0.00      0.00
                                0.00      0.00      0.00

     DFT-D   stress (kbar)      0.00      0.00      0.00
                                0.00      0.00      0.00
                                0.00      0.00      0.00

     XDM     stress (kbar)      0.00      0.00      0.00
                                0.00      0.00      0.00
                                0.00      0.00      0.00

     dft-nl  stress (kbar)      0.00      0.00      0.00
                                0.00      0.00      0.00
                                0.00      0.00      0.00

     TS-vdW  stress (kbar)      0.00      0.00      0.00
                                0.00      0.00      0.00
                                0.00      0.00      0.00

     MDB     stress (kbar)      0.00      0.00      0.00
                                0.00      0.00      0.00
                                0.00      0.00      0.00

     3D-RISM stress (kbar)      0.00      0.00      0.00
                                0.00      0.00      0.00
                                0.00      0.00      0.00

     Energy error            =      4.7E-05 Ry
     Gradient error          =      0.0E+00 Ry/Bohr
     Cell gradient error     =      1.4E-01 kbar

     number of scf cycles    =   6
     number of bfgs steps    =   5

     enthalpy           old  =   -1173.5915189421 Ry
     enthalpy           new  =   -1173.5915657811 Ry

     CASE: enthalpy          _new < enthalpy          _old

     new trust radius        =       0.0006569553 bohr
     new conv_thr            =            1.0E-12 Ry

     new unit-cell volume =   1004.82996 a.u.^3 (   148.90044 Ang^3 )
     density =      4.65121 g/cm^3

CELL_PARAMETERS (angstrom)
   5.300278106   0.000000000   0.000000000
   0.000000000   5.300278106   0.000000000
   0.000000000   0.000000000   5.300278106

ATOMIC_POSITIONS (crystal)
Ca               0.0000000000        0.0000000000        0.0000000000
Ce               0.5000000000        0.5000000000        0.5000000000
Se               0.5000000000        0.0000000000        0.0000000000
Se               0.0000000000        0.5000000000        0.0000000000
Se               0.0000000000        0.0000000000        0.5000000000



     Writing config-only to output data dir ./tmp/caces3.save/ :
     XML data file
     NEW-OLD atomic charge density approx. for the potential

     total cpu time spent up to now is    19123.9 secs

     Self-consistent Calculation

     iteration #  1     ecut=    80.00 Ry     beta= 0.30
     Davidson diagonalization with overlap

---- Real-time Memory Report at c_bands before calling an iterative solver
           267 MiB given to the printing process from OS
             0 MiB allocation reported by mallinfo(arena+hblkhd)
         50928 MiB available memory on the node where the printing process lives
------------------
     ethr =  1.00E-06,  avg # of iterations =  2.0

     Threshold (ethr) on eigenvalues was too large:
     Diagonalizing with lowered threshold

     Davidson diagonalization with overlap

---- Real-time Memory Report at c_bands before calling an iterative solver
           267 MiB given to the printing process from OS
             0 MiB allocation reported by mallinfo(arena+hblkhd)
         51626 MiB available memory on the node where the printing process lives
------------------
     ethr =  5.08E-11,  avg # of iterations =  7.0

     total cpu time spent up to now is    19524.4 secs

     total energy              =   -1173.59156595 Ry
     estimated scf accuracy    <       0.00000003 Ry

     iteration #  2     ecut=    80.00 Ry     beta= 0.30
     Davidson diagonalization with overlap

---- Real-time Memory Report at c_bands before calling an iterative solver
           267 MiB given to the printing process from OS
             0 MiB allocation reported by mallinfo(arena+hblkhd)
         50929 MiB available memory on the node where the printing process lives
------------------
     ethr =  6.96E-11,  avg # of iterations =  2.1

     total cpu time spent up to now is    19638.4 secs

     total energy              =   -1173.59156594 Ry
     estimated scf accuracy    <          2.2E-09 Ry

     iteration #  3     ecut=    80.00 Ry     beta= 0.30
     Davidson diagonalization with overlap

---- Real-time Memory Report at c_bands before calling an iterative solver
           267 MiB given to the printing process from OS
             0 MiB allocation reported by mallinfo(arena+hblkhd)
         51094 MiB available memory on the node where the printing process lives
------------------
     ethr =  5.61E-12,  avg # of iterations =  5.3

     total cpu time spent up to now is    19866.5 secs

     total energy              =   -1173.59156593 Ry
     estimated scf accuracy    <          1.0E-09 Ry

     iteration #  4     ecut=    80.00 Ry     beta= 0.30
     Davidson diagonalization with overlap

---- Real-time Memory Report at c_bands before calling an iterative solver
           267 MiB given to the printing process from OS
             0 MiB allocation reported by mallinfo(arena+hblkhd)
         51365 MiB available memory on the node where the printing process lives
------------------
     ethr =  2.59E-12,  avg # of iterations =  2.5

     total cpu time spent up to now is    19997.8 secs

     total energy              =   -1173.59156593 Ry
     estimated scf accuracy    <          2.5E-10 Ry

     iteration #  5     ecut=    80.00 Ry     beta= 0.30
     Davidson diagonalization with overlap

---- Real-time Memory Report at c_bands before calling an iterative solver
           267 MiB given to the printing process from OS
             0 MiB allocation reported by mallinfo(arena+hblkhd)
         50879 MiB available memory on the node where the printing process lives
------------------
     ethr =  6.36E-13,  avg # of iterations =  5.4

     total cpu time spent up to now is    20229.4 secs

     total energy              =   -1173.59156593 Ry
     estimated scf accuracy    <          1.4E-10 Ry

     iteration #  6     ecut=    80.00 Ry     beta= 0.30
     Davidson diagonalization with overlap

---- Real-time Memory Report at c_bands before calling an iterative solver
           267 MiB given to the printing process from OS
             0 MiB allocation reported by mallinfo(arena+hblkhd)
         51042 MiB available memory on the node where the printing process lives
------------------
     ethr =  3.70E-13,  avg # of iterations =  1.8

     total cpu time spent up to now is    20332.2 secs

     total energy              =   -1173.59156593 Ry
     estimated scf accuracy    <          4.1E-11 Ry

     iteration #  7     ecut=    80.00 Ry     beta= 0.30
     Davidson diagonalization with overlap

---- Real-time Memory Report at c_bands before calling an iterative solver
           267 MiB given to the printing process from OS
             0 MiB allocation reported by mallinfo(arena+hblkhd)
         51372 MiB available memory on the node where the printing process lives
------------------
     ethr =  1.05E-13,  avg # of iterations =  6.8

     total cpu time spent up to now is    20614.3 secs

     total energy              =   -1173.59156593 Ry
     estimated scf accuracy    <          1.4E-10 Ry

     iteration #  8     ecut=    80.00 Ry     beta= 0.30
     Davidson diagonalization with overlap

---- Real-time Memory Report at c_bands before calling an iterative solver
           267 MiB given to the printing process from OS
             0 MiB allocation reported by mallinfo(arena+hblkhd)
         51119 MiB available memory on the node where the printing process lives
------------------
     ethr =  1.05E-13,  avg # of iterations =  2.9

     total cpu time spent up to now is    20757.7 secs

     total energy              =   -1173.59156593 Ry
     estimated scf accuracy    <          1.3E-11 Ry

     iteration #  9     ecut=    80.00 Ry     beta= 0.30
     Davidson diagonalization with overlap

---- Real-time Memory Report at c_bands before calling an iterative solver
           267 MiB given to the printing process from OS
             0 MiB allocation reported by mallinfo(arena+hblkhd)
         50841 MiB available memory on the node where the printing process lives
------------------
     ethr =  1.00E-13,  avg # of iterations =  1.1

     total cpu time spent up to now is    20837.6 secs

     total energy              =   -1173.59156593 Ry
     estimated scf accuracy    <          3.6E-12 Ry

     iteration # 10     ecut=    80.00 Ry     beta= 0.30
     Davidson diagonalization with overlap

---- Real-time Memory Report at c_bands before calling an iterative solver
           267 MiB given to the printing process from OS
             0 MiB allocation reported by mallinfo(arena+hblkhd)
         51198 MiB available memory on the node where the printing process lives
------------------
     ethr =  1.00E-13,  avg # of iterations =  1.1

     total cpu time spent up to now is    20916.9 secs

     End of self-consistent calculation

          k = 0.0000 0.0000 0.0000 ( 14147 PWs)   bands (ev):

   -32.1328 -30.3006 -13.3501 -13.3501 -13.3501 -12.8355 -12.8355 -12.8355
    -5.9794  -5.0493  -5.0493   3.7858   3.7858   3.7858   5.4683   5.4683
     5.4683   6.5955   6.5955   6.5955   7.1150   7.1150   7.4737   7.7723

     occupation numbers 
     1.0000   1.0000   1.0000   1.0000   1.0000   1.0000   1.0000   1.0000
     1.0000   1.0000   1.0000   1.0000   1.0000   1.0000   1.0000   1.0000
     1.0000  -0.0002  -0.0002  -0.0002  -0.0000  -0.0000  -0.0000  -0.0000

          k = 0.0000 0.0000 0.0877 ( 14114 PWs)   bands (ev):

   -32.1328 -30.3006 -13.3533 -13.3500 -13.3500 -12.8368 -12.8355 -12.8355
    -5.9592  -5.0492  -5.0478   3.7609   3.7921   3.7921   5.3520   5.3942
     5.3942   6.3802   6.5588   6.5588   7.1603   7.2735   7.4862   7.5985

     occupation numbers 
     1.0000   1.0000   1.0000   1.0000   1.0000   1.0000   1.0000   1.0000
     1.0000   1.0000   1.0000   1.0000   1.0000   1.0000   1.0000   1.0000
     1.0000  -0.0340  -0.0006  -0.0006  -0.0000  -0.0000  -0.0000  -0.0000

          k = 0.0000 0.0000 0.1755 ( 14106 PWs)   bands (ev):

   -32.1327 -30.3006 -13.3621 -13.3496 -13.3496 -12.8403 -12.8354 -12.8354
    -5.9025  -5.0500  -5.0435   3.7055   3.8106   3.8106   5.1026   5.2180
     5.2180   5.9129   6.4696   6.4696   7.2866   7.5215   7.6420   7.9131

     occupation numbers 
     1.0000   1.0000   1.0000   1.0000   1.0000   1.0000   1.0000   1.0000
     1.0000   1.0000   1.0000   1.0000   1.0000   1.0000   1.0000   1.0000
     1.0000   1.0056  -0.0084  -0.0084  -0.0000  -0.0000  -0.0000  -0.0000

          k = 0.0000 0.0000 0.2632 ( 14138 PWs)   bands (ev):

   -32.1327 -30.3005 -13.3739 -13.3492 -13.3492 -12.8452 -12.8352 -12.8352
    -5.8209  -5.0548  -5.0377   3.6638   3.8395   3.8395   4.8450   5.0152
     5.0152   5.3748   6.3618   6.3618   7.4762   7.5723   8.0721   8.3179

     occupation numbers 
     1.0000   1.0000   1.0000   1.0000   1.0000   1.0000   1.0000   1.0000
     1.0000   1.0000   1.0000   1.0000   1.0000   1.0000   1.0000   1.0000
     1.0000   1.0000  -0.0353  -0.0353  -0.0000  -0.0000  -0.0000  -0.0000

          k = 0.0000 0.0000 0.3509 ( 14158 PWs)   bands (ev):

   -32.1326 -30.3004 -13.3857 -13.3487 -13.3487 -12.8500 -12.8351 -12.8351
    -5.7326  -5.0656  -5.0318   3.6807   3.8744   3.8744   4.6376   4.8363
     4.8363   4.8574   6.2641   6.2641   7.6268   7.6938   8.4650   8.7273

     occupation numbers 
     1.0000   1.0000   1.0000   1.0000   1.0000   1.0000   1.0000   1.0000
     1.0000   1.0000   1.0000   1.0000   1.0000   1.0000   1.0000   1.0000
     1.0000   1.0000   0.1442   0.1442  -0.0000  -0.0000  -0.0000  -0.0000

          k = 0.0000 0.0000 0.4387 ( 14170 PWs)   bands (ev):

   -32.1325 -30.3004 -13.3942 -13.3483 -13.3483 -12.8535 -12.8350 -12.8350
    -5.6620  -5.0792  -5.0275   3.7841   3.9057   3.9057   4.4204   4.5058
     4.7125   4.7125   6.1973   6.1973   7.6694   7.8785   8.7424   9.0480

     occupation numbers 
     1.0000   1.0000   1.0000   1.0000   1.0000   1.0000   1.0000   1.0000
     1.0000   1.0000   1.0000   1.0000   1.0000   1.0000   1.0000   1.0000
     1.0000   1.0000   0.5140   0.5140  -0.0000  -0.0000  -0.0000  -0.0000

          k = 0.0000 0.0000-0.5264 ( 14190 PWs)   bands (ev):

   -32.1325 -30.3004 -13.3974 -13.3482 -13.3482 -12.8548 -12.8350 -12.8350
    -5.6343  -5.0859  -5.0259   3.9120   3.9189   3.9189   4.1758   4.4608
     4.6676   4.6676   6.1736   6.1736   7.6857   7.9534   8.8431   9.1735

     occupation numbers 
     1.0000   1.0000   1.0000   1.0000   1.0000   1.0000   1.0000   1.0000
     1.0000   1.0000   1.0000   1.0000   1.0000   1.0000   1.0000   1.0000
     1.0000   1.0000   0.6577   0.6577  -0.0000  -0.0000  -0.0000  -0.0000

          k = 0.0000 0.0877 0.0877 ( 14125 PWs)   bands (ev):

   -32.1328 -30.3006 -13.3534 -13.3530 -13.3499 -12.8371 -12.8363 -12.8354
    -5.9391  -5.0481  -5.0471   3.6908   3.7989   3.8471   5.1579   5.3262
     5.4422   6.2344   6.4995   6.5192   7.2612   7.2761   7.5600   7.6561

     occupation numbers 
     1.0000   1.0000   1.0000   1.0000   1.0000   1.0000   1.0000   1.0000
     1.0000   1.0000   1.0000   1.0000   1.0000   1.0000   1.0000   1.0000
     1.0000   0.2906  -0.0039  -0.0022  -0.0000  -0.0000  -0.0000  -0.0000

          k = 0.0000 0.0877 0.1755 ( 14150 PWs)   bands (ev):

   -32.1327 -30.3006 -13.3620 -13.3529 -13.3495 -12.8403 -12.8364 -12.8353
    -5.8828  -5.0483  -5.0433   3.6070   3.8186   3.9011   4.8852   5.1618
     5.3509   5.8483   6.3964   6.4232   7.3481   7.5568   7.6149   7.9380

     occupation numbers 
     1.0000   1.0000   1.0000   1.0000   1.0000   1.0000   1.0000   1.0000
     1.0000   1.0000   1.0000   1.0000   1.0000   1.0000   1.0000   1.0000
     1.0000   1.0008  -0.0299  -0.0210  -0.0000  -0.0000  -0.0000  -0.0000

          k = 0.0000 0.0877 0.2632 ( 14161 PWs)   bands (ev):

   -32.1326 -30.3005 -13.3739 -13.3525 -13.3491 -12.8450 -12.8362 -12.8352
    -5.8016  -5.0526  -5.0377   3.5522   3.8494   3.9467   4.6219   4.9694
     5.1446   5.4164   6.2803   6.3080   7.5148   7.6647   7.9444   8.3302

     occupation numbers 
     1.0000   1.0000   1.0000   1.0000   1.0000   1.0000   1.0000   1.0000
     1.0000   1.0000   1.0000   1.0000   1.0000   1.0000   1.0000   1.0000
     1.0000   1.0000   0.0828   0.0106  -0.0000  -0.0000  -0.0000  -0.0000

          k = 0.0000 0.0877 0.3509 ( 14170 PWs)   bands (ev):

   -32.1326 -30.3004 -13.3857 -13.3521 -13.3486 -12.8496 -12.8360 -12.8350
    -5.7140  -5.0627  -5.0321   3.5589   3.8866   3.9819   4.4021   4.7962
     4.7974   5.1522   6.1767   6.2040   7.7156   7.7241   8.3411   8.7309

     occupation numbers 
     1.0000   1.0000   1.0000   1.0000   1.0000   1.0000   1.0000   1.0000
     1.0000   1.0000   1.0000   1.0000   1.0000   1.0000   1.0000   1.0000
     1.0000   1.0000   0.6399   0.4721  -0.0000  -0.0000  -0.0000  -0.0000

          k = 0.0000 0.0877 0.4387 ( 14152 PWs)   bands (ev):

   -32.1325 -30.3004 -13.3943 -13.3518 -13.3482 -12.8530 -12.8359 -12.8349
    -5.6440  -5.0756  -5.0280   3.6474   3.9201   3.9696   4.2538   4.4689
     4.6770   5.0270   6.1058   6.1330   7.7549   7.9077   8.6651   8.9602

     occupation numbers 
     1.0000   1.0000   1.0000   1.0000   1.0000   1.0000   1.0000   1.0000
     1.0000   1.0000   1.0000   1.0000   1.0000   1.0000   1.0000   1.0000
     1.0000   1.0000   0.9559   0.8640  -0.0000  -0.0000  -0.0000  -0.0000

          k = 0.0000 0.0877-0.5264 ( 14170 PWs)   bands (ev):

   -32.1325 -30.3003 -13.3975 -13.3517 -13.3481 -12.8542 -12.8358 -12.8349
    -5.6166  -5.0820  -5.0265   3.7738   3.8638   3.9343   4.2293   4.3309
     4.6330   4.9862   6.0807   6.1079   7.7698   7.9831   8.8051   9.0210

     occupation numbers 
     1.0000   1.0000   1.0000   1.0000   1.0000   1.0000   1.0000   1.0000
     1.0000   1.0000   1.0000   1.0000   1.0000   1.0000   1.0000   1.0000
     1.0000   1.0000   1.0065   0.9503  -0.0000  -0.0000  -0.0000  -0.0000

          k = 0.0000 0.1755 0.1755 ( 14135 PWs)   bands (ev):

   -32.1327 -30.3005 -13.3624 -13.3613 -13.3492 -12.8410 -12.8385 -12.8352
    -5.8274  -5.0446  -5.0430   3.4839   3.8420   4.0090   4.5967   5.0224
     5.4171   5.6034   6.2689   6.3098   7.4582   7.6193   7.7978   8.0636

     occupation numbers 
     1.0000   1.0000   1.0000   1.0000   1.0000   1.0000   1.0000   1.0000
     1.0000   1.0000   1.0000   1.0000   1.0000   1.0000   1.0000   1.0000
     1.0000   1.0000   0.1243   0.0073  -0.0000  -0.0000  -0.0000  -0.0000

          k = 0.0000 0.1755 0.2632 ( 14144 PWs)   bands (ev):

   -32.1326 -30.3004 -13.3739 -13.3616 -13.3488 -12.8445 -12.8388 -12.8350
    -5.7479  -5.0471  -5.0382   3.3972   3.8783   4.0912   4.3292   4.8536
     5.1859   5.4536   6.1309   6.1733   7.5839   7.8961   7.8981   8.3743

     occupation numbers 
     1.0000   1.0000   1.0000   1.0000   1.0000   1.0000   1.0000   1.0000
     1.0000   1.0000   1.0000   1.0000   1.0000   1.0000   1.0000   1.0000
     1.0000   1.0000   0.8723   0.6595  -0.0000  -0.0000  -0.0000  -0.0000

          k = 0.0000 0.1755 0.3509 ( 14160 PWs)   bands (ev):

   -32.1325 -30.3004 -13.3859 -13.3614 -13.3484 -12.8486 -12.8385 -12.8348
    -5.6624  -5.0552  -5.0329   3.3716   3.9221   4.0530   4.1957   4.6983
     4.8060   5.4311   5.9918   6.0501   7.7804   7.9535   8.2132   8.7317

     occupation numbers 
     1.0000   1.0000   1.0000   1.0000   1.0000   1.0000   1.0000   1.0000
     1.0000   1.0000   1.0000   1.0000   1.0000   1.0000   1.0000   1.0000
     1.0000   1.0000   1.0264   1.0325  -0.0000  -0.0000  -0.0000  -0.0000

          k = 0.0000 0.1755 0.4387 ( 14172 PWs)   bands (ev):

   -32.1325 -30.3003 -13.3946 -13.3612 -13.3480 -12.8517 -12.8382 -12.8347
    -5.5943  -5.0660  -5.0292   3.4132   3.8619   3.9620   4.2471   4.5136
     4.5867   5.4191   5.8845   5.9658   7.9765   7.9893   8.5013   8.8154

     occupation numbers 
     1.0000   1.0000   1.0000   1.0000   1.0000   1.0000   1.0000   1.0000
     1.0000   1.0000   1.0000   1.0000   1.0000   1.0000   1.0000   1.0000
     1.0000   1.0000   1.0025   1.0178  -0.0000  -0.0000  -0.0000  -0.0000

          k = 0.0000 0.1755-0.5264 ( 14176 PWs)   bands (ev):

   -32.1325 -30.3003 -13.3978 -13.3612 -13.3479 -12.8528 -12.8380 -12.8346
    -5.5678  -5.0714  -5.0278   3.4639   3.7563   3.9794   4.3319   4.3464
     4.5449   5.4173   5.8429   5.9359   8.0021   8.0624   8.7124   8.7313

     occupation numbers 
     1.0000   1.0000   1.0000   1.0000   1.0000   1.0000   1.0000   1.0000
     1.0000   1.0000   1.0000   1.0000   1.0000   1.0000   1.0000   1.0000
     1.0000   1.0000   1.0007   1.0097  -0.0000  -0.0000  -0.0000  -0.0000

          k = 0.0000 0.2632 0.2632 ( 14143 PWs)   bands (ev):

   -32.1325 -30.3004 -13.3746 -13.3732 -13.3484 -12.8447 -12.8415 -12.8347
    -5.6712  -5.0414  -5.0393   3.2701   3.9229   4.0657   4.2130   4.7103
     5.0531   5.4380   6.0079   6.0331   7.6485   8.0604   8.1496   8.5001

     occupation numbers 
     1.0000   1.0000   1.0000   1.0000   1.0000   1.0000   1.0000   1.0000
     1.0000   1.0000   1.0000   1.0000   1.0000   1.0000   1.0000   1.0000
     1.0000   1.0000   1.0315   1.0355  -0.0000  -0.0000  -0.0000  -0.0000

          k = 0.0000 0.2632 0.3509 ( 14147 PWs)   bands (ev):

   -32.1325 -30.3003 -13.3862 -13.3739 -13.3480 -12.8473 -12.8417 -12.8345
    -5.5896  -5.0461  -5.0341   3.1908   3.8526   3.9770   4.3007   4.5756
     4.7989   5.4656   5.8556   5.9460   7.7925   8.2748   8.2838   8.6769

     occupation numbers 
     1.0000   1.0000   1.0000   1.0000   1.0000   1.0000   1.0000   1.0000
     1.0000   1.0000   1.0000   1.0000   1.0000   1.0000   1.0000   1.0000
     1.0000   1.0000   1.0010   1.0121  -0.0000  -0.0000  -0.0000  -0.0000

          k = 0.0000 0.2632 0.4387 ( 14151 PWs)   bands (ev):

   -32.1324 -30.3002 -13.3950 -13.3740 -13.3478 -12.8499 -12.8413 -12.8343
    -5.5254  -5.0532  -5.0303   3.1617   3.6997   4.0273   4.3672   4.4755
     4.5783   5.5163   5.7498   5.8538   8.0023   8.3211   8.4368   8.6656

     occupation numbers 
     1.0000   1.0000   1.0000   1.0000   1.0000   1.0000   1.0000   1.0000
     1.0000   1.0000   1.0000   1.0000   1.0000   1.0000   1.0000   1.0000
     1.0000   1.0000   1.0000   1.0010  -0.0000  -0.0000  -0.0000  -0.0000

          k = 0.0000 0.2632-0.5264 ( 14194 PWs)   bands (ev):

   -32.1324 -30.3002 -13.3983 -13.3740 -13.3477 -12.8508 -12.8411 -12.8342
    -5.5006  -5.0569  -5.0291   3.1594   3.6398   4.0499   4.4365   4.4414
     4.4452   5.5478   5.7119   5.8062   8.1378   8.3344   8.4554   8.6402

     occupation numbers 
     1.0000   1.0000   1.0000   1.0000   1.0000   1.0000   1.0000   1.0000
     1.0000   1.0000   1.0000   1.0000   1.0000   1.0000   1.0000   1.0000
     1.0000   1.0000   1.0000   1.0002  -0.0000  -0.0000  -0.0000  -0.0000

          k = 0.0000 0.3509 0.3509 ( 14163 PWs)   bands (ev):

   -32.1324 -30.3002 -13.3869 -13.3859 -13.3477 -12.8467 -12.8443 -12.8341
    -5.5136  -5.0405  -5.0336   3.0448   3.6827   4.0432   4.4062   4.4609
     4.7403   5.3472   5.6712   6.0322   7.8325   8.4689   8.5681   8.5770

     occupation numbers 
     1.0000   1.0000   1.0000   1.0000   1.0000   1.0000   1.0000   1.0000
     1.0000   1.0000   1.0000   1.0000   1.0000   1.0000   1.0000   1.0000
     1.0000   1.0000   1.0000   1.0355  -0.0000  -0.0000  -0.0000  -0.0000

          k = 0.0000 0.3509 0.4387 ( 14162 PWs)   bands (ev):

   -32.1323 -30.3002 -13.3955 -13.3866 -13.3475 -12.8482 -12.8444 -12.8339
    -5.4552  -5.0412  -5.0304   2.9529   3.5720   4.1060   4.3747   4.4859
     4.6434   5.2860   5.5384   6.0855   7.9620   8.4033   8.6350   8.6825

     occupation numbers 
     1.0000   1.0000   1.0000   1.0000   1.0000   1.0000   1.0000   1.0000
     1.0000   1.0000   1.0000   1.0000   1.0000   1.0000   1.0000   1.0000
     1.0000   1.0000   1.0000   0.9991  -0.0000  -0.0000  -0.0000  -0.0000

          k = 0.0000 0.3509-0.5264 ( 14124 PWs)   bands (ev):

   -32.1323 -30.3001 -13.3987 -13.3867 -13.3474 -12.8489 -12.8441 -12.8338
    -5.4331  -5.0422  -5.0292   2.9221   3.5325   4.1359   4.3388   4.5479
     4.5657   5.2723   5.4896   6.1003   8.1112   8.2416   8.6936   8.7021

     occupation numbers 
     1.0000   1.0000   1.0000   1.0000   1.0000   1.0000   1.0000   1.0000
     1.0000   1.0000   1.0000   1.0000   1.0000   1.0000   1.0000   1.0000
     1.0000   1.0000   1.0000   0.9697  -0.0000  -0.0000  -0.0000  -0.0000

          k = 0.0000 0.4387 0.4387 ( 14154 PWs)   bands (ev):

   -32.1323 -30.3001 -13.3959 -13.3956 -13.3473 -12.8472 -12.8464 -12.8336
    -5.4031  -5.0337  -5.0291   2.8192   3.4854   4.1791   4.3033   4.5839
     4.6793   5.1192   5.3797   6.2297   7.9681   8.2339   8.7540   8.9628

     occupation numbers 
     1.0000   1.0000   1.0000   1.0000   1.0000   1.0000   1.0000   1.0000
     1.0000   1.0000   1.0000   1.0000   1.0000   1.0000   1.0000   1.0000
     1.0000   1.0000   1.0000   0.3175  -0.0000  -0.0000  -0.0000  -0.0000

          k = 0.0000 0.4387-0.5264 ( 14156 PWs)   bands (ev):

   -32.1323 -30.3001 -13.3991 -13.3959 -13.3472 -12.8476 -12.8463 -12.8335
    -5.3838  -5.0314  -5.0281   2.7735   3.4540   4.2151   4.2728   4.6467
     4.6643   5.0623   5.3193   6.2757   8.0288   8.1078   8.8071   9.0147

     occupation numbers 
     1.0000   1.0000   1.0000   1.0000   1.0000   1.0000   1.0000   1.0000
     1.0000   1.0000   1.0000   1.0000   1.0000   1.0000   1.0000   1.0000
     1.0000   1.0000   1.0000   0.0986  -0.0000  -0.0000  -0.0000  -0.0000

          k = 0.0000-0.5264-0.5264 ( 14108 PWs)   bands (ev):

   -32.1323 -30.3001 -13.3992 -13.3992 -13.3471 -12.8471 -12.8471 -12.8334
    -5.3659  -5.0274  -5.0274   2.7230   3.4248   4.2496   4.2496   4.7027
     4.7027   4.9683   5.2530   6.3328   7.9908   8.0623   8.8577   9.1448

     occupation numbers 
     1.0000   1.0000   1.0000   1.0000   1.0000   1.0000   1.0000   1.0000
     1.0000   1.0000   1.0000   1.0000   1.0000   1.0000   1.0000   1.0000
     1.0000   1.0000   1.0000  -0.0229  -0.0000  -0.0000  -0.0000  -0.0000

          k = 0.0877 0.0877 0.0877 ( 14126 PWs)   bands (ev):

   -32.1327 -30.3006 -13.3533 -13.3533 -13.3528 -12.8374 -12.8363 -12.8363
    -5.9191  -5.0467  -5.0467   3.6249   3.8533   3.8533   5.1118   5.1118
     5.5323   6.0879   6.4736   6.4736   7.2890   7.2890   7.6060   7.8326

     occupation numbers 
     1.0000   1.0000   1.0000   1.0000   1.0000   1.0000   1.0000   1.0000
     1.0000   1.0000   1.0000   1.0000   1.0000   1.0000   1.0000   1.0000
     1.0000   0.9952  -0.0076  -0.0076  -0.0000  -0.0000  -0.0000  -0.0000

          k = 0.0877 0.0877 0.1755 ( 14146 PWs)   bands (ev):

   -32.1327 -30.3005 -13.3619 -13.3529 -13.3527 -12.8403 -12.8365 -12.8362
    -5.8630  -5.0469  -5.0429   3.5323   3.8714   3.9235   4.8216   4.9843
     5.4925   5.7449   6.3474   6.3974   7.3670   7.4964   7.6791   8.0348

     occupation numbers 
     1.0000   1.0000   1.0000   1.0000   1.0000   1.0000   1.0000   1.0000
     1.0000   1.0000   1.0000   1.0000   1.0000   1.0000   1.0000   1.0000
     1.0000   1.0000  -0.0320  -0.0296  -0.0000  -0.0000  -0.0000  -0.0000

          k = 0.0877 0.0877 0.2632 ( 14152 PWs)   bands (ev):

   -32.1326 -30.3005 -13.3739 -13.3524 -13.3524 -12.8448 -12.8362 -12.8361
    -5.7823  -5.0506  -5.0376   3.4722   3.9004   3.9767   4.5565   4.7924
     5.3518   5.3526   6.1944   6.2976   7.5189   7.7539   7.8612   8.3072

     occupation numbers 
     1.0000   1.0000   1.0000   1.0000   1.0000   1.0000   1.0000   1.0000
     1.0000   1.0000   1.0000   1.0000   1.0000   1.0000   1.0000   1.0000
     1.0000   1.0000   0.5319   0.0330  -0.0000  -0.0000  -0.0000  -0.0000

          k = 0.0877 0.0877 0.3509 ( 14161 PWs)   bands (ev):

   -32.1326 -30.3004 -13.3858 -13.3521 -13.3518 -12.8492 -12.8359 -12.8359
    -5.6953  -5.0600  -5.0324   3.4765   3.9383   3.9977   4.3447   4.5383
     5.0527   5.2007   6.0565   6.2059   7.6907   7.8467   8.2695   8.6022

     occupation numbers 
     1.0000   1.0000   1.0000   1.0000   1.0000   1.0000   1.0000   1.0000
     1.0000   1.0000   1.0000   1.0000   1.0000   1.0000   1.0000   1.0000
     1.0000   1.0000   1.0297   0.4602  -0.0000  -0.0000  -0.0000  -0.0000

          k = 0.0877 0.0877 0.4387 ( 14164 PWs)   bands (ev):

   -32.1325 -30.3003 -13.3944 -13.3519 -13.3515 -12.8525 -12.8359 -12.8357
    -5.6258  -5.0723  -5.0285   3.5651   3.9324   3.9819   4.1975   4.3120
     4.8997   5.0922   5.9610   6.1431   7.7865   7.9777   8.6167   8.8461

     occupation numbers 
     1.0000   1.0000   1.0000   1.0000   1.0000   1.0000   1.0000   1.0000
     1.0000   1.0000   1.0000   1.0000   1.0000   1.0000   1.0000   1.0000
     1.0000   1.0000   1.0163   0.8198  -0.0000  -0.0000  -0.0000  -0.0000

          k = 0.0877 0.0877-0.5264 ( 14174 PWs)   bands (ev):

   -32.1325 -30.3003 -13.3976 -13.3518 -13.3513 -12.8537 -12.8358 -12.8356
    -5.5986  -5.0785  -5.0271   3.7033   3.7798   4.0113   4.1340   4.2466
     4.8549   5.0530   5.9268   6.1208   7.8116   8.0450   8.7693   8.9446

     occupation numbers 
     1.0000   1.0000   1.0000   1.0000   1.0000   1.0000   1.0000   1.0000
     1.0000   1.0000   1.0000   1.0000   1.0000   1.0000   1.0000   1.0000
     1.0000   1.0000   1.0079   0.9100  -0.0000  -0.0000  -0.0000  -0.0000

          k = 0.0877 0.1755 0.1755 ( 14144 PWs)   bands (ev):

   -32.1326 -30.3005 -13.3622 -13.3613 -13.3525 -12.8408 -12.8385 -12.8362
    -5.8078  -5.0436  -5.0422   3.4185   3.9048   4.0089   4.5933   4.8430
     5.4783   5.5672   6.2532   6.2940   7.4639   7.5249   7.7860   8.2533

     occupation numbers 
     1.0000   1.0000   1.0000   1.0000   1.0000   1.0000   1.0000   1.0000
     1.0000   1.0000   1.0000   1.0000   1.0000   1.0000   1.0000   1.0000
     1.0000   1.0000   0.1934   0.0420  -0.0000  -0.0000  -0.0000  -0.0000

          k = 0.0877 0.1755 0.2632 ( 14146 PWs)   bands (ev):

   -32.1326 -30.3004 -13.3739 -13.3615 -13.3521 -12.8442 -12.8387 -12.8359
    -5.7286  -5.0456  -5.0379   3.3387   3.9253   4.0794   4.3459   4.6987
     5.1723   5.5294   6.0890   6.1866   7.5810   7.7848   7.9143   8.4367

     occupation numbers 
     1.0000   1.0000   1.0000   1.0000   1.0000   1.0000   1.0000   1.0000
     1.0000   1.0000   1.0000   1.0000   1.0000   1.0000   1.0000   1.0000
     1.0000   1.0000   0.9932   0.5800  -0.0000  -0.0000  -0.0000  -0.0000

          k = 0.0877 0.1755 0.3509 ( 14163 PWs)   bands (ev):

   -32.1325 -30.3003 -13.3859 -13.3613 -13.3517 -12.8483 -12.8384 -12.8357
    -5.6435  -5.0531  -5.0331   3.3227   3.9169   4.0773   4.1817   4.5015
     4.9709   5.4632   5.9019   6.0936   7.7493   7.9968   8.1778   8.6034

     occupation numbers 
     1.0000   1.0000   1.0000   1.0000   1.0000   1.0000   1.0000   1.0000
     1.0000   1.0000   1.0000   1.0000   1.0000   1.0000   1.0000   1.0000
     1.0000   1.0000   1.0042   0.9843  -0.0000  -0.0000  -0.0000  -0.0000

          k = 0.0877 0.1755 0.4387 ( 14175 PWs)   bands (ev):

   -32.1325 -30.3003 -13.3946 -13.3611 -13.3514 -12.8513 -12.8381 -12.8355
    -5.5757  -5.0634  -5.0297   3.3816   3.7925   4.0453   4.1188   4.3508
     4.8926   5.4287   5.7436   6.0299   7.8810   8.1403   8.4884   8.7253

     occupation numbers 
     1.0000   1.0000   1.0000   1.0000   1.0000   1.0000   1.0000   1.0000
     1.0000   1.0000   1.0000   1.0000   1.0000   1.0000   1.0000   1.0000
     1.0000   1.0000   1.0000   1.0354  -0.0000  -0.0000  -0.0000  -0.0000

          k = 0.0877 0.1755-0.5264 ( 14192 PWs)   bands (ev):

   -32.1324 -30.3003 -13.3978 -13.3611 -13.3513 -12.8524 -12.8380 -12.8354
    -5.5493  -5.0687  -5.0284   3.4572   3.6715   4.0493   4.0829   4.3110
     4.8741   5.4278   5.6739   6.0074   7.9228   8.2153   8.6818   8.7051

     occupation numbers 
     1.0000   1.0000   1.0000   1.0000   1.0000   1.0000   1.0000   1.0000
     1.0000   1.0000   1.0000   1.0000   1.0000   1.0000   1.0000   1.0000
     1.0000   1.0000   1.0000   1.0313  -0.0000  -0.0000  -0.0000  -0.0000

          k = 0.0877 0.2632 0.2632 ( 14147 PWs)   bands (ev):

   -32.1325 -30.3003 -13.3744 -13.3733 -13.3518 -12.8444 -12.8415 -12.8357
    -5.6519  -5.0403  -5.0389   3.2288   3.8943   4.1580   4.1626   4.6491
     4.9389   5.5677   6.0207   6.0231   7.6572   7.9254   8.0606   8.6549

     occupation numbers 
     1.0000   1.0000   1.0000   1.0000   1.0000   1.0000   1.0000   1.0000
     1.0000   1.0000   1.0000   1.0000   1.0000   1.0000   1.0000   1.0000
     1.0000   1.0000   1.0344   1.0347  -0.0000  -0.0000  -0.0000  -0.0000

          k = 0.0877 0.2632 0.3509 ( 14151 PWs)   bands (ev):

   -32.1324 -30.3003 -13.3861 -13.3738 -13.3514 -12.8471 -12.8417 -12.8354
    -5.5704  -5.0447  -5.0341   3.1689   3.7710   4.0926   4.1741   4.5523
     4.8180   5.5235   5.8738   5.9520   7.7965   8.1108   8.2783   8.6981

     occupation numbers 
     1.0000   1.0000   1.0000   1.0000   1.0000   1.0000   1.0000   1.0000
     1.0000   1.0000   1.0000   1.0000   1.0000   1.0000   1.0000   1.0000
     1.0000   1.0000   1.0018   1.0137  -0.0000  -0.0000  -0.0000  -0.0000

          k = 0.0877 0.2632 0.4387 ( 14173 PWs)   bands (ev):

   -32.1324 -30.3002 -13.3950 -13.3738 -13.3511 -12.8496 -12.8412 -12.8352
    -5.5062  -5.0516  -5.0308   3.1618   3.6325   4.0739   4.1261   4.4572
     4.8352   5.4509   5.8014   5.8709   7.9804   8.2410   8.5259   8.6175

     occupation numbers 
     1.0000   1.0000   1.0000   1.0000   1.0000   1.0000   1.0000   1.0000
     1.0000   1.0000   1.0000   1.0000   1.0000   1.0000   1.0000   1.0000
     1.0000   1.0000   1.0001   1.0017  -0.0000  -0.0000  -0.0000  -0.0000

          k = 0.0877 0.2632-0.5264 ( 14166 PWs)   bands (ev):

   -32.1324 -30.3002 -13.3982 -13.3738 -13.3510 -12.8506 -12.8410 -12.8351
    -5.4813  -5.0552  -5.0297   3.1726   3.5687   4.0561   4.1053   4.4318
     4.8572   5.4122   5.8033   5.8161   8.0661   8.4050   8.4420   8.6414

     occupation numbers 
     1.0000   1.0000   1.0000   1.0000   1.0000   1.0000   1.0000   1.0000
     1.0000   1.0000   1.0000   1.0000   1.0000   1.0000   1.0000   1.0000
     1.0000   1.0000   1.0002   1.0002  -0.0000  -0.0000  -0.0000  -0.0000

          k = 0.0877 0.3509 0.3509 ( 14157 PWs)   bands (ev):

   -32.1324 -30.3002 -13.3867 -13.3858 -13.3511 -12.8465 -12.8443 -12.8351
    -5.4940  -5.0398  -5.0337   3.0455   3.6195   4.0831   4.1682   4.6404
     4.6957   5.4321   5.7021   6.0419   7.8399   8.3402   8.3690   8.7384

     occupation numbers 
     1.0000   1.0000   1.0000   1.0000   1.0000   1.0000   1.0000   1.0000
     1.0000   1.0000   1.0000   1.0000   1.0000   1.0000   1.0000   1.0000
     1.0000   1.0000   1.0000   1.0347  -0.0000  -0.0000  -0.0000  -0.0000

          k = 0.0877 0.3509 0.4387 ( 14171 PWs)   bands (ev):

   -32.1323 -30.3001 -13.3953 -13.3864 -13.3508 -12.8480 -12.8443 -12.8348
    -5.4353  -5.0407  -5.0309   2.9696   3.5159   4.0698   4.1209   4.6046
     4.7945   5.2979   5.5910   6.0991   7.9669   8.3431   8.5268   8.7307

     occupation numbers 
     1.0000   1.0000   1.0000   1.0000   1.0000   1.0000   1.0000   1.0000
     1.0000   1.0000   1.0000   1.0000   1.0000   1.0000   1.0000   1.0000
     1.0000   1.0000   1.0000   0.9725  -0.0000  -0.0000  -0.0000  -0.0000

          k = 0.0877 0.3509-0.5264 ( 14162 PWs)   bands (ev):

   -32.1323 -30.3001 -13.3986 -13.3865 -13.3507 -12.8488 -12.8441 -12.8347
    -5.4130  -5.0417  -5.0298   2.9448   3.4782   4.0644   4.0927   4.5910
     4.8752   5.2057   5.5628   6.1143   8.1103   8.2306   8.5407   8.8026

     occupation numbers 
     1.0000   1.0000   1.0000   1.0000   1.0000   1.0000   1.0000   1.0000
     1.0000   1.0000   1.0000   1.0000   1.0000   1.0000   1.0000   1.0000
     1.0000   1.0000   1.0000   0.9316  -0.0000  -0.0000  -0.0000  -0.0000

          k = 0.0877 0.4387 0.4387 ( 14162 PWs)   bands (ev):

   -32.1323 -30.3001 -13.3957 -13.3954 -13.3506 -12.8471 -12.8464 -12.8345
    -5.3825  -5.0339  -5.0296   2.8443   3.4398   4.0593   4.0916   4.7672
     4.7883   5.1835   5.3989   6.2457   7.9742   8.2250   8.6686   8.8921

     occupation numbers 
     1.0000   1.0000   1.0000   1.0000   1.0000   1.0000   1.0000   1.0000
     1.0000   1.0000   1.0000   1.0000   1.0000   1.0000   1.0000   1.0000
     1.0000   1.0000   1.0000   0.2302  -0.0000  -0.0000  -0.0000  -0.0000

          k = 0.0877 0.4387-0.5264 ( 14162 PWs)   bands (ev):

   -32.1323 -30.3001 -13.3988 -13.3956 -13.3505 -12.8476 -12.8463 -12.8345
    -5.3631  -5.0317  -5.0288   2.8012   3.4123   4.0609   4.0688   4.7727
     4.9141   5.0732   5.3347   6.2921   8.0419   8.0968   8.7318   8.9844

     occupation numbers 
     1.0000   1.0000   1.0000   1.0000   1.0000   1.0000   1.0000   1.0000
     1.0000   1.0000   1.0000   1.0000   1.0000   1.0000   1.0000   1.0000
     1.0000   1.0000   1.0000   0.0471  -0.0000  -0.0000  -0.0000  -0.0000

          k = 0.0877-0.5264-0.5264 ( 14156 PWs)   bands (ev):

   -32.1322 -30.3000 -13.3989 -13.3989 -13.3504 -12.8471 -12.8471 -12.8344
    -5.3449  -5.0281  -5.0281   2.7524   3.3876   4.0574   4.0574   4.9339
     4.9339   4.9701   5.2176   6.3497   8.0051   8.0513   8.8178   9.0686

     occupation numbers 
     1.0000   1.0000   1.0000   1.0000   1.0000   1.0000   1.0000   1.0000
     1.0000   1.0000   1.0000   1.0000   1.0000   1.0000   1.0000   1.0000
     1.0000   1.0000   1.0000  -0.0328  -0.0000  -0.0000  -0.0000  -0.0000

          k = 0.1755 0.1755 0.1755 ( 14120 PWs)   bands (ev):

   -32.1326 -30.3004 -13.3618 -13.3618 -13.3611 -12.8409 -12.8384 -12.8384
    -5.7531  -5.0409  -5.0409   3.3078   4.0029   4.0029   4.5827   4.5827
     5.1927   5.7152   6.2082   6.2082   7.5047   7.5047   7.8028   8.5773

     occupation numbers 
     1.0000   1.0000   1.0000   1.0000   1.0000   1.0000   1.0000   1.0000
     1.0000   1.0000   1.0000   1.0000   1.0000   1.0000   1.0000   1.0000
     1.0000   1.0000   0.4460   0.4460  -0.0000  -0.0000  -0.0000  -0.0000

          k = 0.1755 0.1755 0.2632 ( 14159 PWs)   bands (ev):

   -32.1325 -30.3004 -13.3738 -13.3613 -13.3611 -12.8437 -12.8388 -12.8383
    -5.6748  -5.0420  -5.0373   3.2290   3.9717   4.0392   4.3876   4.5299
     4.9369   5.7247   6.0367   6.1384   7.6057   7.7004   7.8901   8.6656

     occupation numbers 
     1.0000   1.0000   1.0000   1.0000   1.0000   1.0000   1.0000   1.0000
     1.0000   1.0000   1.0000   1.0000   1.0000   1.0000   1.0000   1.0000
     1.0000   1.0000   1.0353   0.8410  -0.0000  -0.0000  -0.0000  -0.0000

          k = 0.1755 0.1755 0.3509 ( 14175 PWs)   bands (ev):

   -32.1325 -30.3003 -13.3859 -13.3614 -13.3605 -12.8474 -12.8382 -12.8382
    -5.5910  -5.0477  -5.0336   3.2164   3.9002   3.9438   4.2961   4.3688
     4.9260   5.6520   5.8126   6.0650   7.7483   8.0398   8.0488   8.6996

     occupation numbers 
     1.0000   1.0000   1.0000   1.0000   1.0000   1.0000   1.0000   1.0000
     1.0000   1.0000   1.0000   1.0000   1.0000   1.0000   1.0000   1.0000
     1.0000   1.0000   1.0002   1.0239  -0.0000  -0.0000  -0.0000  -0.0000

          k = 0.1755 0.1755 0.4387 ( 14164 PWs)   bands (ev):

   -32.1324 -30.3002 -13.3947 -13.3614 -13.3601 -12.8503 -12.8381 -12.8376
    -5.5244  -5.0565  -5.0309   3.2854   3.7190   3.8272   4.2646   4.2734
     5.0614   5.5766   5.5796   6.0133   7.8653   8.2657   8.3985   8.6721

     occupation numbers 
     1.0000   1.0000   1.0000   1.0000   1.0000   1.0000   1.0000   1.0000
     1.0000   1.0000   1.0000   1.0000   1.0000   1.0000   1.0000   1.0000
     1.0000   1.0000   1.0000   1.0329  -0.0000  -0.0000  -0.0000  -0.0000

          k = 0.1755 0.1755-0.5264 ( 14180 PWs)   bands (ev):

   -32.1324 -30.3002 -13.3979 -13.3614 -13.3599 -12.8513 -12.8381 -12.8374
    -5.4984  -5.0611  -5.0299   3.3880   3.5452   3.7984   4.2366   4.2711
     5.1776   5.4340   5.5464   5.9951   7.9073   8.4299   8.5936   8.6003

     occupation numbers 
     1.0000   1.0000   1.0000   1.0000   1.0000   1.0000   1.0000   1.0000
     1.0000   1.0000   1.0000   1.0000   1.0000   1.0000   1.0000   1.0000
     1.0000   1.0000   1.0000   1.0275  -0.0000  -0.0000  -0.0000  -0.0000

          k = 0.1755 0.2632 0.2632 ( 14162 PWs)   bands (ev):

   -32.1325 -30.3003 -13.3739 -13.3733 -13.3609 -12.8436 -12.8414 -12.8382
    -5.5983  -5.0379  -5.0378   3.1414   3.8680   4.0165   4.3304   4.5875
     4.6659   5.8072   5.9963   6.0200   7.6885   7.7634   7.9357   8.8830

     occupation numbers 
     1.0000   1.0000   1.0000   1.0000   1.0000   1.0000   1.0000   1.0000
     1.0000   1.0000   1.0000   1.0000   1.0000   1.0000   1.0000   1.0000
     1.0000   1.0002   1.0279   1.0342  -0.0000  -0.0000  -0.0000  -0.0000

          k = 0.1755 0.2632 0.3509 ( 14183 PWs)   bands (ev):

   -32.1324 -30.3002 -13.3858 -13.3735 -13.3605 -12.8464 -12.8415 -12.8379
    -5.5170  -5.0414  -5.0343   3.1102   3.7084   3.9282   4.2123   4.4983
     4.7914   5.7065   5.9049   5.9641   7.8094   7.9720   8.0928   8.8656

     occupation numbers 
     1.0000   1.0000   1.0000   1.0000   1.0000   1.0000   1.0000   1.0000
     1.0000   1.0000   1.0000   1.0000   1.0000   1.0000   1.0000   1.0000
     1.0000   1.0000   1.0045   1.0172  -0.0000  -0.0000  -0.0000  -0.0000

          k = 0.1755 0.2632 0.4387 ( 14184 PWs)   bands (ev):

   -32.1323 -30.3002 -13.3947 -13.3734 -13.3602 -12.8489 -12.8411 -12.8376
    -5.4530  -5.0474  -5.0321   3.1467   3.5411   3.7922   4.1356   4.4752
     5.0072   5.4872   5.8681   5.9100   7.9354   8.1809   8.3786   8.7343

     occupation numbers 
     1.0000   1.0000   1.0000   1.0000   1.0000   1.0000   1.0000   1.0000
     1.0000   1.0000   1.0000   1.0000   1.0000   1.0000   1.0000   1.0000
     1.0000   1.0000   1.0015   1.0052  -0.0000  -0.0000  -0.0000  -0.0000

          k = 0.1755 0.2632-0.5264 ( 14174 PWs)   bands (ev):

   -32.1323 -30.3001 -13.3980 -13.3734 -13.3601 -12.8499 -12.8410 -12.8374
    -5.4282  -5.0507  -5.0314   3.1998   3.4348   3.7378   4.1149   4.4749
     5.2320   5.2555   5.8629   5.8808   7.9815   8.3908   8.4635   8.6583

     occupation numbers 
     1.0000   1.0000   1.0000   1.0000   1.0000   1.0000   1.0000   1.0000
     1.0000   1.0000   1.0000   1.0000   1.0000   1.0000   1.0000   1.0000
     1.0000   1.0000   1.0013   1.0023  -0.0000  -0.0000  -0.0000  -0.0000

          k = 0.1755 0.3509 0.3509 ( 14203 PWs)   bands (ev):

   -32.1323 -30.3001 -13.3860 -13.3856 -13.3601 -12.8459 -12.8443 -12.8375
    -5.4397  -5.0380  -5.0341   3.0375   3.5302   3.9049   4.0426   4.6678
     4.7603   5.6350   5.7769   6.0804   7.8610   8.1291   8.1559   8.8479

     occupation numbers 
     1.0000   1.0000   1.0000   1.0000   1.0000   1.0000   1.0000   1.0000
     1.0000   1.0000   1.0000   1.0000   1.0000   1.0000   1.0000   1.0000
     1.0000   1.0000   1.0001   1.0069  -0.0000  -0.0000  -0.0000  -0.0000

          k = 0.1755 0.3509 0.4387 ( 14189 PWs)   bands (ev):

   -32.1323 -30.3001 -13.3948 -13.3858 -13.3598 -12.8477 -12.8443 -12.8373
    -5.3801  -5.0393  -5.0323   3.0090   3.4021   3.8082   3.9691   4.6923
     4.9418   5.4536   5.7092   6.1434   7.9777   8.1919   8.3726   8.7202

     occupation numbers 
     1.0000   1.0000   1.0000   1.0000   1.0000   1.0000   1.0000   1.0000
     1.0000   1.0000   1.0000   1.0000   1.0000   1.0000   1.0000   1.0000
     1.0000   1.0000   1.0000   0.8185  -0.0000  -0.0000  -0.0000  -0.0000

          k = 0.1755 0.3509-0.5264 ( 14158 PWs)   bands (ev):

   -32.1323 -30.3001 -13.3981 -13.3858 -13.3597 -12.8485 -12.8441 -12.8372
    -5.3574  -5.0403  -5.0317   3.0070   3.3504   3.7536   3.9587   4.6946
     5.1083   5.2830   5.6979   6.1582   8.0929   8.1916   8.3981   8.8070

     occupation numbers 
     1.0000   1.0000   1.0000   1.0000   1.0000   1.0000   1.0000   1.0000
     1.0000   1.0000   1.0000   1.0000   1.0000   1.0000   1.0000   1.0000
     1.0000   1.0000   1.0000   0.7445  -0.0000  -0.0000  -0.0000  -0.0000

          k = 0.1755 0.4387 0.4387 ( 14177 PWs)   bands (ev):

   -32.1322 -30.3000 -13.3949 -13.3948 -13.3595 -12.8469 -12.8464 -12.8371
    -5.3258  -5.0345  -5.0310   2.9130   3.3231   3.8138   3.8385   4.9070
     4.9189   5.4234   5.5196   6.2931   7.9823   8.1946   8.4764   8.7154

     occupation numbers 
     1.0000   1.0000   1.0000   1.0000   1.0000   1.0000   1.0000   1.0000
     1.0000   1.0000   1.0000   1.0000   1.0000   1.0000   1.0000   1.0000
     1.0000   1.0000   1.0000   0.0444  -0.0000  -0.0000  -0.0000  -0.0000

          k = 0.1755 0.4387-0.5264 ( 14176 PWs)   bands (ev):

   -32.1322 -30.3000 -13.3981 -13.3949 -13.3594 -12.8475 -12.8464 -12.8370
    -5.3058  -5.0327  -5.0306   2.8793   3.2971   3.7738   3.8303   4.9027
     5.0668   5.3108   5.4826   6.3396   8.0577   8.0776   8.5514   8.8614

     occupation numbers 
     1.0000   1.0000   1.0000   1.0000   1.0000   1.0000   1.0000   1.0000
     1.0000   1.0000   1.0000   1.0000   1.0000   1.0000   1.0000   1.0000
     1.0000   1.0000   1.0000  -0.0279  -0.0000  -0.0000  -0.0000  -0.0000

          k = 0.1755-0.5264-0.5264 ( 14200 PWs)   bands (ev):

   -32.1322 -30.3000 -13.3982 -13.3982 -13.3592 -12.8472 -12.8472 -12.8369
    -5.2871  -5.0299  -5.0299   2.8354   3.2787   3.7814   3.7814   4.9748
     5.1379   5.3242   5.3242   6.3981   8.0112   8.0452   8.7081   8.8575

     occupation numbers 
     1.0000   1.0000   1.0000   1.0000   1.0000   1.0000   1.0000   1.0000
     1.0000   1.0000   1.0000   1.0000   1.0000   1.0000   1.0000   1.0000
     1.0000   1.0000   1.0000  -0.0294  -0.0000  -0.0000  -0.0000  -0.0000

          k = 0.2632 0.2632 0.2632 ( 14186 PWs)   bands (ev):

   -32.1324 -30.3002 -13.3735 -13.3731 -13.3731 -12.8430 -12.8413 -12.8413
    -5.5223  -5.0362  -5.0362   3.0667   3.8340   3.8340   4.2903   4.5804
     4.5804   5.9573   5.9573   5.9882   7.7491   7.7491   7.8886   9.0265

     occupation numbers 
     1.0000   1.0000   1.0000   1.0000   1.0000   1.0000   1.0000   1.0000
     1.0000   1.0000   1.0000   1.0000   1.0000   1.0000   1.0000   1.0000
     1.0000   1.0152   1.0152   1.0252  -0.0000  -0.0000  -0.0000  -0.0000

          k = 0.2632 0.2632 0.3509 ( 14199 PWs)   bands (ev):

   -32.1323 -30.3001 -13.3855 -13.3735 -13.3724 -12.8456 -12.8413 -12.8413
    -5.4419  -5.0376  -5.0347   3.0442   3.6777   3.7135   4.0552   4.5992
     4.7861   5.8220   5.9254   6.0399   7.8400   7.9244   7.9549   8.9878

     occupation numbers 
     1.0000   1.0000   1.0000   1.0000   1.0000   1.0000   1.0000   1.0000
     1.0000   1.0000   1.0000   1.0000   1.0000   1.0000   1.0000   1.0000
     1.0000   1.0003   1.0076   1.0350  -0.0000  -0.0000  -0.0000  -0.0000

          k = 0.2632 0.2632 0.4387 ( 14196 PWs)   bands (ev):

   -32.1323 -30.3001 -13.3944 -13.3736 -13.3718 -12.8481 -12.8412 -12.8406
    -5.3789  -5.0419  -5.0336   3.0954   3.4770   3.5764   3.9770   4.6210
     4.9925   5.6457   5.9015   6.0227   7.9288   8.1268   8.2132   8.8340

     occupation numbers 
     1.0000   1.0000   1.0000   1.0000   1.0000   1.0000   1.0000   1.0000
     1.0000   1.0000   1.0000   1.0000   1.0000   1.0000   1.0000   1.0000
     1.0000   1.0000   1.0041   1.0347  -0.0000  -0.0000  -0.0000  -0.0000

          k = 0.2632 0.2632-0.5264 ( 14170 PWs)   bands (ev):

   -32.1323 -30.3001 -13.3977 -13.3736 -13.3716 -12.8490 -12.8412 -12.8403
    -5.3546  -5.0446  -5.0331   3.1884   3.3053   3.5416   3.9621   4.6303
     5.1070   5.5376   5.8929   6.0077   7.9620   8.2775   8.4273   8.7231

     occupation numbers 
     1.0000   1.0000   1.0000   1.0000   1.0000   1.0000   1.0000   1.0000
     1.0000   1.0000   1.0000   1.0000   1.0000   1.0000   1.0000   1.0000
     1.0000   1.0000   1.0032   1.0314  -0.0000  -0.0000  -0.0000  -0.0000

          k = 0.2632 0.3509 0.3509 ( 14195 PWs)   bands (ev):

   -32.1323 -30.3001 -13.3854 -13.3851 -13.3724 -12.8451 -12.8443 -12.8409
    -5.3636  -5.0360  -5.0346   3.0096   3.4976   3.6779   3.8213   4.7546
     4.8298   5.8238   5.8622   6.1742   7.8923   7.9738   7.9806   8.8951

     occupation numbers 
     1.0000   1.0000   1.0000   1.0000   1.0000   1.0000   1.0000   1.0000
     1.0000   1.0000   1.0000   1.0000   1.0000   1.0000   1.0000   1.0000
     1.0000   1.0003   1.0013   0.6546  -0.0000  -0.0000  -0.0000  -0.0000

          k = 0.2632 0.3509 0.4387 ( 14165 PWs)   bands (ev):

   -32.1322 -30.3000 -13.3941 -13.3850 -13.3720 -12.8472 -12.8442 -12.8407
    -5.3032  -5.0374  -5.0340   3.0326   3.3203   3.5622   3.7610   4.8027
     4.9674   5.7255   5.8491   6.2294   7.9846   8.0375   8.1980   8.6898

     occupation numbers 
     1.0000   1.0000   1.0000   1.0000   1.0000   1.0000   1.0000   1.0000
     1.0000   1.0000   1.0000   1.0000   1.0000   1.0000   1.0000   1.0000
     1.0000   1.0000   1.0008   0.3189  -0.0000  -0.0000  -0.0000  -0.0000

          k = 0.2632 0.3509-0.5264 ( 14190 PWs)   bands (ev):

   -32.1322 -30.3000 -13.3974 -13.3850 -13.3719 -12.8481 -12.8440 -12.8405
    -5.2802  -5.0385  -5.0339   3.0891   3.2031   3.5077   3.7601   4.8129
     5.0428   5.6625   5.8491   6.2394   8.0361   8.1179   8.3331   8.6188

     occupation numbers 
     1.0000   1.0000   1.0000   1.0000   1.0000   1.0000   1.0000   1.0000
     1.0000   1.0000   1.0000   1.0000   1.0000   1.0000   1.0000   1.0000
     1.0000   1.0000   1.0008   0.2634  -0.0000  -0.0000  -0.0000  -0.0000

          k = 0.2632 0.4387 0.4387 ( 14185 PWs)   bands (ev):

   -32.1322 -30.3000 -13.3940 -13.3939 -13.3716 -12.8467 -12.8465 -12.8405
    -5.2467  -5.0353  -5.0330   2.9970   3.1911   3.5792   3.6054   4.9552
     4.9624   5.7583   5.7725   6.3689   7.9612   8.1413   8.2590   8.5250

     occupation numbers 
     1.0000   1.0000   1.0000   1.0000   1.0000   1.0000   1.0000   1.0000
     1.0000   1.0000   1.0000   1.0000   1.0000   1.0000   1.0000   1.0000
     1.0000   1.0000   1.0000  -0.0354  -0.0000  -0.0000  -0.0000  -0.0000

          k = 0.2632 0.4387-0.5264 ( 14180 PWs)   bands (ev):

   -32.1321 -30.2999 -13.3972 -13.3938 -13.3714 -12.8475 -12.8464 -12.8404
    -5.2258  -5.0340  -5.0331   2.9919   3.1380   3.5327   3.6038   4.9547
     5.0296   5.7202   5.7786   6.4125   7.9874   8.1200   8.3388   8.5701

     occupation numbers 
     1.0000   1.0000   1.0000   1.0000   1.0000   1.0000   1.0000   1.0000
     1.0000   1.0000   1.0000   1.0000   1.0000   1.0000   1.0000   1.0000
     1.0000   1.0000   1.0001  -0.0247  -0.0000  -0.0000  -0.0000  -0.0000

          k = 0.2632-0.5264-0.5264 ( 14168 PWs)   bands (ev):

   -32.1321 -30.2999 -13.3971 -13.3971 -13.3712 -12.8472 -12.8472 -12.8404
    -5.2062  -5.0323  -5.0323   2.9558   3.1157   3.5461   3.5461   4.9814
     5.0626   5.7401   5.7401   6.4705   7.9390   8.1022   8.5556   8.5556

     occupation numbers 
     1.0000   1.0000   1.0000   1.0000   1.0000   1.0000   1.0000   1.0000
     1.0000   1.0000   1.0000   1.0000   1.0000   1.0000   1.0000   1.0000
     1.0000   1.0000   1.0000  -0.0082  -0.0000  -0.0000  -0.0000  -0.0000

          k = 0.3509 0.3509 0.3509 ( 14192 PWs)   bands (ev):

   -32.1322 -30.3000 -13.3854 -13.3842 -13.3842 -12.8444 -12.8443 -12.8443
    -5.2847  -5.0351  -5.0351   2.9858   3.5064   3.5064   3.5495   4.8760
     4.8760   5.9245   5.9245   6.2950   7.8807   7.9527   7.9527   8.8677

     occupation numbers 
     1.0000   1.0000   1.0000   1.0000   1.0000   1.0000   1.0000   1.0000
     1.0000   1.0000   1.0000   1.0000   1.0000   1.0000   1.0000   1.0000
     1.0000   1.0075   1.0075   0.0396  -0.0000  -0.0000  -0.0000  -0.0000

          k = 0.3509 0.3509 0.4387 ( 14181 PWs)   bands (ev):

   -32.1321 -30.2999 -13.3935 -13.3848 -13.3835 -12.8468 -12.8443 -12.8438
    -5.2244  -5.0358  -5.0354   3.0059   3.2892   3.4003   3.5479   4.9052
     4.9730   5.9458   5.9756   6.3563   7.9287   7.9906   8.0940   8.6321

     occupation numbers 
     1.0000   1.0000   1.0000   1.0000   1.0000   1.0000   1.0000   1.0000
     1.0000   1.0000   1.0000   1.0000   1.0000   1.0000   1.0000   1.0000
     1.0000   1.0121   1.0210  -0.0346  -0.0000  -0.0000  -0.0000  -0.0000

          k = 0.3509 0.3509-0.5264 ( 14176 PWs)   bands (ev):

   -32.1321 -30.2999 -13.3967 -13.3847 -13.3833 -12.8477 -12.8443 -12.8436
    -5.2014  -5.0366  -5.0356   3.0703   3.1421   3.3645   3.5605   4.9154
     5.0108   5.9459   5.9940   6.3668   8.0009   8.0122   8.3058   8.3940

     occupation numbers 
     1.0000   1.0000   1.0000   1.0000   1.0000   1.0000   1.0000   1.0000
     1.0000   1.0000   1.0000   1.0000   1.0000   1.0000   1.0000   1.0000
     1.0000   1.0121   1.0272  -0.0355  -0.0000  -0.0000  -0.0000  -0.0000

          k = 0.3509 0.4387 0.4387 ( 14188 PWs)   bands (ev):

   -32.1321 -30.2999 -13.3931 -13.3929 -13.3836 -12.8465 -12.8465 -12.8439
    -5.1655  -5.0360  -5.0349   2.9777   3.1750   3.4033   3.4048   4.9775
     4.9775   6.0606   6.0707   6.4634   7.8878   8.0703   8.0794   8.4179

     occupation numbers 
     1.0000   1.0000   1.0000   1.0000   1.0000   1.0000   1.0000   1.0000
     1.0000   1.0000   1.0000   1.0000   1.0000   1.0000   1.0000   1.0000
     1.0000   1.0271   1.0186  -0.0097  -0.0000  -0.0000  -0.0000  -0.0000

          k = 0.3509 0.4387-0.5264 ( 14188 PWs)   bands (ev):

   -32.1321 -30.2999 -13.3962 -13.3928 -13.3833 -12.8474 -12.8464 -12.8439
    -5.1437  -5.0355  -5.0353   2.9755   3.1113   3.3560   3.4205   4.9795
     5.0039   6.0981   6.1032   6.4993   7.9021   8.0713   8.2328   8.2585

     occupation numbers 
     1.0000   1.0000   1.0000   1.0000   1.0000   1.0000   1.0000   1.0000
     1.0000   1.0000   1.0000   1.0000   1.0000   1.0000   1.0000   1.0000
     1.0000   0.9748   0.9625  -0.0039  -0.0000  -0.0000  -0.0000  -0.0000

          k = 0.3509-0.5264-0.5264 ( 14188 PWs)   bands (ev):

   -32.1321 -30.2999 -13.3960 -13.3960 -13.3831 -12.8473 -12.8473 -12.8439
    -5.1230  -5.0348  -5.0348   2.9403   3.0860   3.3714   3.3714   4.9879
     5.0172   6.1449   6.1449   6.5525   7.8528   8.1620   8.2162   8.2162

     occupation numbers 
     1.0000   1.0000   1.0000   1.0000   1.0000   1.0000   1.0000   1.0000
     1.0000   1.0000   1.0000   1.0000   1.0000   1.0000   1.0000   1.0000
     1.0000   0.8111   0.8111  -0.0008  -0.0000  -0.0000  -0.0000  -0.0000

          k = 0.4387 0.4387 0.4387 ( 14172 PWs)   bands (ev):

   -32.1320 -30.2998 -13.3927 -13.3921 -13.3921 -12.8465 -12.8465 -12.8463
    -5.1048  -5.0364  -5.0364   2.8892   3.2140   3.2978   3.2978   4.9895
     4.9895   6.2921   6.2921   6.5480   7.8246   7.9960   7.9960   8.3715

     occupation numbers 
     1.0000   1.0000   1.0000   1.0000   1.0000   1.0000   1.0000   1.0000
     1.0000   1.0000   1.0000   1.0000   1.0000   1.0000   1.0000   1.0000
     1.0000   0.0472   0.0472  -0.0009  -0.0000  -0.0000  -0.0000  -0.0000

          k = 0.4387 0.4387-0.5264 ( 14182 PWs)   bands (ev):

   -32.1320 -30.2998 -13.3955 -13.3923 -13.3918 -12.8474 -12.8466 -12.8463
    -5.0825  -5.0369  -5.0362   2.8524   3.1916   3.2618   3.3038   4.9934
     4.9948   6.3743   6.3834   6.5802   7.8255   7.9469   8.0024   8.2442

     occupation numbers 
     1.0000   1.0000   1.0000   1.0000   1.0000   1.0000   1.0000   1.0000
     1.0000   1.0000   1.0000   1.0000   1.0000   1.0000   1.0000   1.0000
     1.0000  -0.0349  -0.0334  -0.0003  -0.0000  -0.0000  -0.0000  -0.0000

          k = 0.4387-0.5264-0.5264 ( 14200 PWs)   bands (ev):

   -32.1320 -30.2998 -13.3952 -13.3952 -13.3918 -12.8474 -12.8474 -12.8464
    -5.0605  -5.0366  -5.0366   2.8063   3.1888   3.2643   3.2643   4.9927
     4.9987   6.4896   6.4896   6.6208   7.7834   7.9051   7.9051   8.2707

     occupation numbers 
     1.0000   1.0000   1.0000   1.0000   1.0000   1.0000   1.0000   1.0000
     1.0000   1.0000   1.0000   1.0000   1.0000   1.0000   1.0000   1.0000
     1.0000  -0.0051  -0.0051  -0.0001  -0.0000  -0.0000  -0.0000  -0.0000

          k =-0.5264-0.5264-0.5264 ( 14328 PWs)   bands (ev):

   -32.1320 -30.2998 -13.3949 -13.3949 -13.3949 -12.8474 -12.8474 -12.8474
    -5.0373  -5.0373  -5.0373   2.7564   3.2283   3.2283   3.2283   4.9945
     4.9945   6.6481   6.6481   6.6481   7.7569   7.7569   7.7569   8.2100

     occupation numbers 
     1.0000   1.0000   1.0000   1.0000   1.0000   1.0000   1.0000   1.0000
     1.0000   1.0000   1.0000   1.0000   1.0000   1.0000   1.0000   1.0000
     1.0000  -0.0000  -0.0000  -0.0000  -0.0000  -0.0000  -0.0000  -0.0000

     the Fermi energy is     6.1995 ev

!    total energy              =   -1173.59156593 Ry
     total all-electron energy =    -33662.972678 Ry
     estimated scf accuracy    <          1.7E-13 Ry
     smearing contrib. (-TS)   =       0.00000622 Ry
     internal energy E=F+TS    =   -1173.59157215 Ry

     The total energy is F=E-TS. E is the sum of the following terms:
     one-electron contribution =     -43.24377530 Ry
     hartree contribution      =      38.13439989 Ry
     xc contribution           =    -104.52499486 Ry
     ewald contribution        =    -149.85268586 Ry
     one-center paw contrib.   =    -914.10451603 Ry
      -> PAW hartree energy AE =      47.98454234 Ry
      -> PAW hartree energy PS =     -47.76232947 Ry
      -> PAW xc energy AE      =     -71.55596916 Ry
      -> PAW xc energy PS      =      11.34736800 Ry
      -> total E_H with PAW    =      38.35661276 Ry
      -> total E_XC with PAW   =    -164.73359602 Ry

     convergence has been achieved in  10 iterations

     Forces acting on atoms (cartesian axes, Ry/au):

     atom    1 type  1   force =     0.00000000    0.00000000    0.00000000
     atom    2 type  2   force =     0.00000000    0.00000000    0.00000000
     atom    3 type  3   force =     0.00000000    0.00000000    0.00000000
     atom    4 type  3   force =     0.00000000    0.00000000    0.00000000
     atom    5 type  3   force =     0.00000000    0.00000000    0.00000000
     The non-local contrib.  to forces
     atom    1 type  1   force =     0.00000000    0.00000000    0.00000000
     atom    2 type  2   force =     0.00000000    0.00000000    0.00000000
     atom    3 type  3   force =     0.00000000    0.00000000    0.00000000
     atom    4 type  3   force =     0.00000000    0.00000000    0.00000000
     atom    5 type  3   force =     0.00000000    0.00000000    0.00000000
     The ionic contribution  to forces
     atom    1 type  1   force =    -0.00000000   -0.00000000   -0.00000000
     atom    2 type  2   force =    -0.00000000   -0.00000000   -0.00000000
     atom    3 type  3   force =     0.00000000   -0.00000000   -0.00000000
     atom    4 type  3   force =    -0.00000000    0.00000000   -0.00000000
     atom    5 type  3   force =    -0.00000000   -0.00000000    0.00000000
     The local contribution  to forces
     atom    1 type  1   force =     0.00000000    0.00000000    0.00000000
     atom    2 type  2   force =     0.00000000    0.00000000    0.00000000
     atom    3 type  3   force =    -0.00000000    0.00000000    0.00000000
     atom    4 type  3   force =     0.00000000   -0.00000000    0.00000000
     atom    5 type  3   force =     0.00000000    0.00000000   -0.00000000
     The core correction contribution to forces
     atom    1 type  1   force =     0.00000000    0.00000000   -0.00000000
     atom    2 type  2   force =     0.00000000    0.00000000    0.00000000
     atom    3 type  3   force =    -0.00000000    0.00000000    0.00000000
     atom    4 type  3   force =     0.00000000   -0.00000000    0.00000000
     atom    5 type  3   force =    -0.00000000    0.00000000   -0.00000000
     The Hubbard contrib.    to forces
     atom    1 type  1   force =     0.00000000    0.00000000    0.00000000
     atom    2 type  2   force =     0.00000000    0.00000000    0.00000000
     atom    3 type  3   force =     0.00000000    0.00000000    0.00000000
     atom    4 type  3   force =     0.00000000    0.00000000    0.00000000
     atom    5 type  3   force =     0.00000000    0.00000000    0.00000000
     The SCF correction term to forces
     atom    1 type  1   force =     0.00000000    0.00000000   -0.00000000
     atom    2 type  2   force =    -0.00000000    0.00000000    0.00000000
     atom    3 type  3   force =    -0.00000000    0.00000000    0.00000000
     atom    4 type  3   force =     0.00000000   -0.00000000   -0.00000000
     atom    5 type  3   force =     0.00000000   -0.00000000    0.00000000

     Total force =     0.000000     Total SCF correction =     0.000000


     Computing stress (Cartesian axis) and pressure

          total   stress  (Ry/bohr**3)                   (kbar)     P=       -0.00
  -0.00000001   0.00000000   0.00000000           -0.00        0.00        0.00
   0.00000000  -0.00000001   0.00000000            0.00       -0.00        0.00
   0.00000000   0.00000000  -0.00000001            0.00        0.00       -0.00

     kinetic stress (kbar)   7084.99      0.00      0.00
                                0.00   7084.99      0.00
                                0.00      0.00   7084.99

     local   stress (kbar)  -2040.06      0.00      0.00
                                0.00  -2040.06      0.00
                                0.00      0.00  -2040.06

     nonloc. stress (kbar)   2402.04      0.00      0.00
                                0.00   2402.04      0.00
                                0.00      0.00   2402.04

     hartree stress (kbar)   1860.93     -0.00     -0.00
                               -0.00   1860.93     -0.00
                               -0.00     -0.00   1860.93

     exc-cor stress (kbar)   8560.44      0.00     -0.00
                                0.00   8560.44     -0.00
                               -0.00     -0.00   8560.44

     corecor stress (kbar) -10555.63     -0.00      0.00
                               -0.00 -10555.63     -0.00
                                0.00     -0.00 -10555.63

     ewald   stress (kbar)  -7312.71     -0.00     -0.00
                               -0.00  -7312.71     -0.00
                               -0.00     -0.00  -7312.71

     hubbard stress (kbar)      0.00      0.00      0.00
                                0.00      0.00      0.00
                                0.00      0.00      0.00

     DFT-D   stress (kbar)      0.00      0.00      0.00
                                0.00      0.00      0.00
                                0.00      0.00      0.00

     XDM     stress (kbar)      0.00      0.00      0.00
                                0.00      0.00      0.00
                                0.00      0.00      0.00

     dft-nl  stress (kbar)      0.00      0.00      0.00
                                0.00      0.00      0.00
                                0.00      0.00      0.00

     TS-vdW  stress (kbar)      0.00      0.00      0.00
                                0.00      0.00      0.00
                                0.00      0.00      0.00

     MDB     stress (kbar)      0.00      0.00      0.00
                                0.00      0.00      0.00
                                0.00      0.00      0.00

     3D-RISM stress (kbar)      0.00      0.00      0.00
                                0.00      0.00      0.00
                                0.00      0.00      0.00

     Energy error            =      1.5E-07 Ry
     Gradient error          =      0.0E+00 Ry/Bohr
     Cell gradient error     =      1.1E-03 kbar

     number of scf cycles    =   7
     number of bfgs steps    =   6

     enthalpy           old  =   -1173.5915657811 Ry
     enthalpy           new  =   -1173.5915659289 Ry

     CASE: enthalpy          _new < enthalpy          _old

     small trust_radius: resetting bfgs history

     new trust radius        =       0.0000011345 bohr
     new conv_thr            =            1.0E-12 Ry

     new unit-cell volume =   1004.82942 a.u.^3 (   148.90036 Ang^3 )
     density =      4.65122 g/cm^3

CELL_PARAMETERS (angstrom)
   5.300277157   0.000000000   0.000000000
   0.000000000   5.300277157   0.000000000
   0.000000000   0.000000000   5.300277157

ATOMIC_POSITIONS (crystal)
Ca               0.0000000000        0.0000000000        0.0000000000
Ce               0.5000000000        0.5000000000        0.5000000000
Se               0.5000000000        0.0000000000        0.0000000000
Se               0.0000000000        0.5000000000        0.0000000000
Se               0.0000000000        0.0000000000        0.5000000000



     Writing config-only to output data dir ./tmp/caces3.save/ :
     XML data file
     NEW-OLD atomic charge density approx. for the potential

     total cpu time spent up to now is    20945.6 secs

     Self-consistent Calculation

     iteration #  1     ecut=    80.00 Ry     beta= 0.30
     Davidson diagonalization with overlap

---- Real-time Memory Report at c_bands before calling an iterative solver
           267 MiB given to the printing process from OS
             0 MiB allocation reported by mallinfo(arena+hblkhd)
         50917 MiB available memory on the node where the printing process lives
------------------
     ethr =  1.00E-06,  avg # of iterations =  1.0

     Threshold (ethr) on eigenvalues was too large:
     Diagonalizing with lowered threshold

     Davidson diagonalization with overlap

---- Real-time Memory Report at c_bands before calling an iterative solver
           267 MiB given to the printing process from OS
             0 MiB allocation reported by mallinfo(arena+hblkhd)
         51751 MiB available memory on the node where the printing process lives
------------------
     ethr =  3.27E-15,  avg # of iterations =  6.5

     total cpu time spent up to now is    21288.3 secs

     total energy              =   -1173.59156593 Ry
     estimated scf accuracy    <          3.0E-12 Ry

     iteration #  2     ecut=    80.00 Ry     beta= 0.30
     Davidson diagonalization with overlap

---- Real-time Memory Report at c_bands before calling an iterative solver
           267 MiB given to the printing process from OS
             0 MiB allocation reported by mallinfo(arena+hblkhd)
         51009 MiB available memory on the node where the printing process lives
------------------
     ethr =  1.00E-13,  avg # of iterations =  1.0

     total cpu time spent up to now is    21363.0 secs

     End of self-consistent calculation

          k = 0.0000 0.0000 0.0000 ( 14147 PWs)   bands (ev):

   -32.1328 -30.3006 -13.3501 -13.3501 -13.3501 -12.8355 -12.8355 -12.8355
    -5.9794  -5.0493  -5.0493   3.7858   3.7858   3.7858   5.4683   5.4683
     5.4683   6.5955   6.5955   6.5955   7.1150   7.1150   7.4737   7.7719

     occupation numbers 
     1.0000   1.0000   1.0000   1.0000   1.0000   1.0000   1.0000   1.0000
     1.0000   1.0000   1.0000   1.0000   1.0000   1.0000   1.0000   1.0000
     1.0000  -0.0002  -0.0002  -0.0002  -0.0000  -0.0000  -0.0000  -0.0000

          k = 0.0000 0.0000 0.0877 ( 14114 PWs)   bands (ev):

   -32.1328 -30.3006 -13.3533 -13.3500 -13.3500 -12.8368 -12.8354 -12.8354
    -5.9592  -5.0492  -5.0478   3.7609   3.7921   3.7921   5.3520   5.3942
     5.3942   6.3802   6.5588   6.5588   7.1603   7.2735   7.4862   7.5985

     occupation numbers 
     1.0000   1.0000   1.0000   1.0000   1.0000   1.0000   1.0000   1.0000
     1.0000   1.0000   1.0000   1.0000   1.0000   1.0000   1.0000   1.0000
     1.0000  -0.0340  -0.0006  -0.0006  -0.0000  -0.0000  -0.0000  -0.0000

          k = 0.0000 0.0000 0.1755 ( 14106 PWs)   bands (ev):

   -32.1327 -30.3006 -13.3620 -13.3496 -13.3496 -12.8403 -12.8354 -12.8354
    -5.9025  -5.0500  -5.0435   3.7055   3.8106   3.8106   5.1026   5.2180
     5.2180   5.9129   6.4696   6.4696   7.2866   7.5215   7.6420   7.9131

     occupation numbers 
     1.0000   1.0000   1.0000   1.0000   1.0000   1.0000   1.0000   1.0000
     1.0000   1.0000   1.0000   1.0000   1.0000   1.0000   1.0000   1.0000
     1.0000   1.0056  -0.0084  -0.0084  -0.0000  -0.0000  -0.0000  -0.0000

          k = 0.0000 0.0000 0.2632 ( 14138 PWs)   bands (ev):

   -32.1327 -30.3005 -13.3739 -13.3491 -13.3491 -12.8452 -12.8352 -12.8352
    -5.8209  -5.0548  -5.0377   3.6638   3.8395   3.8395   4.8450   5.0152
     5.0152   5.3748   6.3618   6.3618   7.4762   7.5723   8.0721   8.3179

     occupation numbers 
     1.0000   1.0000   1.0000   1.0000   1.0000   1.0000   1.0000   1.0000
     1.0000   1.0000   1.0000   1.0000   1.0000   1.0000   1.0000   1.0000
     1.0000   1.0000  -0.0353  -0.0353  -0.0000  -0.0000  -0.0000  -0.0000

          k = 0.0000 0.0000 0.3509 ( 14158 PWs)   bands (ev):

   -32.1326 -30.3004 -13.3857 -13.3487 -13.3487 -12.8500 -12.8351 -12.8351
    -5.7326  -5.0656  -5.0318   3.6807   3.8744   3.8744   4.6376   4.8363
     4.8363   4.8574   6.2641   6.2641   7.6268   7.6938   8.4650   8.7273

     occupation numbers 
     1.0000   1.0000   1.0000   1.0000   1.0000   1.0000   1.0000   1.0000
     1.0000   1.0000   1.0000   1.0000   1.0000   1.0000   1.0000   1.0000
     1.0000   1.0000   0.1442   0.1442  -0.0000  -0.0000  -0.0000  -0.0000

          k = 0.0000 0.0000 0.4387 ( 14170 PWs)   bands (ev):

   -32.1325 -30.3004 -13.3942 -13.3483 -13.3483 -12.8535 -12.8350 -12.8350
    -5.6620  -5.0792  -5.0275   3.7841   3.9057   3.9057   4.4204   4.5058
     4.7125   4.7125   6.1973   6.1973   7.6694   7.8785   8.7424   9.0480

     occupation numbers 
     1.0000   1.0000   1.0000   1.0000   1.0000   1.0000   1.0000   1.0000
     1.0000   1.0000   1.0000   1.0000   1.0000   1.0000   1.0000   1.0000
     1.0000   1.0000   0.5140   0.5140  -0.0000  -0.0000  -0.0000  -0.0000

          k = 0.0000 0.0000-0.5264 ( 14190 PWs)   bands (ev):

   -32.1325 -30.3004 -13.3974 -13.3482 -13.3482 -12.8548 -12.8350 -12.8350
    -5.6343  -5.0859  -5.0259   3.9120   3.9189   3.9189   4.1758   4.4608
     4.6676   4.6676   6.1737   6.1737   7.6857   7.9534   8.8431   9.1735

     occupation numbers 
     1.0000   1.0000   1.0000   1.0000   1.0000   1.0000   1.0000   1.0000
     1.0000   1.0000   1.0000   1.0000   1.0000   1.0000   1.0000   1.0000
     1.0000   1.0000   0.6577   0.6577  -0.0000  -0.0000  -0.0000  -0.0000

          k = 0.0000 0.0877 0.0877 ( 14125 PWs)   bands (ev):

   -32.1328 -30.3006 -13.3534 -13.3530 -13.3499 -12.8371 -12.8363 -12.8354
    -5.9391  -5.0481  -5.0471   3.6908   3.7989   3.8471   5.1579   5.3262
     5.4422   6.2344   6.4995   6.5193   7.2612   7.2761   7.5600   7.6561

     occupation numbers 
     1.0000   1.0000   1.0000   1.0000   1.0000   1.0000   1.0000   1.0000
     1.0000   1.0000   1.0000   1.0000   1.0000   1.0000   1.0000   1.0000
     1.0000   0.2906  -0.0039  -0.0022  -0.0000  -0.0000  -0.0000  -0.0000

          k = 0.0000 0.0877 0.1755 ( 14150 PWs)   bands (ev):

   -32.1327 -30.3005 -13.3620 -13.3529 -13.3495 -12.8403 -12.8364 -12.8353
    -5.8827  -5.0483  -5.0433   3.6070   3.8186   3.9012   4.8852   5.1618
     5.3509   5.8483   6.3964   6.4232   7.3481   7.5568   7.6149   7.9380

     occupation numbers 
     1.0000   1.0000   1.0000   1.0000   1.0000   1.0000   1.0000   1.0000
     1.0000   1.0000   1.0000   1.0000   1.0000   1.0000   1.0000   1.0000
     1.0000   1.0008  -0.0299  -0.0210  -0.0000  -0.0000  -0.0000  -0.0000

          k = 0.0000 0.0877 0.2632 ( 14161 PWs)   bands (ev):

   -32.1326 -30.3005 -13.3739 -13.3525 -13.3490 -12.8450 -12.8362 -12.8352
    -5.8016  -5.0526  -5.0377   3.5522   3.8494   3.9467   4.6219   4.9694
     5.1447   5.4164   6.2803   6.3080   7.5148   7.6647   7.9444   8.3302

     occupation numbers 
     1.0000   1.0000   1.0000   1.0000   1.0000   1.0000   1.0000   1.0000
     1.0000   1.0000   1.0000   1.0000   1.0000   1.0000   1.0000   1.0000
     1.0000   1.0000   0.0828   0.0106  -0.0000  -0.0000  -0.0000  -0.0000

          k = 0.0000 0.0877 0.3509 ( 14170 PWs)   bands (ev):

   -32.1326 -30.3004 -13.3857 -13.3521 -13.3486 -12.8496 -12.8360 -12.8350
    -5.7140  -5.0627  -5.0321   3.5589   3.8866   3.9819   4.4021   4.7962
     4.7974   5.1522   6.1767   6.2040   7.7156   7.7241   8.3411   8.7309

     occupation numbers 
     1.0000   1.0000   1.0000   1.0000   1.0000   1.0000   1.0000   1.0000
     1.0000   1.0000   1.0000   1.0000   1.0000   1.0000   1.0000   1.0000
     1.0000   1.0000   0.6399   0.4721  -0.0000  -0.0000  -0.0000  -0.0000

          k = 0.0000 0.0877 0.4387 ( 14152 PWs)   bands (ev):

   -32.1325 -30.3004 -13.3943 -13.3518 -13.3482 -12.8530 -12.8359 -12.8349
    -5.6440  -5.0756  -5.0280   3.6474   3.9201   3.9696   4.2538   4.4689
     4.6770   5.0270   6.1058   6.1330   7.7549   7.9077   8.6651   8.9602

     occupation numbers 
     1.0000   1.0000   1.0000   1.0000   1.0000   1.0000   1.0000   1.0000
     1.0000   1.0000   1.0000   1.0000   1.0000   1.0000   1.0000   1.0000
     1.0000   1.0000   0.9559   0.8640  -0.0000  -0.0000  -0.0000  -0.0000

          k = 0.0000 0.0877-0.5264 ( 14170 PWs)   bands (ev):

   -32.1325 -30.3003 -13.3975 -13.3517 -13.3481 -12.8542 -12.8358 -12.8349
    -5.6166  -5.0820  -5.0265   3.7738   3.8638   3.9343   4.2294   4.3309
     4.6330   4.9862   6.0807   6.1079   7.7698   7.9831   8.8051   9.0210

     occupation numbers 
     1.0000   1.0000   1.0000   1.0000   1.0000   1.0000   1.0000   1.0000
     1.0000   1.0000   1.0000   1.0000   1.0000   1.0000   1.0000   1.0000
     1.0000   1.0000   1.0065   0.9503  -0.0000  -0.0000  -0.0000  -0.0000

          k = 0.0000 0.1755 0.1755 ( 14135 PWs)   bands (ev):

   -32.1327 -30.3005 -13.3624 -13.3613 -13.3492 -12.8410 -12.8385 -12.8352
    -5.8274  -5.0446  -5.0430   3.4839   3.8420   4.0090   4.5967   5.0224
     5.4171   5.6034   6.2689   6.3098   7.4582   7.6193   7.7978   8.0637

     occupation numbers 
     1.0000   1.0000   1.0000   1.0000   1.0000   1.0000   1.0000   1.0000
     1.0000   1.0000   1.0000   1.0000   1.0000   1.0000   1.0000   1.0000
     1.0000   1.0000   0.1243   0.0073  -0.0000  -0.0000  -0.0000  -0.0000

          k = 0.0000 0.1755 0.2632 ( 14144 PWs)   bands (ev):

   -32.1326 -30.3004 -13.3739 -13.3616 -13.3488 -12.8445 -12.8388 -12.8350
    -5.7478  -5.0470  -5.0382   3.3972   3.8783   4.0912   4.3292   4.8536
     5.1859   5.4536   6.1309   6.1734   7.5839   7.8961   7.8981   8.3743

     occupation numbers 
     1.0000   1.0000   1.0000   1.0000   1.0000   1.0000   1.0000   1.0000
     1.0000   1.0000   1.0000   1.0000   1.0000   1.0000   1.0000   1.0000
     1.0000   1.0000   0.8723   0.6595  -0.0000  -0.0000  -0.0000  -0.0000

          k = 0.0000 0.1755 0.3509 ( 14160 PWs)   bands (ev):

   -32.1325 -30.3004 -13.3859 -13.3614 -13.3483 -12.8486 -12.8385 -12.8348
    -5.6624  -5.0552  -5.0329   3.3716   3.9221   4.0530   4.1957   4.6983
     4.8060   5.4311   5.9918   6.0501   7.7804   7.9536   8.2132   8.7317

     occupation numbers 
     1.0000   1.0000   1.0000   1.0000   1.0000   1.0000   1.0000   1.0000
     1.0000   1.0000   1.0000   1.0000   1.0000   1.0000   1.0000   1.0000
     1.0000   1.0000   1.0264   1.0325  -0.0000  -0.0000  -0.0000  -0.0000

          k = 0.0000 0.1755 0.4387 ( 14172 PWs)   bands (ev):

   -32.1325 -30.3003 -13.3946 -13.3612 -13.3480 -12.8516 -12.8382 -12.8346
    -5.5943  -5.0660  -5.0292   3.4132   3.8619   3.9621   4.2471   4.5136
     4.5867   5.4191   5.8845   5.9658   7.9765   7.9893   8.5013   8.8154

     occupation numbers 
     1.0000   1.0000   1.0000   1.0000   1.0000   1.0000   1.0000   1.0000
     1.0000   1.0000   1.0000   1.0000   1.0000   1.0000   1.0000   1.0000
     1.0000   1.0000   1.0025   1.0178  -0.0000  -0.0000  -0.0000  -0.0000

          k = 0.0000 0.1755-0.5264 ( 14176 PWs)   bands (ev):

   -32.1325 -30.3003 -13.3978 -13.3612 -13.3479 -12.8528 -12.8380 -12.8346
    -5.5678  -5.0714  -5.0278   3.4639   3.7563   3.9794   4.3319   4.3464
     4.5449   5.4173   5.8429   5.9359   8.0021   8.0624   8.7124   8.7313

     occupation numbers 
     1.0000   1.0000   1.0000   1.0000   1.0000   1.0000   1.0000   1.0000
     1.0000   1.0000   1.0000   1.0000   1.0000   1.0000   1.0000   1.0000
     1.0000   1.0000   1.0007   1.0097  -0.0000  -0.0000  -0.0000  -0.0000

          k = 0.0000 0.2632 0.2632 ( 14143 PWs)   bands (ev):

   -32.1325 -30.3004 -13.3746 -13.3732 -13.3484 -12.8447 -12.8415 -12.8347
    -5.6712  -5.0414  -5.0393   3.2701   3.9229   4.0657   4.2130   4.7103
     5.0531   5.4380   6.0079   6.0331   7.6485   8.0604   8.1496   8.5001

     occupation numbers 
     1.0000   1.0000   1.0000   1.0000   1.0000   1.0000   1.0000   1.0000
     1.0000   1.0000   1.0000   1.0000   1.0000   1.0000   1.0000   1.0000
     1.0000   1.0000   1.0315   1.0355  -0.0000  -0.0000  -0.0000  -0.0000

          k = 0.0000 0.2632 0.3509 ( 14147 PWs)   bands (ev):

   -32.1325 -30.3003 -13.3862 -13.3739 -13.3480 -12.8473 -12.8417 -12.8345
    -5.5896  -5.0460  -5.0341   3.1908   3.8526   3.9770   4.3007   4.5756
     4.7989   5.4656   5.8557   5.9460   7.7925   8.2748   8.2838   8.6769

     occupation numbers 
     1.0000   1.0000   1.0000   1.0000   1.0000   1.0000   1.0000   1.0000
     1.0000   1.0000   1.0000   1.0000   1.0000   1.0000   1.0000   1.0000
     1.0000   1.0000   1.0010   1.0121  -0.0000  -0.0000  -0.0000  -0.0000

          k = 0.0000 0.2632 0.4387 ( 14151 PWs)   bands (ev):

   -32.1324 -30.3002 -13.3950 -13.3740 -13.3478 -12.8499 -12.8413 -12.8343
    -5.5254  -5.0532  -5.0303   3.1617   3.6997   4.0273   4.3672   4.4755
     4.5783   5.5164   5.7498   5.8539   8.0023   8.3211   8.4368   8.6656

     occupation numbers 
     1.0000   1.0000   1.0000   1.0000   1.0000   1.0000   1.0000   1.0000
     1.0000   1.0000   1.0000   1.0000   1.0000   1.0000   1.0000   1.0000
     1.0000   1.0000   1.0000   1.0010  -0.0000  -0.0000  -0.0000  -0.0000

          k = 0.0000 0.2632-0.5264 ( 14194 PWs)   bands (ev):

   -32.1324 -30.3002 -13.3983 -13.3740 -13.3477 -12.8508 -12.8411 -12.8342
    -5.5006  -5.0569  -5.0291   3.1594   3.6398   4.0499   4.4365   4.4414
     4.4452   5.5478   5.7119   5.8062   8.1378   8.3344   8.4554   8.6402

     occupation numbers 
     1.0000   1.0000   1.0000   1.0000   1.0000   1.0000   1.0000   1.0000
     1.0000   1.0000   1.0000   1.0000   1.0000   1.0000   1.0000   1.0000
     1.0000   1.0000   1.0000   1.0002  -0.0000  -0.0000  -0.0000  -0.0000

          k = 0.0000 0.3509 0.3509 ( 14163 PWs)   bands (ev):

   -32.1324 -30.3002 -13.3869 -13.3859 -13.3477 -12.8467 -12.8443 -12.8341
    -5.5136  -5.0405  -5.0336   3.0448   3.6827   4.0432   4.4063   4.4609
     4.7404   5.3472   5.6712   6.0322   7.8325   8.4689   8.5681   8.5770

     occupation numbers 
     1.0000   1.0000   1.0000   1.0000   1.0000   1.0000   1.0000   1.0000
     1.0000   1.0000   1.0000   1.0000   1.0000   1.0000   1.0000   1.0000
     1.0000   1.0000   1.0000   1.0355  -0.0000  -0.0000  -0.0000  -0.0000

          k = 0.0000 0.3509 0.4387 ( 14162 PWs)   bands (ev):

   -32.1323 -30.3002 -13.3955 -13.3866 -13.3475 -12.8482 -12.8444 -12.8339
    -5.4552  -5.0412  -5.0304   2.9529   3.5720   4.1060   4.3747   4.4860
     4.6434   5.2860   5.5384   6.0855   7.9620   8.4033   8.6350   8.6825

     occupation numbers 
     1.0000   1.0000   1.0000   1.0000   1.0000   1.0000   1.0000   1.0000
     1.0000   1.0000   1.0000   1.0000   1.0000   1.0000   1.0000   1.0000
     1.0000   1.0000   1.0000   0.9991  -0.0000  -0.0000  -0.0000  -0.0000

          k = 0.0000 0.3509-0.5264 ( 14124 PWs)   bands (ev):

   -32.1323 -30.3001 -13.3987 -13.3867 -13.3474 -12.8489 -12.8441 -12.8338
    -5.4331  -5.0422  -5.0292   2.9221   3.5325   4.1359   4.3388   4.5479
     4.5657   5.2723   5.4896   6.1003   8.1112   8.2416   8.6936   8.7021

     occupation numbers 
     1.0000   1.0000   1.0000   1.0000   1.0000   1.0000   1.0000   1.0000
     1.0000   1.0000   1.0000   1.0000   1.0000   1.0000   1.0000   1.0000
     1.0000   1.0000   1.0000   0.9698  -0.0000  -0.0000  -0.0000  -0.0000

          k = 0.0000 0.4387 0.4387 ( 14154 PWs)   bands (ev):

   -32.1323 -30.3001 -13.3959 -13.3956 -13.3473 -12.8472 -12.8464 -12.8336
    -5.4030  -5.0337  -5.0291   2.8192   3.4854   4.1791   4.3033   4.5839
     4.6793   5.1192   5.3798   6.2297   7.9681   8.2339   8.7540   8.9628

     occupation numbers 
     1.0000   1.0000   1.0000   1.0000   1.0000   1.0000   1.0000   1.0000
     1.0000   1.0000   1.0000   1.0000   1.0000   1.0000   1.0000   1.0000
     1.0000   1.0000   1.0000   0.3175  -0.0000  -0.0000  -0.0000  -0.0000

          k = 0.0000 0.4387-0.5264 ( 14156 PWs)   bands (ev):

   -32.1323 -30.3001 -13.3991 -13.3959 -13.3472 -12.8476 -12.8463 -12.8335
    -5.3838  -5.0314  -5.0281   2.7735   3.4540   4.2151   4.2728   4.6467
     4.6643   5.0623   5.3193   6.2758   8.0288   8.1078   8.8071   9.0147

     occupation numbers 
     1.0000   1.0000   1.0000   1.0000   1.0000   1.0000   1.0000   1.0000
     1.0000   1.0000   1.0000   1.0000   1.0000   1.0000   1.0000   1.0000
     1.0000   1.0000   1.0000   0.0986  -0.0000  -0.0000  -0.0000  -0.0000

          k = 0.0000-0.5264-0.5264 ( 14108 PWs)   bands (ev):

   -32.1323 -30.3001 -13.3992 -13.3992 -13.3471 -12.8471 -12.8471 -12.8334
    -5.3659  -5.0274  -5.0274   2.7230   3.4249   4.2496   4.2496   4.7027
     4.7027   4.9684   5.2530   6.3328   7.9908   8.0623   8.8577   9.1448

     occupation numbers 
     1.0000   1.0000   1.0000   1.0000   1.0000   1.0000   1.0000   1.0000
     1.0000   1.0000   1.0000   1.0000   1.0000   1.0000   1.0000   1.0000
     1.0000   1.0000   1.0000  -0.0229  -0.0000  -0.0000  -0.0000  -0.0000

          k = 0.0877 0.0877 0.0877 ( 14126 PWs)   bands (ev):

   -32.1327 -30.3006 -13.3533 -13.3533 -13.3528 -12.8374 -12.8363 -12.8363
    -5.9191  -5.0467  -5.0467   3.6249   3.8533   3.8533   5.1118   5.1118
     5.5323   6.0879   6.4736   6.4736   7.2890   7.2890   7.6060   7.8326

     occupation numbers 
     1.0000   1.0000   1.0000   1.0000   1.0000   1.0000   1.0000   1.0000
     1.0000   1.0000   1.0000   1.0000   1.0000   1.0000   1.0000   1.0000
     1.0000   0.9952  -0.0076  -0.0076  -0.0000  -0.0000  -0.0000  -0.0000

          k = 0.0877 0.0877 0.1755 ( 14146 PWs)   bands (ev):

   -32.1327 -30.3005 -13.3619 -13.3529 -13.3527 -12.8403 -12.8365 -12.8362
    -5.8630  -5.0469  -5.0429   3.5323   3.8714   3.9235   4.8216   4.9843
     5.4925   5.7449   6.3474   6.3974   7.3670   7.4964   7.6791   8.0348

     occupation numbers 
     1.0000   1.0000   1.0000   1.0000   1.0000   1.0000   1.0000   1.0000
     1.0000   1.0000   1.0000   1.0000   1.0000   1.0000   1.0000   1.0000
     1.0000   1.0000  -0.0320  -0.0296  -0.0000  -0.0000  -0.0000  -0.0000

          k = 0.0877 0.0877 0.2632 ( 14152 PWs)   bands (ev):

   -32.1326 -30.3005 -13.3739 -13.3524 -13.3524 -12.8447 -12.8362 -12.8361
    -5.7823  -5.0506  -5.0376   3.4722   3.9004   3.9767   4.5566   4.7924
     5.3518   5.3526   6.1944   6.2976   7.5189   7.7539   7.8612   8.3072

     occupation numbers 
     1.0000   1.0000   1.0000   1.0000   1.0000   1.0000   1.0000   1.0000
     1.0000   1.0000   1.0000   1.0000   1.0000   1.0000   1.0000   1.0000
     1.0000   1.0000   0.5319   0.0330  -0.0000  -0.0000  -0.0000  -0.0000

          k = 0.0877 0.0877 0.3509 ( 14161 PWs)   bands (ev):

   -32.1326 -30.3004 -13.3858 -13.3521 -13.3518 -12.8492 -12.8359 -12.8359
    -5.6953  -5.0600  -5.0323   3.4765   3.9383   3.9977   4.3447   4.5383
     5.0527   5.2007   6.0565   6.2059   7.6907   7.8467   8.2695   8.6022

     occupation numbers 
     1.0000   1.0000   1.0000   1.0000   1.0000   1.0000   1.0000   1.0000
     1.0000   1.0000   1.0000   1.0000   1.0000   1.0000   1.0000   1.0000
     1.0000   1.0000   1.0297   0.4602  -0.0000  -0.0000  -0.0000  -0.0000

          k = 0.0877 0.0877 0.4387 ( 14164 PWs)   bands (ev):

   -32.1325 -30.3003 -13.3944 -13.3519 -13.3515 -12.8525 -12.8358 -12.8357
    -5.6258  -5.0723  -5.0285   3.5651   3.9324   3.9819   4.1975   4.3120
     4.8997   5.0922   5.9610   6.1431   7.7865   7.9777   8.6167   8.8461

     occupation numbers 
     1.0000   1.0000   1.0000   1.0000   1.0000   1.0000   1.0000   1.0000
     1.0000   1.0000   1.0000   1.0000   1.0000   1.0000   1.0000   1.0000
     1.0000   1.0000   1.0163   0.8198  -0.0000  -0.0000  -0.0000  -0.0000

          k = 0.0877 0.0877-0.5264 ( 14174 PWs)   bands (ev):

   -32.1325 -30.3003 -13.3976 -13.3518 -13.3513 -12.8537 -12.8358 -12.8356
    -5.5986  -5.0785  -5.0270   3.7033   3.7798   4.0113   4.1341   4.2466
     4.8549   5.0530   5.9268   6.1209   7.8116   8.0450   8.7693   8.9446

     occupation numbers 
     1.0000   1.0000   1.0000   1.0000   1.0000   1.0000   1.0000   1.0000
     1.0000   1.0000   1.0000   1.0000   1.0000   1.0000   1.0000   1.0000
     1.0000   1.0000   1.0079   0.9100  -0.0000  -0.0000  -0.0000  -0.0000

          k = 0.0877 0.1755 0.1755 ( 14144 PWs)   bands (ev):

   -32.1326 -30.3005 -13.3622 -13.3613 -13.3525 -12.8408 -12.8385 -12.8362
    -5.8078  -5.0436  -5.0422   3.4185   3.9048   4.0089   4.5933   4.8430
     5.4783   5.5672   6.2532   6.2940   7.4639   7.5249   7.7860   8.2533

     occupation numbers 
     1.0000   1.0000   1.0000   1.0000   1.0000   1.0000   1.0000   1.0000
     1.0000   1.0000   1.0000   1.0000   1.0000   1.0000   1.0000   1.0000
     1.0000   1.0000   0.1934   0.0420  -0.0000  -0.0000  -0.0000  -0.0000

          k = 0.0877 0.1755 0.2632 ( 14146 PWs)   bands (ev):

   -32.1326 -30.3004 -13.3739 -13.3615 -13.3521 -12.8442 -12.8387 -12.8359
    -5.7286  -5.0456  -5.0379   3.3387   3.9253   4.0794   4.3459   4.6987
     5.1723   5.5295   6.0890   6.1866   7.5810   7.7848   7.9143   8.4367

     occupation numbers 
     1.0000   1.0000   1.0000   1.0000   1.0000   1.0000   1.0000   1.0000
     1.0000   1.0000   1.0000   1.0000   1.0000   1.0000   1.0000   1.0000
     1.0000   1.0000   0.9932   0.5800  -0.0000  -0.0000  -0.0000  -0.0000

          k = 0.0877 0.1755 0.3509 ( 14163 PWs)   bands (ev):

   -32.1325 -30.3003 -13.3859 -13.3613 -13.3517 -12.8483 -12.8384 -12.8357
    -5.6435  -5.0531  -5.0331   3.3227   3.9169   4.0773   4.1817   4.5015
     4.9709   5.4632   5.9019   6.0936   7.7493   7.9968   8.1779   8.6034

     occupation numbers 
     1.0000   1.0000   1.0000   1.0000   1.0000   1.0000   1.0000   1.0000
     1.0000   1.0000   1.0000   1.0000   1.0000   1.0000   1.0000   1.0000
     1.0000   1.0000   1.0042   0.9843  -0.0000  -0.0000  -0.0000  -0.0000

          k = 0.0877 0.1755 0.4387 ( 14175 PWs)   bands (ev):

   -32.1325 -30.3003 -13.3946 -13.3611 -13.3514 -12.8513 -12.8381 -12.8355
    -5.5757  -5.0634  -5.0297   3.3816   3.7925   4.0453   4.1188   4.3508
     4.8927   5.4287   5.7436   6.0299   7.8810   8.1403   8.4884   8.7254

     occupation numbers 
     1.0000   1.0000   1.0000   1.0000   1.0000   1.0000   1.0000   1.0000
     1.0000   1.0000   1.0000   1.0000   1.0000   1.0000   1.0000   1.0000
     1.0000   1.0000   1.0000   1.0354  -0.0000  -0.0000  -0.0000  -0.0000

          k = 0.0877 0.1755-0.5264 ( 14192 PWs)   bands (ev):

   -32.1324 -30.3003 -13.3978 -13.3611 -13.3513 -12.8524 -12.8380 -12.8354
    -5.5493  -5.0687  -5.0284   3.4572   3.6715   4.0493   4.0829   4.3110
     4.8741   5.4278   5.6739   6.0074   7.9228   8.2153   8.6819   8.7051

     occupation numbers 
     1.0000   1.0000   1.0000   1.0000   1.0000   1.0000   1.0000   1.0000
     1.0000   1.0000   1.0000   1.0000   1.0000   1.0000   1.0000   1.0000
     1.0000   1.0000   1.0000   1.0313  -0.0000  -0.0000  -0.0000  -0.0000

          k = 0.0877 0.2632 0.2632 ( 14147 PWs)   bands (ev):

   -32.1325 -30.3003 -13.3744 -13.3733 -13.3518 -12.8444 -12.8415 -12.8357
    -5.6519  -5.0403  -5.0389   3.2288   3.8944   4.1580   4.1626   4.6491
     4.9389   5.5677   6.0207   6.0231   7.6572   7.9254   8.0606   8.6549

     occupation numbers 
     1.0000   1.0000   1.0000   1.0000   1.0000   1.0000   1.0000   1.0000
     1.0000   1.0000   1.0000   1.0000   1.0000   1.0000   1.0000   1.0000
     1.0000   1.0000   1.0344   1.0347  -0.0000  -0.0000  -0.0000  -0.0000

          k = 0.0877 0.2632 0.3509 ( 14151 PWs)   bands (ev):

   -32.1324 -30.3003 -13.3861 -13.3738 -13.3514 -12.8471 -12.8417 -12.8354
    -5.5704  -5.0447  -5.0341   3.1689   3.7710   4.0926   4.1742   4.5523
     4.8180   5.5235   5.8739   5.9520   7.7965   8.1108   8.2783   8.6981

     occupation numbers 
     1.0000   1.0000   1.0000   1.0000   1.0000   1.0000   1.0000   1.0000
     1.0000   1.0000   1.0000   1.0000   1.0000   1.0000   1.0000   1.0000
     1.0000   1.0000   1.0018   1.0137  -0.0000  -0.0000  -0.0000  -0.0000

          k = 0.0877 0.2632 0.4387 ( 14173 PWs)   bands (ev):

   -32.1324 -30.3002 -13.3950 -13.3738 -13.3511 -12.8496 -12.8412 -12.8352
    -5.5062  -5.0516  -5.0308   3.1618   3.6325   4.0739   4.1261   4.4572
     4.8352   5.4509   5.8014   5.8709   7.9804   8.2410   8.5260   8.6175

     occupation numbers 
     1.0000   1.0000   1.0000   1.0000   1.0000   1.0000   1.0000   1.0000
     1.0000   1.0000   1.0000   1.0000   1.0000   1.0000   1.0000   1.0000
     1.0000   1.0000   1.0001   1.0017  -0.0000  -0.0000  -0.0000  -0.0000

          k = 0.0877 0.2632-0.5264 ( 14166 PWs)   bands (ev):

   -32.1324 -30.3002 -13.3982 -13.3738 -13.3510 -12.8506 -12.8410 -12.8351
    -5.4813  -5.0552  -5.0297   3.1726   3.5687   4.0561   4.1053   4.4318
     4.8572   5.4122   5.8033   5.8161   8.0661   8.4050   8.4420   8.6414

     occupation numbers 
     1.0000   1.0000   1.0000   1.0000   1.0000   1.0000   1.0000   1.0000
     1.0000   1.0000   1.0000   1.0000   1.0000   1.0000   1.0000   1.0000
     1.0000   1.0000   1.0002   1.0002  -0.0000  -0.0000  -0.0000  -0.0000

          k = 0.0877 0.3509 0.3509 ( 14157 PWs)   bands (ev):

   -32.1324 -30.3002 -13.3867 -13.3858 -13.3510 -12.8465 -12.8443 -12.8350
    -5.4940  -5.0398  -5.0337   3.0455   3.6195   4.0831   4.1682   4.6404
     4.6957   5.4321   5.7021   6.0419   7.8399   8.3402   8.3690   8.7384

     occupation numbers 
     1.0000   1.0000   1.0000   1.0000   1.0000   1.0000   1.0000   1.0000
     1.0000   1.0000   1.0000   1.0000   1.0000   1.0000   1.0000   1.0000
     1.0000   1.0000   1.0000   1.0347  -0.0000  -0.0000  -0.0000  -0.0000

          k = 0.0877 0.3509 0.4387 ( 14171 PWs)   bands (ev):

   -32.1323 -30.3001 -13.3953 -13.3864 -13.3508 -12.8480 -12.8443 -12.8348
    -5.4353  -5.0407  -5.0309   2.9696   3.5159   4.0698   4.1209   4.6046
     4.7945   5.2979   5.5910   6.0991   7.9669   8.3431   8.5268   8.7307

     occupation numbers 
     1.0000   1.0000   1.0000   1.0000   1.0000   1.0000   1.0000   1.0000
     1.0000   1.0000   1.0000   1.0000   1.0000   1.0000   1.0000   1.0000
     1.0000   1.0000   1.0000   0.9725  -0.0000  -0.0000  -0.0000  -0.0000

          k = 0.0877 0.3509-0.5264 ( 14162 PWs)   bands (ev):

   -32.1323 -30.3001 -13.3986 -13.3864 -13.3507 -12.8488 -12.8441 -12.8347
    -5.4130  -5.0417  -5.0298   2.9448   3.4782   4.0644   4.0927   4.5910
     4.8752   5.2057   5.5628   6.1143   8.1103   8.2306   8.5407   8.8026

     occupation numbers 
     1.0000   1.0000   1.0000   1.0000   1.0000   1.0000   1.0000   1.0000
     1.0000   1.0000   1.0000   1.0000   1.0000   1.0000   1.0000   1.0000
     1.0000   1.0000   1.0000   0.9316  -0.0000  -0.0000  -0.0000  -0.0000

          k = 0.0877 0.4387 0.4387 ( 14162 PWs)   bands (ev):

   -32.1323 -30.3001 -13.3957 -13.3954 -13.3506 -12.8471 -12.8464 -12.8345
    -5.3825  -5.0339  -5.0296   2.8443   3.4398   4.0593   4.0916   4.7672
     4.7883   5.1835   5.3989   6.2457   7.9742   8.2250   8.6686   8.8921

     occupation numbers 
     1.0000   1.0000   1.0000   1.0000   1.0000   1.0000   1.0000   1.0000
     1.0000   1.0000   1.0000   1.0000   1.0000   1.0000   1.0000   1.0000
     1.0000   1.0000   1.0000   0.2302  -0.0000  -0.0000  -0.0000  -0.0000

          k = 0.0877 0.4387-0.5264 ( 14162 PWs)   bands (ev):

   -32.1323 -30.3001 -13.3988 -13.3956 -13.3505 -12.8476 -12.8463 -12.8344
    -5.3631  -5.0317  -5.0288   2.8012   3.4123   4.0609   4.0688   4.7727
     4.9141   5.0732   5.3347   6.2921   8.0419   8.0968   8.7318   8.9844

     occupation numbers 
     1.0000   1.0000   1.0000   1.0000   1.0000   1.0000   1.0000   1.0000
     1.0000   1.0000   1.0000   1.0000   1.0000   1.0000   1.0000   1.0000
     1.0000   1.0000   1.0000   0.0471  -0.0000  -0.0000  -0.0000  -0.0000

          k = 0.0877-0.5264-0.5264 ( 14156 PWs)   bands (ev):

   -32.1322 -30.3000 -13.3989 -13.3989 -13.3504 -12.8471 -12.8471 -12.8344
    -5.3449  -5.0280  -5.0280   2.7524   3.3876   4.0574   4.0574   4.9339
     4.9339   4.9701   5.2176   6.3497   8.0051   8.0513   8.8178   9.0686

     occupation numbers 
     1.0000   1.0000   1.0000   1.0000   1.0000   1.0000   1.0000   1.0000
     1.0000   1.0000   1.0000   1.0000   1.0000   1.0000   1.0000   1.0000
     1.0000   1.0000   1.0000  -0.0328  -0.0000  -0.0000  -0.0000  -0.0000

          k = 0.1755 0.1755 0.1755 ( 14120 PWs)   bands (ev):

   -32.1326 -30.3004 -13.3617 -13.3617 -13.3611 -12.8409 -12.8384 -12.8384
    -5.7531  -5.0409  -5.0409   3.3078   4.0029   4.0029   4.5827   4.5827
     5.1927   5.7152   6.2082   6.2082   7.5047   7.5047   7.8028   8.5773

     occupation numbers 
     1.0000   1.0000   1.0000   1.0000   1.0000   1.0000   1.0000   1.0000
     1.0000   1.0000   1.0000   1.0000   1.0000   1.0000   1.0000   1.0000
     1.0000   1.0000   0.4460   0.4460  -0.0000  -0.0000  -0.0000  -0.0000

          k = 0.1755 0.1755 0.2632 ( 14159 PWs)   bands (ev):

   -32.1325 -30.3004 -13.3738 -13.3613 -13.3611 -12.8437 -12.8388 -12.8383
    -5.6748  -5.0420  -5.0373   3.2291   3.9717   4.0392   4.3876   4.5299
     4.9369   5.7247   6.0367   6.1384   7.6057   7.7005   7.8901   8.6657

     occupation numbers 
     1.0000   1.0000   1.0000   1.0000   1.0000   1.0000   1.0000   1.0000
     1.0000   1.0000   1.0000   1.0000   1.0000   1.0000   1.0000   1.0000
     1.0000   1.0000   1.0353   0.8410  -0.0000  -0.0000  -0.0000  -0.0000

          k = 0.1755 0.1755 0.3509 ( 14175 PWs)   bands (ev):

   -32.1325 -30.3003 -13.3859 -13.3614 -13.3605 -12.8474 -12.8382 -12.8382
    -5.5910  -5.0477  -5.0336   3.2164   3.9002   3.9438   4.2961   4.3689
     4.9260   5.6520   5.8126   6.0650   7.7483   8.0398   8.0488   8.6996

     occupation numbers 
     1.0000   1.0000   1.0000   1.0000   1.0000   1.0000   1.0000   1.0000
     1.0000   1.0000   1.0000   1.0000   1.0000   1.0000   1.0000   1.0000
     1.0000   1.0000   1.0002   1.0239  -0.0000  -0.0000  -0.0000  -0.0000

          k = 0.1755 0.1755 0.4387 ( 14164 PWs)   bands (ev):

   -32.1324 -30.3002 -13.3947 -13.3614 -13.3601 -12.8503 -12.8381 -12.8376
    -5.5244  -5.0565  -5.0309   3.2854   3.7190   3.8272   4.2646   4.2734
     5.0614   5.5766   5.5796   6.0133   7.8653   8.2657   8.3985   8.6721

     occupation numbers 
     1.0000   1.0000   1.0000   1.0000   1.0000   1.0000   1.0000   1.0000
     1.0000   1.0000   1.0000   1.0000   1.0000   1.0000   1.0000   1.0000
     1.0000   1.0000   1.0000   1.0329  -0.0000  -0.0000  -0.0000  -0.0000

          k = 0.1755 0.1755-0.5264 ( 14180 PWs)   bands (ev):

   -32.1324 -30.3002 -13.3979 -13.3614 -13.3599 -12.8513 -12.8381 -12.8374
    -5.4984  -5.0611  -5.0299   3.3880   3.5452   3.7984   4.2366   4.2711
     5.1776   5.4340   5.5464   5.9951   7.9073   8.4299   8.5936   8.6003

     occupation numbers 
     1.0000   1.0000   1.0000   1.0000   1.0000   1.0000   1.0000   1.0000
     1.0000   1.0000   1.0000   1.0000   1.0000   1.0000   1.0000   1.0000
     1.0000   1.0000   1.0000   1.0275  -0.0000  -0.0000  -0.0000  -0.0000

          k = 0.1755 0.2632 0.2632 ( 14162 PWs)   bands (ev):

   -32.1325 -30.3003 -13.3739 -13.3733 -13.3609 -12.8436 -12.8414 -12.8382
    -5.5983  -5.0379  -5.0378   3.1414   3.8680   4.0165   4.3304   4.5875
     4.6660   5.8072   5.9963   6.0200   7.6885   7.7634   7.9357   8.8830

     occupation numbers 
     1.0000   1.0000   1.0000   1.0000   1.0000   1.0000   1.0000   1.0000
     1.0000   1.0000   1.0000   1.0000   1.0000   1.0000   1.0000   1.0000
     1.0000   1.0002   1.0279   1.0342  -0.0000  -0.0000  -0.0000  -0.0000

          k = 0.1755 0.2632 0.3509 ( 14183 PWs)   bands (ev):

   -32.1324 -30.3002 -13.3858 -13.3735 -13.3605 -12.8464 -12.8415 -12.8379
    -5.5170  -5.0414  -5.0343   3.1103   3.7084   3.9282   4.2123   4.4983
     4.7915   5.7065   5.9049   5.9641   7.8094   7.9720   8.0928   8.8657

     occupation numbers 
     1.0000   1.0000   1.0000   1.0000   1.0000   1.0000   1.0000   1.0000
     1.0000   1.0000   1.0000   1.0000   1.0000   1.0000   1.0000   1.0000
     1.0000   1.0000   1.0045   1.0172  -0.0000  -0.0000  -0.0000  -0.0000

          k = 0.1755 0.2632 0.4387 ( 14184 PWs)   bands (ev):

   -32.1323 -30.3002 -13.3947 -13.3734 -13.3602 -12.8489 -12.8411 -12.8376
    -5.4530  -5.0474  -5.0321   3.1467   3.5411   3.7923   4.1356   4.4752
     5.0072   5.4872   5.8681   5.9100   7.9354   8.1809   8.3786   8.7343

     occupation numbers 
     1.0000   1.0000   1.0000   1.0000   1.0000   1.0000   1.0000   1.0000
     1.0000   1.0000   1.0000   1.0000   1.0000   1.0000   1.0000   1.0000
     1.0000   1.0000   1.0015   1.0052  -0.0000  -0.0000  -0.0000  -0.0000

          k = 0.1755 0.2632-0.5264 ( 14174 PWs)   bands (ev):

   -32.1323 -30.3001 -13.3980 -13.3734 -13.3601 -12.8499 -12.8410 -12.8374
    -5.4282  -5.0507  -5.0313   3.1998   3.4348   3.7378   4.1149   4.4749
     5.2321   5.2555   5.8629   5.8808   7.9815   8.3908   8.4636   8.6583

     occupation numbers 
     1.0000   1.0000   1.0000   1.0000   1.0000   1.0000   1.0000   1.0000
     1.0000   1.0000   1.0000   1.0000   1.0000   1.0000   1.0000   1.0000
     1.0000   1.0000   1.0013   1.0023  -0.0000  -0.0000  -0.0000  -0.0000

          k = 0.1755 0.3509 0.3509 ( 14203 PWs)   bands (ev):

   -32.1323 -30.3001 -13.3860 -13.3856 -13.3601 -12.8459 -12.8443 -12.8375
    -5.4397  -5.0380  -5.0341   3.0375   3.5302   3.9049   4.0426   4.6678
     4.7603   5.6350   5.7769   6.0804   7.8610   8.1291   8.1559   8.8480

     occupation numbers 
     1.0000   1.0000   1.0000   1.0000   1.0000   1.0000   1.0000   1.0000
     1.0000   1.0000   1.0000   1.0000   1.0000   1.0000   1.0000   1.0000
     1.0000   1.0000   1.0001   1.0069  -0.0000  -0.0000  -0.0000  -0.0000

          k = 0.1755 0.3509 0.4387 ( 14189 PWs)   bands (ev):

   -32.1323 -30.3001 -13.3948 -13.3858 -13.3598 -12.8477 -12.8443 -12.8373
    -5.3801  -5.0393  -5.0323   3.0090   3.4021   3.8082   3.9691   4.6923
     4.9418   5.4536   5.7092   6.1434   7.9777   8.1919   8.3726   8.7202

     occupation numbers 
     1.0000   1.0000   1.0000   1.0000   1.0000   1.0000   1.0000   1.0000
     1.0000   1.0000   1.0000   1.0000   1.0000   1.0000   1.0000   1.0000
     1.0000   1.0000   1.0000   0.8185  -0.0000  -0.0000  -0.0000  -0.0000

          k = 0.1755 0.3509-0.5264 ( 14158 PWs)   bands (ev):

   -32.1323 -30.3001 -13.3981 -13.3858 -13.3597 -12.8485 -12.8441 -12.8372
    -5.3574  -5.0403  -5.0317   3.0070   3.3504   3.7536   3.9587   4.6946
     5.1083   5.2830   5.6979   6.1582   8.0929   8.1916   8.3981   8.8070

     occupation numbers 
     1.0000   1.0000   1.0000   1.0000   1.0000   1.0000   1.0000   1.0000
     1.0000   1.0000   1.0000   1.0000   1.0000   1.0000   1.0000   1.0000
     1.0000   1.0000   1.0000   0.7445  -0.0000  -0.0000  -0.0000  -0.0000

          k = 0.1755 0.4387 0.4387 ( 14177 PWs)   bands (ev):

   -32.1322 -30.3000 -13.3949 -13.3948 -13.3595 -12.8469 -12.8464 -12.8371
    -5.3258  -5.0345  -5.0310   2.9130   3.3231   3.8138   3.8386   4.9070
     4.9189   5.4234   5.5196   6.2931   7.9823   8.1946   8.4764   8.7154

     occupation numbers 
     1.0000   1.0000   1.0000   1.0000   1.0000   1.0000   1.0000   1.0000
     1.0000   1.0000   1.0000   1.0000   1.0000   1.0000   1.0000   1.0000
     1.0000   1.0000   1.0000   0.0444  -0.0000  -0.0000  -0.0000  -0.0000

          k = 0.1755 0.4387-0.5264 ( 14176 PWs)   bands (ev):

   -32.1322 -30.3000 -13.3981 -13.3949 -13.3594 -12.8475 -12.8463 -12.8370
    -5.3058  -5.0327  -5.0306   2.8793   3.2971   3.7738   3.8303   4.9027
     5.0668   5.3108   5.4826   6.3396   8.0577   8.0776   8.5515   8.8614

     occupation numbers 
     1.0000   1.0000   1.0000   1.0000   1.0000   1.0000   1.0000   1.0000
     1.0000   1.0000   1.0000   1.0000   1.0000   1.0000   1.0000   1.0000
     1.0000   1.0000   1.0000  -0.0279  -0.0000  -0.0000  -0.0000  -0.0000

          k = 0.1755-0.5264-0.5264 ( 14200 PWs)   bands (ev):

   -32.1322 -30.3000 -13.3982 -13.3982 -13.3592 -12.8472 -12.8472 -12.8369
    -5.2871  -5.0298  -5.0298   2.8354   3.2787   3.7814   3.7814   4.9748
     5.1379   5.3242   5.3242   6.3981   8.0112   8.0452   8.7081   8.8575

     occupation numbers 
     1.0000   1.0000   1.0000   1.0000   1.0000   1.0000   1.0000   1.0000
     1.0000   1.0000   1.0000   1.0000   1.0000   1.0000   1.0000   1.0000
     1.0000   1.0000   1.0000  -0.0294  -0.0000  -0.0000  -0.0000  -0.0000

          k = 0.2632 0.2632 0.2632 ( 14186 PWs)   bands (ev):

   -32.1324 -30.3002 -13.3735 -13.3731 -13.3731 -12.8430 -12.8413 -12.8413
    -5.5223  -5.0362  -5.0362   3.0667   3.8340   3.8340   4.2903   4.5804
     4.5804   5.9573   5.9573   5.9882   7.7491   7.7491   7.8886   9.0265

     occupation numbers 
     1.0000   1.0000   1.0000   1.0000   1.0000   1.0000   1.0000   1.0000
     1.0000   1.0000   1.0000   1.0000   1.0000   1.0000   1.0000   1.0000
     1.0000   1.0152   1.0152   1.0252  -0.0000  -0.0000  -0.0000  -0.0000

          k = 0.2632 0.2632 0.3509 ( 14199 PWs)   bands (ev):

   -32.1323 -30.3001 -13.3855 -13.3735 -13.3724 -12.8455 -12.8413 -12.8413
    -5.4419  -5.0376  -5.0347   3.0442   3.6777   3.7136   4.0552   4.5992
     4.7861   5.8220   5.9254   6.0399   7.8400   7.9244   7.9549   8.9878

     occupation numbers 
     1.0000   1.0000   1.0000   1.0000   1.0000   1.0000   1.0000   1.0000
     1.0000   1.0000   1.0000   1.0000   1.0000   1.0000   1.0000   1.0000
     1.0000   1.0003   1.0076   1.0350  -0.0000  -0.0000  -0.0000  -0.0000

          k = 0.2632 0.2632 0.4387 ( 14196 PWs)   bands (ev):

   -32.1323 -30.3001 -13.3944 -13.3736 -13.3718 -12.8481 -12.8412 -12.8406
    -5.3789  -5.0419  -5.0335   3.0954   3.4770   3.5764   3.9770   4.6210
     4.9925   5.6457   5.9015   6.0227   7.9288   8.1268   8.2132   8.8338

     occupation numbers 
     1.0000   1.0000   1.0000   1.0000   1.0000   1.0000   1.0000   1.0000
     1.0000   1.0000   1.0000   1.0000   1.0000   1.0000   1.0000   1.0000
     1.0000   1.0000   1.0041   1.0347  -0.0000  -0.0000  -0.0000  -0.0000

          k = 0.2632 0.2632-0.5264 ( 14170 PWs)   bands (ev):

   -32.1323 -30.3001 -13.3977 -13.3736 -13.3716 -12.8490 -12.8412 -12.8403
    -5.3546  -5.0446  -5.0331   3.1884   3.3054   3.5416   3.9621   4.6303
     5.1070   5.5376   5.8929   6.0077   7.9620   8.2775   8.4273   8.7230

     occupation numbers 
     1.0000   1.0000   1.0000   1.0000   1.0000   1.0000   1.0000   1.0000
     1.0000   1.0000   1.0000   1.0000   1.0000   1.0000   1.0000   1.0000
     1.0000   1.0000   1.0032   1.0314  -0.0000  -0.0000  -0.0000  -0.0000

          k = 0.2632 0.3509 0.3509 ( 14195 PWs)   bands (ev):

   -32.1323 -30.3001 -13.3853 -13.3851 -13.3724 -12.8451 -12.8443 -12.8409
    -5.3636  -5.0360  -5.0346   3.0096   3.4976   3.6779   3.8213   4.7546
     4.8299   5.8238   5.8622   6.1742   7.8923   7.9738   7.9806   8.8951

     occupation numbers 
     1.0000   1.0000   1.0000   1.0000   1.0000   1.0000   1.0000   1.0000
     1.0000   1.0000   1.0000   1.0000   1.0000   1.0000   1.0000   1.0000
     1.0000   1.0003   1.0013   0.6546  -0.0000  -0.0000  -0.0000  -0.0000

          k = 0.2632 0.3509 0.4387 ( 14165 PWs)   bands (ev):

   -32.1322 -30.3000 -13.3941 -13.3850 -13.3720 -12.8472 -12.8442 -12.8407
    -5.3032  -5.0374  -5.0340   3.0326   3.3203   3.5622   3.7610   4.8027
     4.9674   5.7255   5.8491   6.2294   7.9846   8.0375   8.1980   8.6898

     occupation numbers 
     1.0000   1.0000   1.0000   1.0000   1.0000   1.0000   1.0000   1.0000
     1.0000   1.0000   1.0000   1.0000   1.0000   1.0000   1.0000   1.0000
     1.0000   1.0000   1.0008   0.3189  -0.0000  -0.0000  -0.0000  -0.0000

          k = 0.2632 0.3509-0.5264 ( 14190 PWs)   bands (ev):

   -32.1322 -30.3000 -13.3974 -13.3850 -13.3719 -12.8481 -12.8440 -12.8405
    -5.2802  -5.0385  -5.0339   3.0891   3.2031   3.5077   3.7601   4.8129
     5.0428   5.6626   5.8491   6.2394   8.0362   8.1179   8.3331   8.6188

     occupation numbers 
     1.0000   1.0000   1.0000   1.0000   1.0000   1.0000   1.0000   1.0000
     1.0000   1.0000   1.0000   1.0000   1.0000   1.0000   1.0000   1.0000
     1.0000   1.0000   1.0008   0.2634  -0.0000  -0.0000  -0.0000  -0.0000

          k = 0.2632 0.4387 0.4387 ( 14185 PWs)   bands (ev):

   -32.1322 -30.3000 -13.3940 -13.3939 -13.3716 -12.8467 -12.8465 -12.8405
    -5.2467  -5.0353  -5.0330   2.9971   3.1911   3.5792   3.6054   4.9552
     4.9624   5.7583   5.7725   6.3689   7.9612   8.1413   8.2590   8.5250

     occupation numbers 
     1.0000   1.0000   1.0000   1.0000   1.0000   1.0000   1.0000   1.0000
     1.0000   1.0000   1.0000   1.0000   1.0000   1.0000   1.0000   1.0000
     1.0000   1.0000   1.0000  -0.0354  -0.0000  -0.0000  -0.0000  -0.0000

          k = 0.2632 0.4387-0.5264 ( 14180 PWs)   bands (ev):

   -32.1321 -30.2999 -13.3972 -13.3938 -13.3714 -12.8475 -12.8464 -12.8404
    -5.2258  -5.0340  -5.0331   2.9919   3.1380   3.5327   3.6038   4.9547
     5.0296   5.7202   5.7786   6.4125   7.9874   8.1200   8.3388   8.5701

     occupation numbers 
     1.0000   1.0000   1.0000   1.0000   1.0000   1.0000   1.0000   1.0000
     1.0000   1.0000   1.0000   1.0000   1.0000   1.0000   1.0000   1.0000
     1.0000   1.0000   1.0001  -0.0247  -0.0000  -0.0000  -0.0000  -0.0000

          k = 0.2632-0.5264-0.5264 ( 14168 PWs)   bands (ev):

   -32.1321 -30.2999 -13.3971 -13.3971 -13.3712 -12.8472 -12.8472 -12.8404
    -5.2062  -5.0323  -5.0323   2.9558   3.1157   3.5461   3.5461   4.9814
     5.0626   5.7401   5.7401   6.4705   7.9390   8.1022   8.5557   8.5557

     occupation numbers 
     1.0000   1.0000   1.0000   1.0000   1.0000   1.0000   1.0000   1.0000
     1.0000   1.0000   1.0000   1.0000   1.0000   1.0000   1.0000   1.0000
     1.0000   1.0000   1.0000  -0.0082  -0.0000  -0.0000  -0.0000  -0.0000

          k = 0.3509 0.3509 0.3509 ( 14192 PWs)   bands (ev):

   -32.1322 -30.3000 -13.3854 -13.3842 -13.3842 -12.8444 -12.8443 -12.8443
    -5.2847  -5.0351  -5.0351   2.9858   3.5064   3.5064   3.5495   4.8761
     4.8761   5.9245   5.9245   6.2950   7.8807   7.9527   7.9527   8.8677

     occupation numbers 
     1.0000   1.0000   1.0000   1.0000   1.0000   1.0000   1.0000   1.0000
     1.0000   1.0000   1.0000   1.0000   1.0000   1.0000   1.0000   1.0000
     1.0000   1.0075   1.0075   0.0396  -0.0000  -0.0000  -0.0000  -0.0000

          k = 0.3509 0.3509 0.4387 ( 14181 PWs)   bands (ev):

   -32.1321 -30.2999 -13.3935 -13.3848 -13.3835 -12.8468 -12.8443 -12.8438
    -5.2244  -5.0358  -5.0354   3.0059   3.2892   3.4003   3.5479   4.9052
     4.9730   5.9458   5.9756   6.3563   7.9287   7.9906   8.0940   8.6321

     occupation numbers 
     1.0000   1.0000   1.0000   1.0000   1.0000   1.0000   1.0000   1.0000
     1.0000   1.0000   1.0000   1.0000   1.0000   1.0000   1.0000   1.0000
     1.0000   1.0121   1.0210  -0.0346  -0.0000  -0.0000  -0.0000  -0.0000

          k = 0.3509 0.3509-0.5264 ( 14176 PWs)   bands (ev):

   -32.1321 -30.2999 -13.3967 -13.3847 -13.3833 -12.8477 -12.8443 -12.8436
    -5.2014  -5.0366  -5.0356   3.0703   3.1421   3.3645   3.5605   4.9154
     5.0108   5.9459   5.9940   6.3668   8.0009   8.0123   8.3058   8.3940

     occupation numbers 
     1.0000   1.0000   1.0000   1.0000   1.0000   1.0000   1.0000   1.0000
     1.0000   1.0000   1.0000   1.0000   1.0000   1.0000   1.0000   1.0000
     1.0000   1.0121   1.0272  -0.0355  -0.0000  -0.0000  -0.0000  -0.0000

          k = 0.3509 0.4387 0.4387 ( 14188 PWs)   bands (ev):

   -32.1321 -30.2999 -13.3931 -13.3928 -13.3836 -12.8465 -12.8465 -12.8439
    -5.1655  -5.0360  -5.0349   2.9777   3.1750   3.4033   3.4048   4.9775
     4.9775   6.0606   6.0708   6.4634   7.8878   8.0703   8.0794   8.4179

     occupation numbers 
     1.0000   1.0000   1.0000   1.0000   1.0000   1.0000   1.0000   1.0000
     1.0000   1.0000   1.0000   1.0000   1.0000   1.0000   1.0000   1.0000
     1.0000   1.0271   1.0186  -0.0097  -0.0000  -0.0000  -0.0000  -0.0000

          k = 0.3509 0.4387-0.5264 ( 14188 PWs)   bands (ev):

   -32.1321 -30.2999 -13.3962 -13.3928 -13.3833 -12.8474 -12.8464 -12.8439
    -5.1437  -5.0355  -5.0353   2.9755   3.1113   3.3560   3.4205   4.9795
     5.0039   6.0981   6.1032   6.4993   7.9021   8.0713   8.2328   8.2585

     occupation numbers 
     1.0000   1.0000   1.0000   1.0000   1.0000   1.0000   1.0000   1.0000
     1.0000   1.0000   1.0000   1.0000   1.0000   1.0000   1.0000   1.0000
     1.0000   0.9748   0.9625  -0.0039  -0.0000  -0.0000  -0.0000  -0.0000

          k = 0.3509-0.5264-0.5264 ( 14188 PWs)   bands (ev):

   -32.1321 -30.2999 -13.3960 -13.3960 -13.3831 -12.8473 -12.8473 -12.8439
    -5.1230  -5.0348  -5.0348   2.9403   3.0860   3.3714   3.3714   4.9879
     5.0172   6.1449   6.1449   6.5525   7.8528   8.1620   8.2162   8.2162

     occupation numbers 
     1.0000   1.0000   1.0000   1.0000   1.0000   1.0000   1.0000   1.0000
     1.0000   1.0000   1.0000   1.0000   1.0000   1.0000   1.0000   1.0000
     1.0000   0.8111   0.8111  -0.0008  -0.0000  -0.0000  -0.0000  -0.0000

          k = 0.4387 0.4387 0.4387 ( 14172 PWs)   bands (ev):

   -32.1320 -30.2998 -13.3927 -13.3921 -13.3921 -12.8465 -12.8465 -12.8463
    -5.1048  -5.0364  -5.0364   2.8892   3.2140   3.2978   3.2978   4.9895
     4.9895   6.2921   6.2921   6.5480   7.8246   7.9960   7.9960   8.3715

     occupation numbers 
     1.0000   1.0000   1.0000   1.0000   1.0000   1.0000   1.0000   1.0000
     1.0000   1.0000   1.0000   1.0000   1.0000   1.0000   1.0000   1.0000
     1.0000   0.0472   0.0472  -0.0009  -0.0000  -0.0000  -0.0000  -0.0000

          k = 0.4387 0.4387-0.5264 ( 14182 PWs)   bands (ev):

   -32.1320 -30.2998 -13.3955 -13.3923 -13.3918 -12.8474 -12.8465 -12.8463
    -5.0825  -5.0369  -5.0362   2.8524   3.1916   3.2618   3.3038   4.9934
     4.9948   6.3743   6.3834   6.5802   7.8255   7.9469   8.0024   8.2442

     occupation numbers 
     1.0000   1.0000   1.0000   1.0000   1.0000   1.0000   1.0000   1.0000
     1.0000   1.0000   1.0000   1.0000   1.0000   1.0000   1.0000   1.0000
     1.0000  -0.0349  -0.0334  -0.0003  -0.0000  -0.0000  -0.0000  -0.0000

          k = 0.4387-0.5264-0.5264 ( 14200 PWs)   bands (ev):

   -32.1320 -30.2998 -13.3952 -13.3952 -13.3918 -12.8474 -12.8474 -12.8464
    -5.0605  -5.0366  -5.0366   2.8063   3.1888   3.2643   3.2643   4.9927
     4.9987   6.4896   6.4896   6.6208   7.7834   7.9051   7.9051   8.2705

     occupation numbers 
     1.0000   1.0000   1.0000   1.0000   1.0000   1.0000   1.0000   1.0000
     1.0000   1.0000   1.0000   1.0000   1.0000   1.0000   1.0000   1.0000
     1.0000  -0.0051  -0.0051  -0.0001  -0.0000  -0.0000  -0.0000  -0.0000

          k =-0.5264-0.5264-0.5264 ( 14328 PWs)   bands (ev):

   -32.1320 -30.2998 -13.3949 -13.3949 -13.3949 -12.8474 -12.8474 -12.8474
    -5.0373  -5.0373  -5.0373   2.7564   3.2283   3.2283   3.2283   4.9945
     4.9945   6.6481   6.6481   6.6481   7.7569   7.7569   7.7569   8.2100

     occupation numbers 
     1.0000   1.0000   1.0000   1.0000   1.0000   1.0000   1.0000   1.0000
     1.0000   1.0000   1.0000   1.0000   1.0000   1.0000   1.0000   1.0000
     1.0000  -0.0000  -0.0000  -0.0000  -0.0000  -0.0000  -0.0000  -0.0000

     the Fermi energy is     6.1995 ev

!    total energy              =   -1173.59156593 Ry
     total all-electron energy =    -33662.972678 Ry
     estimated scf accuracy    <          1.9E-14 Ry
     smearing contrib. (-TS)   =       0.00000622 Ry
     internal energy E=F+TS    =   -1173.59157215 Ry

     The total energy is F=E-TS. E is the sum of the following terms:
     one-electron contribution =     -43.24373667 Ry
     hartree contribution      =      38.13438953 Ry
     xc contribution           =    -104.52499607 Ry
     ewald contribution        =    -149.85271267 Ry
     one-center paw contrib.   =    -914.10451626 Ry
      -> PAW hartree energy AE =      47.98455443 Ry
      -> PAW hartree energy PS =     -47.76234162 Ry
      -> PAW xc energy AE      =     -71.55597022 Ry
      -> PAW xc energy PS      =      11.34736921 Ry
      -> total E_H with PAW    =      38.35660234 Ry
      -> total E_XC with PAW   =    -164.73359709 Ry

     convergence has been achieved in   2 iterations

     Forces acting on atoms (cartesian axes, Ry/au):

     atom    1 type  1   force =     0.00000000    0.00000000    0.00000000
     atom    2 type  2   force =     0.00000000    0.00000000    0.00000000
     atom    3 type  3   force =     0.00000000    0.00000000    0.00000000
     atom    4 type  3   force =     0.00000000    0.00000000    0.00000000
     atom    5 type  3   force =     0.00000000    0.00000000    0.00000000
     The non-local contrib.  to forces
     atom    1 type  1   force =     0.00000000    0.00000000    0.00000000
     atom    2 type  2   force =     0.00000000    0.00000000    0.00000000
     atom    3 type  3   force =     0.00000000    0.00000000    0.00000000
     atom    4 type  3   force =     0.00000000    0.00000000    0.00000000
     atom    5 type  3   force =     0.00000000    0.00000000    0.00000000
     The ionic contribution  to forces
     atom    1 type  1   force =    -0.00000000   -0.00000000   -0.00000000
     atom    2 type  2   force =     0.00000000    0.00000000    0.00000000
     atom    3 type  3   force =    -0.00000000   -0.00000000   -0.00000000
     atom    4 type  3   force =    -0.00000000   -0.00000000   -0.00000000
     atom    5 type  3   force =    -0.00000000   -0.00000000   -0.00000000
     The local contribution  to forces
     atom    1 type  1   force =     0.00000000    0.00000000    0.00000000
     atom    2 type  2   force =     0.00000000    0.00000000    0.00000000
     atom    3 type  3   force =     0.00000000    0.00000000    0.00000000
     atom    4 type  3   force =    -0.00000000    0.00000000    0.00000000
     atom    5 type  3   force =     0.00000000    0.00000000    0.00000000
     The core correction contribution to forces
     atom    1 type  1   force =     0.00000000    0.00000000    0.00000000
     atom    2 type  2   force =    -0.00000000   -0.00000000   -0.00000000
     atom    3 type  3   force =    -0.00000000    0.00000000   -0.00000000
     atom    4 type  3   force =     0.00000000   -0.00000000   -0.00000000
     atom    5 type  3   force =     0.00000000    0.00000000   -0.00000000
     The Hubbard contrib.    to forces
     atom    1 type  1   force =     0.00000000    0.00000000    0.00000000
     atom    2 type  2   force =     0.00000000    0.00000000    0.00000000
     atom    3 type  3   force =     0.00000000    0.00000000    0.00000000
     atom    4 type  3   force =     0.00000000    0.00000000    0.00000000
     atom    5 type  3   force =     0.00000000    0.00000000    0.00000000
     The SCF correction term to forces
     atom    1 type  1   force =     0.00000000    0.00000000    0.00000000
     atom    2 type  2   force =    -0.00000000    0.00000000   -0.00000000
     atom    3 type  3   force =     0.00000000   -0.00000000   -0.00000000
     atom    4 type  3   force =     0.00000000    0.00000000   -0.00000000
     atom    5 type  3   force =    -0.00000000   -0.00000000    0.00000000

     Total force =     0.000000     Total SCF correction =     0.000000


     Computing stress (Cartesian axis) and pressure

          total   stress  (Ry/bohr**3)                   (kbar)     P=       -0.00
  -0.00000001   0.00000000   0.00000000           -0.00        0.00        0.00
   0.00000000  -0.00000001   0.00000000            0.00       -0.00        0.00
   0.00000000   0.00000000  -0.00000001            0.00        0.00       -0.00

     kinetic stress (kbar)   7085.00      0.00      0.00
                                0.00   7085.00      0.00
                                0.00      0.00   7085.00

     local   stress (kbar)  -2040.06      0.00      0.00
                                0.00  -2040.06      0.00
                                0.00      0.00  -2040.06

     nonloc. stress (kbar)   2402.04      0.00      0.00
                                0.00   2402.04      0.00
                                0.00      0.00   2402.04

     hartree stress (kbar)   1860.93     -0.00     -0.00
                               -0.00   1860.93     -0.00
                               -0.00     -0.00   1860.93

     exc-cor stress (kbar)   8560.44      0.00     -0.00
                                0.00   8560.44     -0.00
                               -0.00     -0.00   8560.44

     corecor stress (kbar) -10555.64     -0.00      0.00
                               -0.00 -10555.64     -0.00
                                0.00     -0.00 -10555.64

     ewald   stress (kbar)  -7312.72      0.00     -0.00
                                0.00  -7312.72     -0.00
                               -0.00     -0.00  -7312.72

     hubbard stress (kbar)      0.00      0.00      0.00
                                0.00      0.00      0.00
                                0.00      0.00      0.00

     DFT-D   stress (kbar)      0.00      0.00      0.00
                                0.00      0.00      0.00
                                0.00      0.00      0.00

     XDM     stress (kbar)      0.00      0.00      0.00
                                0.00      0.00      0.00
                                0.00      0.00      0.00

     dft-nl  stress (kbar)      0.00      0.00      0.00
                                0.00      0.00      0.00
                                0.00      0.00      0.00

     TS-vdW  stress (kbar)      0.00      0.00      0.00
                                0.00      0.00      0.00
                                0.00      0.00      0.00

     MDB     stress (kbar)      0.00      0.00      0.00
                                0.00      0.00      0.00
                                0.00      0.00      0.00

     3D-RISM stress (kbar)      0.00      0.00      0.00
                                0.00      0.00      0.00
                                0.00      0.00      0.00

     Energy error            =      3.2E-12 Ry
     Gradient error          =      0.0E+00 Ry/Bohr
     Cell gradient error     =      9.1E-04 kbar

     bfgs converged in   8 scf cycles and   7 bfgs steps
     (criteria: energy <  1.0E-07 Ry, force <  1.0E-06 Ry/Bohr, cell <  1.0E-01 kbar)

     End of BFGS Geometry Optimization

     Final enthalpy           =   -1173.5915659289 Ry

     File ./tmp/caces3.bfgs deleted, as requested
Begin final coordinates
     new unit-cell volume =   1004.82942 a.u.^3 (   148.90036 Ang^3 )
     density =      4.65122 g/cm^3

CELL_PARAMETERS (angstrom)
   5.300277157   0.000000000   0.000000000
   0.000000000   5.300277157   0.000000000
   0.000000000   0.000000000   5.300277157

ATOMIC_POSITIONS (crystal)
Ca               0.0000000000        0.0000000000        0.0000000000
Ce               0.5000000000        0.5000000000        0.5000000000
Se               0.5000000000        0.0000000000        0.0000000000
Se               0.0000000000        0.5000000000        0.0000000000
Se               0.0000000000        0.0000000000        0.5000000000
End final coordinates



     Writing config-only to output data dir ./tmp/caces3.save/ :
     XML data file

     Final scf calculation at the relaxed structure.
     The G-vectors are recalculated for the final unit cell
     Results may differ from those at the preceding step.

     Parallelization info
     --------------------
     sticks:   dense  smooth     PW     G-vecs:    dense   smooth      PW
     Min         641     320     89                34349    12172    1799
     Max         642     321     90                34350    12173    1802
     Sum        5129    2561    717               274793    97377   14411

     Using Slab Decomposition



     bravais-lattice index     =            0
     lattice parameter (alat)  =      10.5447  a.u.
     unit-cell volume          =    1004.8294 (a.u.)^3
     number of atoms/cell      =            5
     number of atomic types    =            3
     number of electrons       =        39.00
     number of Kohn-Sham states=           24
     kinetic-energy cutoff     =      80.0000  Ry
     charge density cutoff     =     640.0000  Ry
     scf convergence threshold =      1.0E-12
     mixing beta               =       0.3000
     number of iterations used =            8  plain     mixing
     press convergence thresh. =      1.0E-01
     Exchange-correlation= PBE
                           (   1   4   3   4   0   0   0)

     celldm(1)=  10.544672  celldm(2)=   0.000000  celldm(3)=   0.000000
     celldm(4)=   0.000000  celldm(5)=   0.000000  celldm(6)=   0.000000

     crystal axes: (cart. coord. in units of alat)
               a(1) = (   0.949870   0.000000   0.000000 )  
               a(2) = (   0.000000   0.949870   0.000000 )  
               a(3) = (   0.000000   0.000000   0.949870 )  

     reciprocal axes: (cart. coord. in units 2 pi/alat)
               b(1) = (  1.052775  0.000000  0.000000 )  
               b(2) = (  0.000000  1.052775  0.000000 )  
               b(3) = (  0.000000  0.000000  1.052775 )  


     PseudoPot. # 1 for Ca read from file:
     /home/administrator/Downloads/BURAI/BURAI1.3/pseudopot/Ca.pbe-spn-kjpaw_psl.1.0.0.UPF
     MD5 check sum: b518bfa21c8e9f1b10ff1c7131b15729
     Pseudo is Projector augmented-wave + core cor, Zval = 10.0
     Generated using "atomic" code by A. Dal Corso  v.5.1.2
     Shape of augmentation charge: PSQ
     Using radial grid of 1169 points,  6 beta functions with: 
                l(1) =   0
                l(2) =   0
                l(3) =   1
                l(4) =   1
                l(5) =   2
                l(6) =   2
     Q(r) pseudized with 0 coefficients 


     PseudoPot. # 2 for Ce read from file:
     /home/administrator/Downloads/BURAI/BURAI1.3/pseudopot/Ce.pbe-spdn-kjpaw_psl.1.0.0.UPF
     MD5 check sum: 812d43270a30c3f31dcbe73ad7930501
     Pseudo is Projector augmented-wave + core cor, Zval = 11.0
     Generated using "atomic" code by A. Dal Corso  v.5.1.2
     Shape of augmentation charge: PSQ
     Using radial grid of 1255 points,  6 beta functions with: 
                l(1) =   0
                l(2) =   0
                l(3) =   1
                l(4) =   1
                l(5) =   2
                l(6) =   2
     Q(r) pseudized with 0 coefficients 


     PseudoPot. # 3 for Se read from file:
     /home/administrator/Downloads/BURAI/BURAI1.3/pseudopot/Se.pbe-n-kjpaw_psl.1.0.0.UPF
     MD5 check sum: a24196f260b4188fa853fb27ef2f7c98
     Pseudo is Projector augmented-wave + core cor, Zval =  6.0
     Generated using "atomic" code by A. Dal Corso  v.5.1.2
     Shape of augmentation charge: PSQ
     Using radial grid of 1211 points,  4 beta functions with: 
                l(1) =   0
                l(2) =   0
                l(3) =   1
                l(4) =   1
     Q(r) pseudized with 0 coefficients 


     atomic species   valence    mass     pseudopotential
     Ca               10.00    40.07800     Ca( 1.00)
     Ce               11.00   140.11600     Ce( 1.00)
     Se                6.00    78.96000     Se( 1.00)

     48 Sym. Ops., with inversion, found


                                    s                        frac. trans.

      isym =  1     identity                                     

 cryst.   s( 1) = (     1          0          0      )
                  (     0          1          0      )
                  (     0          0          1      )

 cart.    s( 1) = (  1.0000000  0.0000000  0.0000000 )
                  (  0.0000000  1.0000000  0.0000000 )
                  (  0.0000000  0.0000000  1.0000000 )


      isym =  2     180 deg rotation - cart. axis [0,0,1]        

 cryst.   s( 2) = (    -1          0          0      )
                  (     0         -1          0      )
                  (     0          0          1      )

 cart.    s( 2) = ( -1.0000000  0.0000000  0.0000000 )
                  (  0.0000000 -1.0000000  0.0000000 )
                  (  0.0000000  0.0000000  1.0000000 )


      isym =  3     180 deg rotation - cart. axis [0,1,0]        

 cryst.   s( 3) = (    -1          0          0      )
                  (     0          1          0      )
                  (     0          0         -1      )

 cart.    s( 3) = ( -1.0000000  0.0000000  0.0000000 )
                  (  0.0000000  1.0000000  0.0000000 )
                  (  0.0000000  0.0000000 -1.0000000 )


      isym =  4     180 deg rotation - cart. axis [1,0,0]        

 cryst.   s( 4) = (     1          0          0      )
                  (     0         -1          0      )
                  (     0          0         -1      )

 cart.    s( 4) = (  1.0000000  0.0000000  0.0000000 )
                  (  0.0000000 -1.0000000  0.0000000 )
                  (  0.0000000  0.0000000 -1.0000000 )


      isym =  5     180 deg rotation - cart. axis [1,1,0]        

 cryst.   s( 5) = (     0          1          0      )
                  (     1          0          0      )
                  (     0          0         -1      )

 cart.    s( 5) = (  0.0000000  1.0000000  0.0000000 )
                  (  1.0000000  0.0000000  0.0000000 )
                  (  0.0000000  0.0000000 -1.0000000 )


      isym =  6     180 deg rotation - cart. axis [1,-1,0]       

 cryst.   s( 6) = (     0         -1          0      )
                  (    -1          0          0      )
                  (     0          0         -1      )

 cart.    s( 6) = (  0.0000000 -1.0000000  0.0000000 )
                  ( -1.0000000  0.0000000  0.0000000 )
                  (  0.0000000  0.0000000 -1.0000000 )


      isym =  7      90 deg rotation - cart. axis [0,0,-1]       

 cryst.   s( 7) = (     0         -1          0      )
                  (     1          0          0      )
                  (     0          0          1      )

 cart.    s( 7) = (  0.0000000  1.0000000  0.0000000 )
                  ( -1.0000000  0.0000000  0.0000000 )
                  (  0.0000000  0.0000000  1.0000000 )


      isym =  8      90 deg rotation - cart. axis [0,0,1]        

 cryst.   s( 8) = (     0          1          0      )
                  (    -1          0          0      )
                  (     0          0          1      )

 cart.    s( 8) = (  0.0000000 -1.0000000  0.0000000 )
                  (  1.0000000  0.0000000  0.0000000 )
                  (  0.0000000  0.0000000  1.0000000 )


      isym =  9     180 deg rotation - cart. axis [1,0,1]        

 cryst.   s( 9) = (     0          0          1      )
                  (     0         -1          0      )
                  (     1          0          0      )

 cart.    s( 9) = (  0.0000000  0.0000000  1.0000000 )
                  (  0.0000000 -1.0000000  0.0000000 )
                  (  1.0000000  0.0000000  0.0000000 )


      isym = 10     180 deg rotation - cart. axis [-1,0,1]       

 cryst.   s(10) = (     0          0         -1      )
                  (     0         -1          0      )
                  (    -1          0          0      )

 cart.    s(10) = (  0.0000000  0.0000000 -1.0000000 )
                  (  0.0000000 -1.0000000  0.0000000 )
                  ( -1.0000000  0.0000000  0.0000000 )


      isym = 11      90 deg rotation - cart. axis [0,1,0]        

 cryst.   s(11) = (     0          0         -1      )
                  (     0          1          0      )
                  (     1          0          0      )

 cart.    s(11) = (  0.0000000  0.0000000  1.0000000 )
                  (  0.0000000  1.0000000  0.0000000 )
                  ( -1.0000000  0.0000000  0.0000000 )


      isym = 12      90 deg rotation - cart. axis [0,-1,0]       

 cryst.   s(12) = (     0          0          1      )
                  (     0          1          0      )
                  (    -1          0          0      )

 cart.    s(12) = (  0.0000000  0.0000000 -1.0000000 )
                  (  0.0000000  1.0000000  0.0000000 )
                  (  1.0000000  0.0000000  0.0000000 )


      isym = 13     180 deg rotation - cart. axis [0,1,1]        

 cryst.   s(13) = (    -1          0          0      )
                  (     0          0          1      )
                  (     0          1          0      )

 cart.    s(13) = ( -1.0000000  0.0000000  0.0000000 )
                  (  0.0000000  0.0000000  1.0000000 )
                  (  0.0000000  1.0000000  0.0000000 )


      isym = 14     180 deg rotation - cart. axis [0,1,-1]       

 cryst.   s(14) = (    -1          0          0      )
                  (     0          0         -1      )
                  (     0         -1          0      )

 cart.    s(14) = ( -1.0000000  0.0000000  0.0000000 )
                  (  0.0000000  0.0000000 -1.0000000 )
                  (  0.0000000 -1.0000000  0.0000000 )


      isym = 15      90 deg rotation - cart. axis [-1,0,0]       

 cryst.   s(15) = (     1          0          0      )
                  (     0          0         -1      )
                  (     0          1          0      )

 cart.    s(15) = (  1.0000000  0.0000000  0.0000000 )
                  (  0.0000000  0.0000000  1.0000000 )
                  (  0.0000000 -1.0000000  0.0000000 )


      isym = 16      90 deg rotation - cart. axis [1,0,0]        

 cryst.   s(16) = (     1          0          0      )
                  (     0          0          1      )
                  (     0         -1          0      )

 cart.    s(16) = (  1.0000000  0.0000000  0.0000000 )
                  (  0.0000000  0.0000000 -1.0000000 )
                  (  0.0000000  1.0000000  0.0000000 )


      isym = 17     120 deg rotation - cart. axis [-1,-1,-1]     

 cryst.   s(17) = (     0          0          1      )
                  (     1          0          0      )
                  (     0          1          0      )

 cart.    s(17) = (  0.0000000  1.0000000  0.0000000 )
                  (  0.0000000  0.0000000  1.0000000 )
                  (  1.0000000  0.0000000  0.0000000 )


      isym = 18     120 deg rotation - cart. axis [-1,1,1]       

 cryst.   s(18) = (     0          0         -1      )
                  (    -1          0          0      )
                  (     0          1          0      )

 cart.    s(18) = (  0.0000000 -1.0000000  0.0000000 )
                  (  0.0000000  0.0000000  1.0000000 )
                  ( -1.0000000  0.0000000  0.0000000 )


      isym = 19     120 deg rotation - cart. axis [1,1,-1]       

 cryst.   s(19) = (     0          0         -1      )
                  (     1          0          0      )
                  (     0         -1          0      )

 cart.    s(19) = (  0.0000000  1.0000000  0.0000000 )
                  (  0.0000000  0.0000000 -1.0000000 )
                  ( -1.0000000  0.0000000  0.0000000 )


      isym = 20     120 deg rotation - cart. axis [1,-1,1]       

 cryst.   s(20) = (     0          0          1      )
                  (    -1          0          0      )
                  (     0         -1          0      )

 cart.    s(20) = (  0.0000000 -1.0000000  0.0000000 )
                  (  0.0000000  0.0000000 -1.0000000 )
                  (  1.0000000  0.0000000  0.0000000 )


      isym = 21     120 deg rotation - cart. axis [1,1,1]        

 cryst.   s(21) = (     0          1          0      )
                  (     0          0          1      )
                  (     1          0          0      )

 cart.    s(21) = (  0.0000000  0.0000000  1.0000000 )
                  (  1.0000000  0.0000000  0.0000000 )
                  (  0.0000000  1.0000000  0.0000000 )


      isym = 22     120 deg rotation - cart. axis [-1,1,-1]      

 cryst.   s(22) = (     0         -1          0      )
                  (     0          0         -1      )
                  (     1          0          0      )

 cart.    s(22) = (  0.0000000  0.0000000  1.0000000 )
                  ( -1.0000000  0.0000000  0.0000000 )
                  (  0.0000000 -1.0000000  0.0000000 )


      isym = 23     120 deg rotation - cart. axis [1,-1,-1]      

 cryst.   s(23) = (     0         -1          0      )
                  (     0          0          1      )
                  (    -1          0          0      )

 cart.    s(23) = (  0.0000000  0.0000000 -1.0000000 )
                  ( -1.0000000  0.0000000  0.0000000 )
                  (  0.0000000  1.0000000  0.0000000 )


      isym = 24     120 deg rotation - cart. axis [-1,-1,1]      

 cryst.   s(24) = (     0          1          0      )
                  (     0          0         -1      )
                  (    -1          0          0      )

 cart.    s(24) = (  0.0000000  0.0000000 -1.0000000 )
                  (  1.0000000  0.0000000  0.0000000 )
                  (  0.0000000 -1.0000000  0.0000000 )


      isym = 25     inversion                                    

 cryst.   s(25) = (    -1          0          0      )
                  (     0         -1          0      )
                  (     0          0         -1      )

 cart.    s(25) = ( -1.0000000  0.0000000  0.0000000 )
                  (  0.0000000 -1.0000000  0.0000000 )
                  (  0.0000000  0.0000000 -1.0000000 )


      isym = 26     inv. 180 deg rotation - cart. axis [0,0,1]   

 cryst.   s(26) = (     1          0          0      )
                  (     0          1          0      )
                  (     0          0         -1      )

 cart.    s(26) = (  1.0000000  0.0000000  0.0000000 )
                  (  0.0000000  1.0000000  0.0000000 )
                  (  0.0000000  0.0000000 -1.0000000 )


      isym = 27     inv. 180 deg rotation - cart. axis [0,1,0]   

 cryst.   s(27) = (     1          0          0      )
                  (     0         -1          0      )
                  (     0          0          1      )

 cart.    s(27) = (  1.0000000  0.0000000  0.0000000 )
                  (  0.0000000 -1.0000000  0.0000000 )
                  (  0.0000000  0.0000000  1.0000000 )


      isym = 28     inv. 180 deg rotation - cart. axis [1,0,0]   

 cryst.   s(28) = (    -1          0          0      )
                  (     0          1          0      )
                  (     0          0          1      )

 cart.    s(28) = ( -1.0000000  0.0000000  0.0000000 )
                  (  0.0000000  1.0000000  0.0000000 )
                  (  0.0000000  0.0000000  1.0000000 )


      isym = 29     inv. 180 deg rotation - cart. axis [1,1,0]   

 cryst.   s(29) = (     0         -1          0      )
                  (    -1          0          0      )
                  (     0          0          1      )

 cart.    s(29) = (  0.0000000 -1.0000000  0.0000000 )
                  ( -1.0000000  0.0000000  0.0000000 )
                  (  0.0000000  0.0000000  1.0000000 )


      isym = 30     inv. 180 deg rotation - cart. axis [1,-1,0]  

 cryst.   s(30) = (     0          1          0      )
                  (     1          0          0      )
                  (     0          0          1      )

 cart.    s(30) = (  0.0000000  1.0000000  0.0000000 )
                  (  1.0000000  0.0000000  0.0000000 )
                  (  0.0000000  0.0000000  1.0000000 )


      isym = 31     inv.  90 deg rotation - cart. axis [0,0,-1]  

 cryst.   s(31) = (     0          1          0      )
                  (    -1          0          0      )
                  (     0          0         -1      )

 cart.    s(31) = (  0.0000000 -1.0000000  0.0000000 )
                  (  1.0000000  0.0000000  0.0000000 )
                  (  0.0000000  0.0000000 -1.0000000 )


      isym = 32     inv.  90 deg rotation - cart. axis [0,0,1]   

 cryst.   s(32) = (     0         -1          0      )
                  (     1          0          0      )
                  (     0          0         -1      )

 cart.    s(32) = (  0.0000000  1.0000000  0.0000000 )
                  ( -1.0000000  0.0000000  0.0000000 )
                  (  0.0000000  0.0000000 -1.0000000 )


      isym = 33     inv. 180 deg rotation - cart. axis [1,0,1]   

 cryst.   s(33) = (     0          0         -1      )
                  (     0          1          0      )
                  (    -1          0          0      )

 cart.    s(33) = (  0.0000000  0.0000000 -1.0000000 )
                  (  0.0000000  1.0000000  0.0000000 )
                  ( -1.0000000  0.0000000  0.0000000 )


      isym = 34     inv. 180 deg rotation - cart. axis [-1,0,1]  

 cryst.   s(34) = (     0          0          1      )
                  (     0          1          0      )
                  (     1          0          0      )

 cart.    s(34) = (  0.0000000  0.0000000  1.0000000 )
                  (  0.0000000  1.0000000  0.0000000 )
                  (  1.0000000  0.0000000  0.0000000 )


      isym = 35     inv.  90 deg rotation - cart. axis [0,1,0]   

 cryst.   s(35) = (     0          0          1      )
                  (     0         -1          0      )
                  (    -1          0          0      )

 cart.    s(35) = (  0.0000000  0.0000000 -1.0000000 )
                  (  0.0000000 -1.0000000  0.0000000 )
                  (  1.0000000  0.0000000  0.0000000 )


      isym = 36     inv.  90 deg rotation - cart. axis [0,-1,0]  

 cryst.   s(36) = (     0          0         -1      )
                  (     0         -1          0      )
                  (     1          0          0      )

 cart.    s(36) = (  0.0000000  0.0000000  1.0000000 )
                  (  0.0000000 -1.0000000  0.0000000 )
                  ( -1.0000000  0.0000000  0.0000000 )


      isym = 37     inv. 180 deg rotation - cart. axis [0,1,1]   

 cryst.   s(37) = (     1          0          0      )
                  (     0          0         -1      )
                  (     0         -1          0      )

 cart.    s(37) = (  1.0000000  0.0000000  0.0000000 )
                  (  0.0000000  0.0000000 -1.0000000 )
                  (  0.0000000 -1.0000000  0.0000000 )


      isym = 38     inv. 180 deg rotation - cart. axis [0,1,-1]  

 cryst.   s(38) = (     1          0          0      )
                  (     0          0          1      )
                  (     0          1          0      )

 cart.    s(38) = (  1.0000000  0.0000000  0.0000000 )
                  (  0.0000000  0.0000000  1.0000000 )
                  (  0.0000000  1.0000000  0.0000000 )


      isym = 39     inv.  90 deg rotation - cart. axis [-1,0,0]  

 cryst.   s(39) = (    -1          0          0      )
                  (     0          0          1      )
                  (     0         -1          0      )

 cart.    s(39) = ( -1.0000000  0.0000000  0.0000000 )
                  (  0.0000000  0.0000000 -1.0000000 )
                  (  0.0000000  1.0000000  0.0000000 )


      isym = 40     inv.  90 deg rotation - cart. axis [1,0,0]   

 cryst.   s(40) = (    -1          0          0      )
                  (     0          0         -1      )
                  (     0          1          0      )

 cart.    s(40) = ( -1.0000000  0.0000000  0.0000000 )
                  (  0.0000000  0.0000000  1.0000000 )
                  (  0.0000000 -1.0000000  0.0000000 )


      isym = 41     inv. 120 deg rotation - cart. axis [-1,-1,-1]

 cryst.   s(41) = (     0          0         -1      )
                  (    -1          0          0      )
                  (     0         -1          0      )

 cart.    s(41) = (  0.0000000 -1.0000000  0.0000000 )
                  (  0.0000000  0.0000000 -1.0000000 )
                  ( -1.0000000  0.0000000  0.0000000 )


      isym = 42     inv. 120 deg rotation - cart. axis [-1,1,1]  

 cryst.   s(42) = (     0          0          1      )
                  (     1          0          0      )
                  (     0         -1          0      )

 cart.    s(42) = (  0.0000000  1.0000000  0.0000000 )
                  (  0.0000000  0.0000000 -1.0000000 )
                  (  1.0000000  0.0000000  0.0000000 )


      isym = 43     inv. 120 deg rotation - cart. axis [1,1,-1]  

 cryst.   s(43) = (     0          0          1      )
                  (    -1          0          0      )
                  (     0          1          0      )

 cart.    s(43) = (  0.0000000 -1.0000000  0.0000000 )
                  (  0.0000000  0.0000000  1.0000000 )
                  (  1.0000000  0.0000000  0.0000000 )


      isym = 44     inv. 120 deg rotation - cart. axis [1,-1,1]  

 cryst.   s(44) = (     0          0         -1      )
                  (     1          0          0      )
                  (     0          1          0      )

 cart.    s(44) = (  0.0000000  1.0000000  0.0000000 )
                  (  0.0000000  0.0000000  1.0000000 )
                  ( -1.0000000  0.0000000  0.0000000 )


      isym = 45     inv. 120 deg rotation - cart. axis [1,1,1]   

 cryst.   s(45) = (     0         -1          0      )
                  (     0          0         -1      )
                  (    -1          0          0      )

 cart.    s(45) = (  0.0000000  0.0000000 -1.0000000 )
                  ( -1.0000000  0.0000000  0.0000000 )
                  (  0.0000000 -1.0000000  0.0000000 )


      isym = 46     inv. 120 deg rotation - cart. axis [-1,1,-1] 

 cryst.   s(46) = (     0          1          0      )
                  (     0          0          1      )
                  (    -1          0          0      )

 cart.    s(46) = (  0.0000000  0.0000000 -1.0000000 )
                  (  1.0000000  0.0000000  0.0000000 )
                  (  0.0000000  1.0000000  0.0000000 )


      isym = 47     inv. 120 deg rotation - cart. axis [1,-1,-1] 

 cryst.   s(47) = (     0          1          0      )
                  (     0          0         -1      )
                  (     1          0          0      )

 cart.    s(47) = (  0.0000000  0.0000000  1.0000000 )
                  (  1.0000000  0.0000000  0.0000000 )
                  (  0.0000000 -1.0000000  0.0000000 )


      isym = 48     inv. 120 deg rotation - cart. axis [-1,-1,1] 

 cryst.   s(48) = (     0         -1          0      )
                  (     0          0          1      )
                  (     1          0          0      )

 cart.    s(48) = (  0.0000000  0.0000000  1.0000000 )
                  ( -1.0000000  0.0000000  0.0000000 )
                  (  0.0000000  1.0000000  0.0000000 )


   Cartesian axes

     site n.     atom                  positions (alat units)
         1        Ca     tau(   1) = (   0.0000000   0.0000000   0.0000000  )
         2        Ce     tau(   2) = (   0.4749352   0.4749352   0.4749352  )
         3        Se     tau(   3) = (   0.4749352   0.0000000   0.0000000  )
         4        Se     tau(   4) = (   0.0000000   0.4749352   0.0000000  )
         5        Se     tau(   5) = (   0.0000000   0.0000000   0.4749352  )

   Crystallographic axes

     site n.     atom                  positions (cryst. coord.)
         1        Ca     tau(   1) = (  0.0000000  0.0000000  0.0000000  )
         2        Ce     tau(   2) = (  0.5000000  0.5000000  0.5000000  )
         3        Se     tau(   3) = (  0.5000000  0.0000000  0.0000000  )
         4        Se     tau(   4) = (  0.0000000  0.5000000  0.0000000  )
         5        Se     tau(   5) = (  0.0000000  0.0000000  0.5000000  )

     number of k points=    84  Methfessel-Paxton smearing, width (Ry)=  0.0100
                       cart. coord. in units 2pi/alat
        k(    1) = (   0.0000000   0.0000000   0.0000000), wk =   0.0011574
        k(    2) = (   0.0000000   0.0000000   0.0877313), wk =   0.0069444
        k(    3) = (   0.0000000   0.0000000   0.1754625), wk =   0.0069444
        k(    4) = (   0.0000000   0.0000000   0.2631938), wk =   0.0069444
        k(    5) = (   0.0000000   0.0000000   0.3509250), wk =   0.0069444
        k(    6) = (   0.0000000   0.0000000   0.4386563), wk =   0.0069444
        k(    7) = (   0.0000000   0.0000000  -0.5263876), wk =   0.0034722
        k(    8) = (   0.0000000   0.0877313   0.0877313), wk =   0.0138889
        k(    9) = (   0.0000000   0.0877313   0.1754625), wk =   0.0277778
        k(   10) = (   0.0000000   0.0877313   0.2631938), wk =   0.0277778
        k(   11) = (   0.0000000   0.0877313   0.3509250), wk =   0.0277778
        k(   12) = (   0.0000000   0.0877313   0.4386563), wk =   0.0277778
        k(   13) = (   0.0000000   0.0877313  -0.5263876), wk =   0.0138889
        k(   14) = (   0.0000000   0.1754625   0.1754625), wk =   0.0138889
        k(   15) = (   0.0000000   0.1754625   0.2631938), wk =   0.0277778
        k(   16) = (   0.0000000   0.1754625   0.3509250), wk =   0.0277778
        k(   17) = (   0.0000000   0.1754625   0.4386563), wk =   0.0277778
        k(   18) = (   0.0000000   0.1754625  -0.5263876), wk =   0.0138889
        k(   19) = (   0.0000000   0.2631938   0.2631938), wk =   0.0138889
        k(   20) = (   0.0000000   0.2631938   0.3509250), wk =   0.0277778
        k(   21) = (   0.0000000   0.2631938   0.4386563), wk =   0.0277778
        k(   22) = (   0.0000000   0.2631938  -0.5263876), wk =   0.0138889
        k(   23) = (   0.0000000   0.3509250   0.3509250), wk =   0.0138889
        k(   24) = (   0.0000000   0.3509250   0.4386563), wk =   0.0277778
        k(   25) = (   0.0000000   0.3509250  -0.5263876), wk =   0.0138889
        k(   26) = (   0.0000000   0.4386563   0.4386563), wk =   0.0138889
        k(   27) = (   0.0000000   0.4386563  -0.5263876), wk =   0.0138889
        k(   28) = (   0.0000000  -0.5263876  -0.5263876), wk =   0.0034722
        k(   29) = (   0.0877313   0.0877313   0.0877313), wk =   0.0092593
        k(   30) = (   0.0877313   0.0877313   0.1754625), wk =   0.0277778
        k(   31) = (   0.0877313   0.0877313   0.2631938), wk =   0.0277778
        k(   32) = (   0.0877313   0.0877313   0.3509250), wk =   0.0277778
        k(   33) = (   0.0877313   0.0877313   0.4386563), wk =   0.0277778
        k(   34) = (   0.0877313   0.0877313  -0.5263876), wk =   0.0138889
        k(   35) = (   0.0877313   0.1754625   0.1754625), wk =   0.0277778
        k(   36) = (   0.0877313   0.1754625   0.2631938), wk =   0.0555556
        k(   37) = (   0.0877313   0.1754625   0.3509250), wk =   0.0555556
        k(   38) = (   0.0877313   0.1754625   0.4386563), wk =   0.0555556
        k(   39) = (   0.0877313   0.1754625  -0.5263876), wk =   0.0277778
        k(   40) = (   0.0877313   0.2631938   0.2631938), wk =   0.0277778
        k(   41) = (   0.0877313   0.2631938   0.3509250), wk =   0.0555556
        k(   42) = (   0.0877313   0.2631938   0.4386563), wk =   0.0555556
        k(   43) = (   0.0877313   0.2631938  -0.5263876), wk =   0.0277778
        k(   44) = (   0.0877313   0.3509250   0.3509250), wk =   0.0277778
        k(   45) = (   0.0877313   0.3509250   0.4386563), wk =   0.0555556
        k(   46) = (   0.0877313   0.3509250  -0.5263876), wk =   0.0277778
        k(   47) = (   0.0877313   0.4386563   0.4386563), wk =   0.0277778
        k(   48) = (   0.0877313   0.4386563  -0.5263876), wk =   0.0277778
        k(   49) = (   0.0877313  -0.5263876  -0.5263876), wk =   0.0069444
        k(   50) = (   0.1754625   0.1754625   0.1754625), wk =   0.0092593
        k(   51) = (   0.1754625   0.1754625   0.2631938), wk =   0.0277778
        k(   52) = (   0.1754625   0.1754625   0.3509250), wk =   0.0277778
        k(   53) = (   0.1754625   0.1754625   0.4386563), wk =   0.0277778
        k(   54) = (   0.1754625   0.1754625  -0.5263876), wk =   0.0138889
        k(   55) = (   0.1754625   0.2631938   0.2631938), wk =   0.0277778
        k(   56) = (   0.1754625   0.2631938   0.3509250), wk =   0.0555556
        k(   57) = (   0.1754625   0.2631938   0.4386563), wk =   0.0555556
        k(   58) = (   0.1754625   0.2631938  -0.5263876), wk =   0.0277778
        k(   59) = (   0.1754625   0.3509250   0.3509250), wk =   0.0277778
        k(   60) = (   0.1754625   0.3509250   0.4386563), wk =   0.0555556
        k(   61) = (   0.1754625   0.3509250  -0.5263876), wk =   0.0277778
        k(   62) = (   0.1754625   0.4386563   0.4386563), wk =   0.0277778
        k(   63) = (   0.1754625   0.4386563  -0.5263876), wk =   0.0277778
        k(   64) = (   0.1754625  -0.5263876  -0.5263876), wk =   0.0069444
        k(   65) = (   0.2631938   0.2631938   0.2631938), wk =   0.0092593
        k(   66) = (   0.2631938   0.2631938   0.3509250), wk =   0.0277778
        k(   67) = (   0.2631938   0.2631938   0.4386563), wk =   0.0277778
        k(   68) = (   0.2631938   0.2631938  -0.5263876), wk =   0.0138889
        k(   69) = (   0.2631938   0.3509250   0.3509250), wk =   0.0277778
        k(   70) = (   0.2631938   0.3509250   0.4386563), wk =   0.0555556
        k(   71) = (   0.2631938   0.3509250  -0.5263876), wk =   0.0277778
        k(   72) = (   0.2631938   0.4386563   0.4386563), wk =   0.0277778
        k(   73) = (   0.2631938   0.4386563  -0.5263876), wk =   0.0277778
        k(   74) = (   0.2631938  -0.5263876  -0.5263876), wk =   0.0069444
        k(   75) = (   0.3509250   0.3509250   0.3509250), wk =   0.0092593
        k(   76) = (   0.3509250   0.3509250   0.4386563), wk =   0.0277778
        k(   77) = (   0.3509250   0.3509250  -0.5263876), wk =   0.0138889
        k(   78) = (   0.3509250   0.4386563   0.4386563), wk =   0.0277778
        k(   79) = (   0.3509250   0.4386563  -0.5263876), wk =   0.0277778
        k(   80) = (   0.3509250  -0.5263876  -0.5263876), wk =   0.0069444
        k(   81) = (   0.4386563   0.4386563   0.4386563), wk =   0.0092593
        k(   82) = (   0.4386563   0.4386563  -0.5263876), wk =   0.0138889
        k(   83) = (   0.4386563  -0.5263876  -0.5263876), wk =   0.0069444
        k(   84) = (  -0.5263876  -0.5263876  -0.5263876), wk =   0.0011574

                       cryst. coord.
        k(    1) = (   0.0000000   0.0000000   0.0000000), wk =   0.0011574
        k(    2) = (   0.0000000   0.0000000   0.0833333), wk =   0.0069444
        k(    3) = (   0.0000000   0.0000000   0.1666667), wk =   0.0069444
        k(    4) = (   0.0000000   0.0000000   0.2500000), wk =   0.0069444
        k(    5) = (   0.0000000   0.0000000   0.3333333), wk =   0.0069444
        k(    6) = (   0.0000000   0.0000000   0.4166667), wk =   0.0069444
        k(    7) = (   0.0000000   0.0000000  -0.5000000), wk =   0.0034722
        k(    8) = (   0.0000000   0.0833333   0.0833333), wk =   0.0138889
        k(    9) = (   0.0000000   0.0833333   0.1666667), wk =   0.0277778
        k(   10) = (   0.0000000   0.0833333   0.2500000), wk =   0.0277778
        k(   11) = (   0.0000000   0.0833333   0.3333333), wk =   0.0277778
        k(   12) = (   0.0000000   0.0833333   0.4166667), wk =   0.0277778
        k(   13) = (   0.0000000   0.0833333  -0.5000000), wk =   0.0138889
        k(   14) = (   0.0000000   0.1666667   0.1666667), wk =   0.0138889
        k(   15) = (   0.0000000   0.1666667   0.2500000), wk =   0.0277778
        k(   16) = (   0.0000000   0.1666667   0.3333333), wk =   0.0277778
        k(   17) = (   0.0000000   0.1666667   0.4166667), wk =   0.0277778
        k(   18) = (   0.0000000   0.1666667  -0.5000000), wk =   0.0138889
        k(   19) = (   0.0000000   0.2500000   0.2500000), wk =   0.0138889
        k(   20) = (   0.0000000   0.2500000   0.3333333), wk =   0.0277778
        k(   21) = (   0.0000000   0.2500000   0.4166667), wk =   0.0277778
        k(   22) = (   0.0000000   0.2500000  -0.5000000), wk =   0.0138889
        k(   23) = (   0.0000000   0.3333333   0.3333333), wk =   0.0138889
        k(   24) = (   0.0000000   0.3333333   0.4166667), wk =   0.0277778
        k(   25) = (   0.0000000   0.3333333  -0.5000000), wk =   0.0138889
        k(   26) = (   0.0000000   0.4166667   0.4166667), wk =   0.0138889
        k(   27) = (   0.0000000   0.4166667  -0.5000000), wk =   0.0138889
        k(   28) = (   0.0000000  -0.5000000  -0.5000000), wk =   0.0034722
        k(   29) = (   0.0833333   0.0833333   0.0833333), wk =   0.0092593
        k(   30) = (   0.0833333   0.0833333   0.1666667), wk =   0.0277778
        k(   31) = (   0.0833333   0.0833333   0.2500000), wk =   0.0277778
        k(   32) = (   0.0833333   0.0833333   0.3333333), wk =   0.0277778
        k(   33) = (   0.0833333   0.0833333   0.4166667), wk =   0.0277778
        k(   34) = (   0.0833333   0.0833333  -0.5000000), wk =   0.0138889
        k(   35) = (   0.0833333   0.1666667   0.1666667), wk =   0.0277778
        k(   36) = (   0.0833333   0.1666667   0.2500000), wk =   0.0555556
        k(   37) = (   0.0833333   0.1666667   0.3333333), wk =   0.0555556
        k(   38) = (   0.0833333   0.1666667   0.4166667), wk =   0.0555556
        k(   39) = (   0.0833333   0.1666667  -0.5000000), wk =   0.0277778
        k(   40) = (   0.0833333   0.2500000   0.2500000), wk =   0.0277778
        k(   41) = (   0.0833333   0.2500000   0.3333333), wk =   0.0555556
        k(   42) = (   0.0833333   0.2500000   0.4166667), wk =   0.0555556
        k(   43) = (   0.0833333   0.2500000  -0.5000000), wk =   0.0277778
        k(   44) = (   0.0833333   0.3333333   0.3333333), wk =   0.0277778
        k(   45) = (   0.0833333   0.3333333   0.4166667), wk =   0.0555556
        k(   46) = (   0.0833333   0.3333333  -0.5000000), wk =   0.0277778
        k(   47) = (   0.0833333   0.4166667   0.4166667), wk =   0.0277778
        k(   48) = (   0.0833333   0.4166667  -0.5000000), wk =   0.0277778
        k(   49) = (   0.0833333  -0.5000000  -0.5000000), wk =   0.0069444
        k(   50) = (   0.1666667   0.1666667   0.1666667), wk =   0.0092593
        k(   51) = (   0.1666667   0.1666667   0.2500000), wk =   0.0277778
        k(   52) = (   0.1666667   0.1666667   0.3333333), wk =   0.0277778
        k(   53) = (   0.1666667   0.1666667   0.4166667), wk =   0.0277778
        k(   54) = (   0.1666667   0.1666667  -0.5000000), wk =   0.0138889
        k(   55) = (   0.1666667   0.2500000   0.2500000), wk =   0.0277778
        k(   56) = (   0.1666667   0.2500000   0.3333333), wk =   0.0555556
        k(   57) = (   0.1666667   0.2500000   0.4166667), wk =   0.0555556
        k(   58) = (   0.1666667   0.2500000  -0.5000000), wk =   0.0277778
        k(   59) = (   0.1666667   0.3333333   0.3333333), wk =   0.0277778
        k(   60) = (   0.1666667   0.3333333   0.4166667), wk =   0.0555556
        k(   61) = (   0.1666667   0.3333333  -0.5000000), wk =   0.0277778
        k(   62) = (   0.1666667   0.4166667   0.4166667), wk =   0.0277778
        k(   63) = (   0.1666667   0.4166667  -0.5000000), wk =   0.0277778
        k(   64) = (   0.1666667  -0.5000000  -0.5000000), wk =   0.0069444
        k(   65) = (   0.2500000   0.2500000   0.2500000), wk =   0.0092593
        k(   66) = (   0.2500000   0.2500000   0.3333333), wk =   0.0277778
        k(   67) = (   0.2500000   0.2500000   0.4166667), wk =   0.0277778
        k(   68) = (   0.2500000   0.2500000  -0.5000000), wk =   0.0138889
        k(   69) = (   0.2500000   0.3333333   0.3333333), wk =   0.0277778
        k(   70) = (   0.2500000   0.3333333   0.4166667), wk =   0.0555556
        k(   71) = (   0.2500000   0.3333333  -0.5000000), wk =   0.0277778
        k(   72) = (   0.2500000   0.4166667   0.4166667), wk =   0.0277778
        k(   73) = (   0.2500000   0.4166667  -0.5000000), wk =   0.0277778
        k(   74) = (   0.2500000  -0.5000000  -0.5000000), wk =   0.0069444
        k(   75) = (   0.3333333   0.3333333   0.3333333), wk =   0.0092593
        k(   76) = (   0.3333333   0.3333333   0.4166667), wk =   0.0277778
        k(   77) = (   0.3333333   0.3333333  -0.5000000), wk =   0.0138889
        k(   78) = (   0.3333333   0.4166667   0.4166667), wk =   0.0277778
        k(   79) = (   0.3333333   0.4166667  -0.5000000), wk =   0.0277778
        k(   80) = (   0.3333333  -0.5000000  -0.5000000), wk =   0.0069444
        k(   81) = (   0.4166667   0.4166667   0.4166667), wk =   0.0092593
        k(   82) = (   0.4166667   0.4166667  -0.5000000), wk =   0.0138889
        k(   83) = (   0.4166667  -0.5000000  -0.5000000), wk =   0.0069444
        k(   84) = (  -0.5000000  -0.5000000  -0.5000000), wk =   0.0011574

     Dense  grid:   274793 G-vectors     FFT dimensions: (  81,  81,  81)

     Smooth grid:    97377 G-vectors     FFT dimensions: (  60,  60,  60)

     Dynamical RAM for                 wfc:       0.56 MB

     Dynamical RAM for     wfc (w. buffer):      47.22 MB

     Dynamical RAM for           str. fact:       1.57 MB

     Dynamical RAM for           local pot:       0.92 MB

     Dynamical RAM for          nlocal pot:       1.39 MB

     Dynamical RAM for                qrad:       9.13 MB

     Dynamical RAM for          rho,v,vnew:       3.22 MB

     Dynamical RAM for               rhoin:       1.07 MB

     Dynamical RAM for            rho*nmix:       8.39 MB

     Dynamical RAM for           G-vectors:       2.06 MB

     Dynamical RAM for          h,s,v(r/c):       0.11 MB

     Dynamical RAM for          <psi|beta>:       0.02 MB

     Dynamical RAM for                 psi:       1.11 MB

     Dynamical RAM for                hpsi:       1.11 MB

     Dynamical RAM for                spsi:       1.11 MB

     Dynamical RAM for      wfcinit/wfcrot:       1.55 MB

     Dynamical RAM for           addusdens:      99.06 MB

     Dynamical RAM for          addusforce:     101.43 MB

     Dynamical RAM for         addusstress:     105.35 MB

     Estimated static dynamical RAM per process >      71.44 MB

     Estimated max dynamical RAM per process >     185.17 MB

     Estimated total dynamical RAM >       1.45 GB

     Initial potential from superposition of free atoms

     starting charge      38.9684, renormalised to      39.0000
     Starting wfcs are   33 randomized atomic wfcs
     Checking if some PAW data can be deallocated... 
       PAW data deallocated on    6 nodes for type:  1
       PAW data deallocated on    6 nodes for type:  2
       PAW data deallocated on    4 nodes for type:  3

     total cpu time spent up to now is    21437.6 secs

     Self-consistent Calculation

     iteration #  1     ecut=    80.00 Ry     beta= 0.30
     Davidson diagonalization with overlap

---- Real-time Memory Report at c_bands before calling an iterative solver
           267 MiB given to the printing process from OS
             0 MiB allocation reported by mallinfo(arena+hblkhd)
         52580 MiB available memory on the node where the printing process lives
------------------
     c_bands:  1 eigenvalues not converged
     c_bands:  3 eigenvalues not converged
     c_bands:  2 eigenvalues not converged
     c_bands:  2 eigenvalues not converged
     c_bands:  2 eigenvalues not converged
     c_bands:  2 eigenvalues not converged
     c_bands:  1 eigenvalues not converged
     c_bands:  3 eigenvalues not converged
     c_bands:  4 eigenvalues not converged
     c_bands:  4 eigenvalues not converged
     c_bands:  4 eigenvalues not converged
     c_bands:  4 eigenvalues not converged
     c_bands:  3 eigenvalues not converged
     c_bands:  5 eigenvalues not converged
     c_bands:  3 eigenvalues not converged
     c_bands:  3 eigenvalues not converged
     c_bands:  4 eigenvalues not converged
     c_bands:  3 eigenvalues not converged
     c_bands:  3 eigenvalues not converged
     c_bands:  3 eigenvalues not converged
     c_bands:  2 eigenvalues not converged
     c_bands:  4 eigenvalues not converged
     c_bands:  3 eigenvalues not converged
     c_bands:  3 eigenvalues not converged
     c_bands:  3 eigenvalues not converged
     c_bands:  3 eigenvalues not converged
     c_bands:  2 eigenvalues not converged
     c_bands:  1 eigenvalues not converged
     c_bands:  4 eigenvalues not converged
     c_bands:  4 eigenvalues not converged
     c_bands:  4 eigenvalues not converged
     c_bands:  4 eigenvalues not converged
     c_bands:  4 eigenvalues not converged
     c_bands:  3 eigenvalues not converged
     c_bands:  4 eigenvalues not converged
     c_bands:  4 eigenvalues not converged
     c_bands:  4 eigenvalues not converged
     c_bands:  4 eigenvalues not converged
     c_bands:  4 eigenvalues not converged
     c_bands:  4 eigenvalues not converged
     c_bands:  4 eigenvalues not converged
     c_bands:  4 eigenvalues not converged
     c_bands:  4 eigenvalues not converged
     c_bands:  4 eigenvalues not converged
     c_bands:  4 eigenvalues not converged
     c_bands:  2 eigenvalues not converged
     c_bands:  4 eigenvalues not converged
     c_bands:  3 eigenvalues not converged
     c_bands:  1 eigenvalues not converged
     c_bands:  4 eigenvalues not converged
     c_bands:  4 eigenvalues not converged
     c_bands:  4 eigenvalues not converged
     c_bands:  4 eigenvalues not converged
     c_bands:  4 eigenvalues not converged
     c_bands:  4 eigenvalues not converged
     c_bands:  4 eigenvalues not converged
     c_bands:  4 eigenvalues not converged
     c_bands:  4 eigenvalues not converged
     c_bands:  4 eigenvalues not converged
     c_bands:  4 eigenvalues not converged
     c_bands:  4 eigenvalues not converged
     c_bands:  4 eigenvalues not converged
     c_bands:  4 eigenvalues not converged
     c_bands:  2 eigenvalues not converged
     c_bands:  4 eigenvalues not converged
     c_bands:  4 eigenvalues not converged
     c_bands:  4 eigenvalues not converged
     c_bands:  3 eigenvalues not converged
     c_bands:  4 eigenvalues not converged
     c_bands:  4 eigenvalues not converged
     c_bands:  4 eigenvalues not converged
     c_bands:  4 eigenvalues not converged
     c_bands:  1 eigenvalues not converged
     c_bands:  1 eigenvalues not converged
     c_bands:  2 eigenvalues not converged
     c_bands:  3 eigenvalues not converged
     c_bands:  4 eigenvalues not converged
     c_bands:  2 eigenvalues not converged
     c_bands:  1 eigenvalues not converged
     c_bands:  2 eigenvalues not converged
     c_bands:  3 eigenvalues not converged
     ethr =  1.00E-06,  avg # of iterations = 20.0

     total cpu time spent up to now is    22192.4 secs

     total energy              =   -1173.54629299 Ry
     estimated scf accuracy    <       0.45396623 Ry

     iteration #  2     ecut=    80.00 Ry     beta= 0.30
     Davidson diagonalization with overlap

---- Real-time Memory Report at c_bands before calling an iterative solver
           267 MiB given to the printing process from OS
             0 MiB allocation reported by mallinfo(arena+hblkhd)
         51408 MiB available memory on the node where the printing process lives
------------------
     ethr =  1.16E-03,  avg # of iterations =  2.0

     total cpu time spent up to now is    22298.0 secs

     total energy              =   -1173.55522988 Ry
     estimated scf accuracy    <       0.05904135 Ry

     iteration #  3     ecut=    80.00 Ry     beta= 0.30
     Davidson diagonalization with overlap

---- Real-time Memory Report at c_bands before calling an iterative solver
           267 MiB given to the printing process from OS
             0 MiB allocation reported by mallinfo(arena+hblkhd)
         51387 MiB available memory on the node where the printing process lives
------------------
     ethr =  1.51E-04,  avg # of iterations =  7.8

     total cpu time spent up to now is    22614.8 secs

     total energy              =   -1173.57988757 Ry
     estimated scf accuracy    <       0.03814829 Ry

     iteration #  4     ecut=    80.00 Ry     beta= 0.30
     Davidson diagonalization with overlap

---- Real-time Memory Report at c_bands before calling an iterative solver
           267 MiB given to the printing process from OS
             0 MiB allocation reported by mallinfo(arena+hblkhd)
         51210 MiB available memory on the node where the printing process lives
------------------
     ethr =  9.78E-05,  avg # of iterations =  2.3

     total cpu time spent up to now is    22735.2 secs

     total energy              =   -1173.59074455 Ry
     estimated scf accuracy    <       0.00336313 Ry

     iteration #  5     ecut=    80.00 Ry     beta= 0.30
     Davidson diagonalization with overlap

---- Real-time Memory Report at c_bands before calling an iterative solver
           267 MiB given to the printing process from OS
             0 MiB allocation reported by mallinfo(arena+hblkhd)
         51339 MiB available memory on the node where the printing process lives
------------------
     c_bands:  1 eigenvalues not converged
     ethr =  8.62E-06,  avg # of iterations =  7.1

     total cpu time spent up to now is    23028.8 secs

     total energy              =   -1173.59078407 Ry
     estimated scf accuracy    <       0.00236165 Ry

     iteration #  6     ecut=    80.00 Ry     beta= 0.30
     Davidson diagonalization with overlap

---- Real-time Memory Report at c_bands before calling an iterative solver
           267 MiB given to the printing process from OS
             0 MiB allocation reported by mallinfo(arena+hblkhd)
         51440 MiB available memory on the node where the printing process lives
------------------
     ethr =  6.06E-06,  avg # of iterations =  3.9

     total cpu time spent up to now is    23214.4 secs

     total energy              =   -1173.59133057 Ry
     estimated scf accuracy    <       0.00024883 Ry

     iteration #  7     ecut=    80.00 Ry     beta= 0.30
     Davidson diagonalization with overlap

---- Real-time Memory Report at c_bands before calling an iterative solver
           267 MiB given to the printing process from OS
             0 MiB allocation reported by mallinfo(arena+hblkhd)
         51376 MiB available memory on the node where the printing process lives
------------------
     c_bands:  1 eigenvalues not converged
     ethr =  6.38E-07,  avg # of iterations =  4.5

     total cpu time spent up to now is    23417.4 secs

     total energy              =   -1173.59143215 Ry
     estimated scf accuracy    <       0.00006403 Ry

     iteration #  8     ecut=    80.00 Ry     beta= 0.30
     Davidson diagonalization with overlap

---- Real-time Memory Report at c_bands before calling an iterative solver
           267 MiB given to the printing process from OS
             0 MiB allocation reported by mallinfo(arena+hblkhd)
         51486 MiB available memory on the node where the printing process lives
------------------
     ethr =  1.64E-07,  avg # of iterations =  3.4

     total cpu time spent up to now is    23575.2 secs

     total energy              =   -1173.59144083 Ry
     estimated scf accuracy    <       0.00001127 Ry

     iteration #  9     ecut=    80.00 Ry     beta= 0.30
     Davidson diagonalization with overlap

---- Real-time Memory Report at c_bands before calling an iterative solver
           267 MiB given to the printing process from OS
             0 MiB allocation reported by mallinfo(arena+hblkhd)
         51251 MiB available memory on the node where the printing process lives
------------------
     ethr =  2.89E-08,  avg # of iterations =  5.4

     total cpu time spent up to now is    23802.7 secs

     total energy              =   -1173.59144344 Ry
     estimated scf accuracy    <       0.00000152 Ry

     iteration # 10     ecut=    80.00 Ry     beta= 0.30
     Davidson diagonalization with overlap

---- Real-time Memory Report at c_bands before calling an iterative solver
           267 MiB given to the printing process from OS
             0 MiB allocation reported by mallinfo(arena+hblkhd)
         51381 MiB available memory on the node where the printing process lives
------------------
     ethr =  3.91E-09,  avg # of iterations =  5.1

     total cpu time spent up to now is    24020.7 secs

     total energy              =   -1173.59144421 Ry
     estimated scf accuracy    <       0.00000015 Ry

     iteration # 11     ecut=    80.00 Ry     beta= 0.30
     Davidson diagonalization with overlap

---- Real-time Memory Report at c_bands before calling an iterative solver
           267 MiB given to the printing process from OS
             0 MiB allocation reported by mallinfo(arena+hblkhd)
         51502 MiB available memory on the node where the printing process lives
------------------
     ethr =  3.93E-10,  avg # of iterations =  3.9

     total cpu time spent up to now is    24201.9 secs

     total energy              =   -1173.59144426 Ry
     estimated scf accuracy    <       0.00000006 Ry

     iteration # 12     ecut=    80.00 Ry     beta= 0.30
     Davidson diagonalization with overlap

---- Real-time Memory Report at c_bands before calling an iterative solver
           267 MiB given to the printing process from OS
             0 MiB allocation reported by mallinfo(arena+hblkhd)
         51482 MiB available memory on the node where the printing process lives
------------------
     ethr =  1.50E-10,  avg # of iterations =  2.2

     total cpu time spent up to now is    24315.3 secs

     total energy              =   -1173.59144424 Ry
     estimated scf accuracy    <       0.00000005 Ry

     iteration # 13     ecut=    80.00 Ry     beta= 0.30
     Davidson diagonalization with overlap

---- Real-time Memory Report at c_bands before calling an iterative solver
           267 MiB given to the printing process from OS
             0 MiB allocation reported by mallinfo(arena+hblkhd)
         51498 MiB available memory on the node where the printing process lives
------------------
     c_bands:  1 eigenvalues not converged
     ethr =  1.25E-10,  avg # of iterations =  3.2

     total cpu time spent up to now is    24471.2 secs

     total energy              =   -1173.59144425 Ry
     estimated scf accuracy    <          1.1E-09 Ry

     iteration # 14     ecut=    80.00 Ry     beta= 0.30
     Davidson diagonalization with overlap

---- Real-time Memory Report at c_bands before calling an iterative solver
           267 MiB given to the printing process from OS
             0 MiB allocation reported by mallinfo(arena+hblkhd)
         51315 MiB available memory on the node where the printing process lives
------------------
     c_bands:  1 eigenvalues not converged
     ethr =  2.84E-12,  avg # of iterations =  8.5

     total cpu time spent up to now is    24811.8 secs

     total energy              =   -1173.59144425 Ry
     estimated scf accuracy    <          7.7E-10 Ry

     iteration # 15     ecut=    80.00 Ry     beta= 0.30
     Davidson diagonalization with overlap

---- Real-time Memory Report at c_bands before calling an iterative solver
           267 MiB given to the printing process from OS
             0 MiB allocation reported by mallinfo(arena+hblkhd)
         51387 MiB available memory on the node where the printing process lives
------------------
     ethr =  1.97E-12,  avg # of iterations =  1.4

     total cpu time spent up to now is    24899.8 secs

     total energy              =   -1173.59144425 Ry
     estimated scf accuracy    <          7.0E-10 Ry

     iteration # 16     ecut=    80.00 Ry     beta= 0.30
     Davidson diagonalization with overlap

---- Real-time Memory Report at c_bands before calling an iterative solver
           267 MiB given to the printing process from OS
             0 MiB allocation reported by mallinfo(arena+hblkhd)
         51601 MiB available memory on the node where the printing process lives
------------------
     ethr =  1.79E-12,  avg # of iterations =  2.1

     total cpu time spent up to now is    25013.3 secs

     total energy              =   -1173.59144425 Ry
     estimated scf accuracy    <          3.7E-10 Ry

     iteration # 17     ecut=    80.00 Ry     beta= 0.30
     Davidson diagonalization with overlap

---- Real-time Memory Report at c_bands before calling an iterative solver
           267 MiB given to the printing process from OS
             0 MiB allocation reported by mallinfo(arena+hblkhd)
         51525 MiB available memory on the node where the printing process lives
------------------
     ethr =  9.48E-13,  avg # of iterations =  3.0

     total cpu time spent up to now is    25159.9 secs

     total energy              =   -1173.59144425 Ry
     estimated scf accuracy    <          3.6E-11 Ry

     iteration # 18     ecut=    80.00 Ry     beta= 0.30
     Davidson diagonalization with overlap

---- Real-time Memory Report at c_bands before calling an iterative solver
           267 MiB given to the printing process from OS
             0 MiB allocation reported by mallinfo(arena+hblkhd)
         51658 MiB available memory on the node where the printing process lives
------------------
     ethr =  1.00E-13,  avg # of iterations =  5.9

     total cpu time spent up to now is    25407.1 secs

     total energy              =   -1173.59144425 Ry
     estimated scf accuracy    <          1.4E-11 Ry

     iteration # 19     ecut=    80.00 Ry     beta= 0.30
     Davidson diagonalization with overlap

---- Real-time Memory Report at c_bands before calling an iterative solver
           267 MiB given to the printing process from OS
             0 MiB allocation reported by mallinfo(arena+hblkhd)
         51369 MiB available memory on the node where the printing process lives
------------------
     ethr =  1.00E-13,  avg # of iterations =  1.0

     total cpu time spent up to now is    25483.2 secs

     total energy              =   -1173.59144425 Ry
     estimated scf accuracy    <          6.4E-12 Ry

     iteration # 20     ecut=    80.00 Ry     beta= 0.30
     Davidson diagonalization with overlap

---- Real-time Memory Report at c_bands before calling an iterative solver
           267 MiB given to the printing process from OS
             0 MiB allocation reported by mallinfo(arena+hblkhd)
         51408 MiB available memory on the node where the printing process lives
------------------
     ethr =  1.00E-13,  avg # of iterations =  1.0

     total cpu time spent up to now is    25556.6 secs

     total energy              =   -1173.59144425 Ry
     estimated scf accuracy    <          1.4E-12 Ry

     iteration # 21     ecut=    80.00 Ry     beta= 0.30
     Davidson diagonalization with overlap

---- Real-time Memory Report at c_bands before calling an iterative solver
           267 MiB given to the printing process from OS
             0 MiB allocation reported by mallinfo(arena+hblkhd)
         51326 MiB available memory on the node where the printing process lives
------------------
     ethr =  1.00E-13,  avg # of iterations =  1.2

     total cpu time spent up to now is    25639.3 secs

     End of self-consistent calculation

          k = 0.0000 0.0000 0.0000 ( 12149 PWs)   bands (ev):

   -32.1326 -30.3006 -13.3500 -13.3500 -13.3500 -12.8355 -12.8355 -12.8355
    -5.9794  -5.0493  -5.0493   3.7858   3.7858   3.7858   5.4684   5.4684
     5.4684   6.5955   6.5955   6.5955   7.1150   7.1150   7.4737   7.4737

     occupation numbers 
     1.0000   1.0000   1.0000   1.0000   1.0000   1.0000   1.0000   1.0000
     1.0000   1.0000   1.0000   1.0000   1.0000   1.0000   1.0000   1.0000
     1.0000  -0.0002  -0.0002  -0.0002  -0.0000  -0.0000  -0.0000  -0.0000

          k = 0.0000 0.0000 0.0877 ( 12113 PWs)   bands (ev):

   -32.1326 -30.3006 -13.3532 -13.3499 -13.3499 -12.8368 -12.8354 -12.8354
    -5.9592  -5.0491  -5.0477   3.7609   3.7921   3.7921   5.3520   5.3942
     5.3942   6.3802   6.5589   6.5589   7.1603   7.2735   7.4863   7.5986

     occupation numbers 
     1.0000   1.0000   1.0000   1.0000   1.0000   1.0000   1.0000   1.0000
     1.0000   1.0000   1.0000   1.0000   1.0000   1.0000   1.0000   1.0000
     1.0000  -0.0340  -0.0006  -0.0006  -0.0000  -0.0000  -0.0000  -0.0000

          k = 0.0000 0.0000 0.1755 ( 12121 PWs)   bands (ev):

   -32.1326 -30.3005 -13.3619 -13.3495 -13.3495 -12.8403 -12.8353 -12.8353
    -5.9025  -5.0499  -5.0435   3.7055   3.8106   3.8106   5.1026   5.2180
     5.2180   5.9129   6.4696   6.4696   7.2866   7.5215   7.6420   7.9131

     occupation numbers 
     1.0000   1.0000   1.0000   1.0000   1.0000   1.0000   1.0000   1.0000
     1.0000   1.0000   1.0000   1.0000   1.0000   1.0000   1.0000   1.0000
     1.0000   1.0056  -0.0084  -0.0084  -0.0000  -0.0000  -0.0000  -0.0000

          k = 0.0000 0.0000 0.2632 ( 12169 PWs)   bands (ev):

   -32.1325 -30.3005 -13.3738 -13.3490 -13.3490 -12.8452 -12.8352 -12.8352
    -5.8208  -5.0548  -5.0376   3.6638   3.8395   3.8395   4.8450   5.0152
     5.0152   5.3749   6.3618   6.3618   7.4762   7.5724   8.0721   8.3180

     occupation numbers 
     1.0000   1.0000   1.0000   1.0000   1.0000   1.0000   1.0000   1.0000
     1.0000   1.0000   1.0000   1.0000   1.0000   1.0000   1.0000   1.0000
     1.0000   1.0000  -0.0353  -0.0353  -0.0000  -0.0000  -0.0000  -0.0000

          k = 0.0000 0.0000 0.3509 ( 12148 PWs)   bands (ev):

   -32.1324 -30.3004 -13.3856 -13.3486 -13.3486 -12.8500 -12.8351 -12.8351
    -5.7326  -5.0656  -5.0318   3.6807   3.8744   3.8744   4.6376   4.8363
     4.8363   4.8574   6.2641   6.2641   7.6269   7.6938   8.4650   8.7273

     occupation numbers 
     1.0000   1.0000   1.0000   1.0000   1.0000   1.0000   1.0000   1.0000
     1.0000   1.0000   1.0000   1.0000   1.0000   1.0000   1.0000   1.0000
     1.0000   1.0000   0.1442   0.1442  -0.0000  -0.0000  -0.0000  -0.0000

          k = 0.0000 0.0000 0.4387 ( 12136 PWs)   bands (ev):

   -32.1324 -30.3004 -13.3941 -13.3482 -13.3482 -12.8535 -12.8350 -12.8350
    -5.6619  -5.0792  -5.0274   3.7841   3.9057   3.9057   4.4204   4.5059
     4.7125   4.7125   6.1973   6.1973   7.6695   7.8785   8.7424   9.0480

     occupation numbers 
     1.0000   1.0000   1.0000   1.0000   1.0000   1.0000   1.0000   1.0000
     1.0000   1.0000   1.0000   1.0000   1.0000   1.0000   1.0000   1.0000
     1.0000   1.0000   0.5140   0.5140  -0.0000  -0.0000  -0.0000  -0.0000

          k = 0.0000 0.0000-0.5264 ( 12188 PWs)   bands (ev):

   -32.1324 -30.3003 -13.3973 -13.3481 -13.3481 -12.8548 -12.8350 -12.8350
    -5.6343  -5.0859  -5.0259   3.9120   3.9189   3.9189   4.1759   4.4608
     4.6676   4.6676   6.1737   6.1737   7.6857   7.9534   8.8431   9.1736

     occupation numbers 
     1.0000   1.0000   1.0000   1.0000   1.0000   1.0000   1.0000   1.0000
     1.0000   1.0000   1.0000   1.0000   1.0000   1.0000   1.0000   1.0000
     1.0000   1.0000   0.6577   0.6577  -0.0000  -0.0000  -0.0000  -0.0000

          k = 0.0000 0.0877 0.0877 ( 12120 PWs)   bands (ev):

   -32.1326 -30.3006 -13.3533 -13.3529 -13.3498 -12.8371 -12.8363 -12.8354
    -5.9391  -5.0481  -5.0470   3.6908   3.7989   3.8472   5.1579   5.3262
     5.4423   6.2344   6.4995   6.5193   7.2612   7.2761   7.5601   7.7523

     occupation numbers 
     1.0000   1.0000   1.0000   1.0000   1.0000   1.0000   1.0000   1.0000
     1.0000   1.0000   1.0000   1.0000   1.0000   1.0000   1.0000   1.0000
     1.0000   0.2906  -0.0039  -0.0022  -0.0000  -0.0000  -0.0000  -0.0000

          k = 0.0000 0.0877 0.1755 ( 12124 PWs)   bands (ev):

   -32.1325 -30.3005 -13.3619 -13.3528 -13.3494 -12.8403 -12.8364 -12.8353
    -5.8827  -5.0483  -5.0432   3.6070   3.8186   3.9012   4.8852   5.1619
     5.3509   5.8483   6.3964   6.4233   7.3481   7.5568   7.6149   7.9381

     occupation numbers 
     1.0000   1.0000   1.0000   1.0000   1.0000   1.0000   1.0000   1.0000
     1.0000   1.0000   1.0000   1.0000   1.0000   1.0000   1.0000   1.0000
     1.0000   1.0008  -0.0299  -0.0210  -0.0000  -0.0000  -0.0000  -0.0000

          k = 0.0000 0.0877 0.2632 ( 12142 PWs)   bands (ev):

   -32.1325 -30.3005 -13.3738 -13.3524 -13.3489 -12.8450 -12.8362 -12.8352
    -5.8016  -5.0526  -5.0377   3.5522   3.8495   3.9468   4.6219   4.9695
     5.1447   5.4165   6.2803   6.3081   7.5148   7.6647   7.9444   8.3302

     occupation numbers 
     1.0000   1.0000   1.0000   1.0000   1.0000   1.0000   1.0000   1.0000
     1.0000   1.0000   1.0000   1.0000   1.0000   1.0000   1.0000   1.0000
     1.0000   1.0000   0.0828   0.0106  -0.0000  -0.0000  -0.0000  -0.0000

          k = 0.0000 0.0877 0.3509 ( 12161 PWs)   bands (ev):

   -32.1324 -30.3004 -13.3856 -13.3520 -13.3485 -12.8496 -12.8360 -12.8350
    -5.7140  -5.0627  -5.0321   3.5589   3.8866   3.9819   4.4021   4.7962
     4.7974   5.1522   6.1767   6.2040   7.7156   7.7241   8.3411   8.7448

     occupation numbers 
     1.0000   1.0000   1.0000   1.0000   1.0000   1.0000   1.0000   1.0000
     1.0000   1.0000   1.0000   1.0000   1.0000   1.0000   1.0000   1.0000
     1.0000   1.0000   0.6399   0.4721  -0.0000  -0.0000  -0.0000  -0.0000

          k = 0.0000 0.0877 0.4387 ( 12150 PWs)   bands (ev):

   -32.1324 -30.3003 -13.3942 -13.3517 -13.3481 -12.8530 -12.8359 -12.8349
    -5.6439  -5.0756  -5.0279   3.6474   3.9201   3.9696   4.2539   4.4689
     4.6771   5.0270   6.1058   6.1330   7.7549   7.9078   8.6651   8.9602

     occupation numbers 
     1.0000   1.0000   1.0000   1.0000   1.0000   1.0000   1.0000   1.0000
     1.0000   1.0000   1.0000   1.0000   1.0000   1.0000   1.0000   1.0000
     1.0000   1.0000   0.9559   0.8640  -0.0000  -0.0000  -0.0000  -0.0000

          k = 0.0000 0.0877-0.5264 ( 12162 PWs)   bands (ev):

   -32.1323 -30.3003 -13.3974 -13.3516 -13.3480 -12.8542 -12.8358 -12.8349
    -5.6165  -5.0820  -5.0264   3.7738   3.8639   3.9343   4.2294   4.3309
     4.6331   4.9862   6.0807   6.1079   7.7698   7.9832   8.8051   9.0210

     occupation numbers 
     1.0000   1.0000   1.0000   1.0000   1.0000   1.0000   1.0000   1.0000
     1.0000   1.0000   1.0000   1.0000   1.0000   1.0000   1.0000   1.0000
     1.0000   1.0000   1.0065   0.9503  -0.0000  -0.0000  -0.0000  -0.0000

          k = 0.0000 0.1755 0.1755 ( 12116 PWs)   bands (ev):

   -32.1325 -30.3005 -13.3623 -13.3612 -13.3491 -12.8410 -12.8385 -12.8352
    -5.8273  -5.0445  -5.0430   3.4839   3.8420   4.0091   4.5968   5.0224
     5.4171   5.6034   6.2690   6.3098   7.4582   7.6193   7.7978   8.0637

     occupation numbers 
     1.0000   1.0000   1.0000   1.0000   1.0000   1.0000   1.0000   1.0000
     1.0000   1.0000   1.0000   1.0000   1.0000   1.0000   1.0000   1.0000
     1.0000   1.0000   0.1243   0.0074  -0.0000  -0.0000  -0.0000  -0.0000

          k = 0.0000 0.1755 0.2632 ( 12146 PWs)   bands (ev):

   -32.1324 -30.3004 -13.3738 -13.3615 -13.3487 -12.8445 -12.8388 -12.8350
    -5.7478  -5.0470  -5.0382   3.3973   3.8783   4.0913   4.3292   4.8536
     5.1859   5.4536   6.1310   6.1734   7.5839   7.8961   7.8981   8.3744

     occupation numbers 
     1.0000   1.0000   1.0000   1.0000   1.0000   1.0000   1.0000   1.0000
     1.0000   1.0000   1.0000   1.0000   1.0000   1.0000   1.0000   1.0000
     1.0000   1.0000   0.8723   0.6595  -0.0000  -0.0000  -0.0000  -0.0000

          k = 0.0000 0.1755 0.3509 ( 12147 PWs)   bands (ev):

   -32.1324 -30.3003 -13.3858 -13.3613 -13.3482 -12.8486 -12.8384 -12.8348
    -5.6624  -5.0551  -5.0329   3.3717   3.9221   4.0531   4.1957   4.6983
     4.8060   5.4311   5.9918   6.0501   7.7804   7.9536   8.2132   8.7317

     occupation numbers 
     1.0000   1.0000   1.0000   1.0000   1.0000   1.0000   1.0000   1.0000
     1.0000   1.0000   1.0000   1.0000   1.0000   1.0000   1.0000   1.0000
     1.0000   1.0000   1.0264   1.0325  -0.0000  -0.0000  -0.0000  -0.0000

          k = 0.0000 0.1755 0.4387 ( 12146 PWs)   bands (ev):

   -32.1323 -30.3003 -13.3945 -13.3611 -13.3479 -12.8516 -12.8381 -12.8346
    -5.5943  -5.0660  -5.0292   3.4133   3.8619   3.9621   4.2471   4.5136
     4.5867   5.4192   5.8845   5.9658   7.9765   7.9893   8.5014   8.8155

     occupation numbers 
     1.0000   1.0000   1.0000   1.0000   1.0000   1.0000   1.0000   1.0000
     1.0000   1.0000   1.0000   1.0000   1.0000   1.0000   1.0000   1.0000
     1.0000   1.0000   1.0025   1.0178  -0.0000  -0.0000  -0.0000  -0.0000

          k = 0.0000 0.1755-0.5264 ( 12156 PWs)   bands (ev):

   -32.1323 -30.3003 -13.3977 -13.3611 -13.3478 -12.8528 -12.8380 -12.8346
    -5.5678  -5.0714  -5.0278   3.4640   3.7563   3.9794   4.3320   4.3464
     4.5449   5.4173   5.8430   5.9359   8.0021   8.0624   8.7125   8.7313

     occupation numbers 
     1.0000   1.0000   1.0000   1.0000   1.0000   1.0000   1.0000   1.0000
     1.0000   1.0000   1.0000   1.0000   1.0000   1.0000   1.0000   1.0000
     1.0000   1.0000   1.0007   1.0097  -0.0000  -0.0000  -0.0000  -0.0000

          k = 0.0000 0.2632 0.2632 ( 12132 PWs)   bands (ev):

   -32.1324 -30.3003 -13.3745 -13.3731 -13.3483 -12.8447 -12.8415 -12.8347
    -5.6712  -5.0414  -5.0393   3.2702   3.9230   4.0657   4.2130   4.7103
     5.0532   5.4380   6.0079   6.0332   7.6485   8.0605   8.1496   8.5001

     occupation numbers 
     1.0000   1.0000   1.0000   1.0000   1.0000   1.0000   1.0000   1.0000
     1.0000   1.0000   1.0000   1.0000   1.0000   1.0000   1.0000   1.0000
     1.0000   1.0000   1.0315   1.0355  -0.0000  -0.0000  -0.0000  -0.0000

          k = 0.0000 0.2632 0.3509 ( 12132 PWs)   bands (ev):

   -32.1323 -30.3003 -13.3861 -13.3738 -13.3479 -12.8473 -12.8417 -12.8344
    -5.5896  -5.0460  -5.0341   3.1909   3.8526   3.9770   4.3007   4.5756
     4.7989   5.4656   5.8557   5.9461   7.7926   8.2749   8.2838   8.6770

     occupation numbers 
     1.0000   1.0000   1.0000   1.0000   1.0000   1.0000   1.0000   1.0000
     1.0000   1.0000   1.0000   1.0000   1.0000   1.0000   1.0000   1.0000
     1.0000   1.0000   1.0010   1.0121  -0.0000  -0.0000  -0.0000  -0.0000

          k = 0.0000 0.2632 0.4387 ( 12151 PWs)   bands (ev):

   -32.1323 -30.3002 -13.3949 -13.3739 -13.3477 -12.8499 -12.8413 -12.8343
    -5.5254  -5.0532  -5.0303   3.1617   3.6998   4.0273   4.3672   4.4756
     4.5783   5.5164   5.7498   5.8539   8.0024   8.3211   8.4368   8.6657

     occupation numbers 
     1.0000   1.0000   1.0000   1.0000   1.0000   1.0000   1.0000   1.0000
     1.0000   1.0000   1.0000   1.0000   1.0000   1.0000   1.0000   1.0000
     1.0000   1.0000   1.0000   1.0010  -0.0000  -0.0000  -0.0000  -0.0000

          k = 0.0000 0.2632-0.5264 ( 12122 PWs)   bands (ev):

   -32.1322 -30.3002 -13.3982 -13.3739 -13.3476 -12.8508 -12.8411 -12.8342
    -5.5006  -5.0568  -5.0290   3.1594   3.6399   4.0500   4.4365   4.4414
     4.4452   5.5478   5.7119   5.8062   8.1378   8.3344   8.4555   8.6403

     occupation numbers 
     1.0000   1.0000   1.0000   1.0000   1.0000   1.0000   1.0000   1.0000
     1.0000   1.0000   1.0000   1.0000   1.0000   1.0000   1.0000   1.0000
     1.0000   1.0000   1.0000   1.0002  -0.0000  -0.0000  -0.0000  -0.0000

          k = 0.0000 0.3509 0.3509 ( 12162 PWs)   bands (ev):

   -32.1322 -30.3002 -13.3868 -13.3858 -13.3476 -12.8467 -12.8443 -12.8341
    -5.5136  -5.0405  -5.0336   3.0449   3.6828   4.0432   4.4063   4.4609
     4.7404   5.3472   5.6712   6.0322   7.8326   8.4690   8.5682   8.5771

     occupation numbers 
     1.0000   1.0000   1.0000   1.0000   1.0000   1.0000   1.0000   1.0000
     1.0000   1.0000   1.0000   1.0000   1.0000   1.0000   1.0000   1.0000
     1.0000   1.0000   1.0000   1.0355  -0.0000  -0.0000  -0.0000  -0.0000

          k = 0.0000 0.3509 0.4387 ( 12173 PWs)   bands (ev):

   -32.1322 -30.3001 -13.3954 -13.3865 -13.3474 -12.8481 -12.8443 -12.8339
    -5.4552  -5.0412  -5.0304   2.9530   3.5720   4.1060   4.3747   4.4860
     4.6434   5.2860   5.5384   6.0855   7.9621   8.4033   8.6351   8.6826

     occupation numbers 
     1.0000   1.0000   1.0000   1.0000   1.0000   1.0000   1.0000   1.0000
     1.0000   1.0000   1.0000   1.0000   1.0000   1.0000   1.0000   1.0000
     1.0000   1.0000   1.0000   0.9991  -0.0000  -0.0000  -0.0000  -0.0000

          k = 0.0000 0.3509-0.5264 ( 12148 PWs)   bands (ev):

   -32.1322 -30.3001 -13.3986 -13.3866 -13.3473 -12.8489 -12.8441 -12.8338
    -5.4331  -5.0422  -5.0291   2.9222   3.5325   4.1360   4.3389   4.5479
     4.5657   5.2723   5.4897   6.1003   8.1112   8.2416   8.6937   8.7022

     occupation numbers 
     1.0000   1.0000   1.0000   1.0000   1.0000   1.0000   1.0000   1.0000
     1.0000   1.0000   1.0000   1.0000   1.0000   1.0000   1.0000   1.0000
     1.0000   1.0000   1.0000   0.9697  -0.0000  -0.0000  -0.0000  -0.0000

          k = 0.0000 0.4387 0.4387 ( 12156 PWs)   bands (ev):

   -32.1321 -30.3001 -13.3958 -13.3955 -13.3472 -12.8471 -12.8464 -12.8336
    -5.4030  -5.0337  -5.0291   2.8192   3.4854   4.1791   4.3033   4.5839
     4.6793   5.1192   5.3798   6.2297   7.9681   8.2339   8.7540   8.9630

     occupation numbers 
     1.0000   1.0000   1.0000   1.0000   1.0000   1.0000   1.0000   1.0000
     1.0000   1.0000   1.0000   1.0000   1.0000   1.0000   1.0000   1.0000
     1.0000   1.0000   1.0000   0.3175  -0.0000  -0.0000  -0.0000  -0.0000

          k = 0.0000 0.4387-0.5264 ( 12170 PWs)   bands (ev):

   -32.1321 -30.3001 -13.3990 -13.3958 -13.3471 -12.8476 -12.8463 -12.8335
    -5.3838  -5.0313  -5.0281   2.7735   3.4540   4.2151   4.2728   4.6467
     4.6643   5.0623   5.3193   6.2758   8.0288   8.1078   8.8072   9.0147

     occupation numbers 
     1.0000   1.0000   1.0000   1.0000   1.0000   1.0000   1.0000   1.0000
     1.0000   1.0000   1.0000   1.0000   1.0000   1.0000   1.0000   1.0000
     1.0000   1.0000   1.0000   0.0986  -0.0000  -0.0000  -0.0000  -0.0000

          k = 0.0000-0.5264-0.5264 ( 12168 PWs)   bands (ev):

   -32.1321 -30.3000 -13.3991 -13.3991 -13.3470 -12.8471 -12.8471 -12.8334
    -5.3658  -5.0274  -5.0274   2.7230   3.4249   4.2496   4.2496   4.7027
     4.7027   4.9684   5.2530   6.3328   7.9908   8.0624   8.8578   9.1449

     occupation numbers 
     1.0000   1.0000   1.0000   1.0000   1.0000   1.0000   1.0000   1.0000
     1.0000   1.0000   1.0000   1.0000   1.0000   1.0000   1.0000   1.0000
     1.0000   1.0000   1.0000  -0.0229  -0.0000  -0.0000  -0.0000  -0.0000

          k = 0.0877 0.0877 0.0877 ( 12137 PWs)   bands (ev):

   -32.1326 -30.3006 -13.3532 -13.3532 -13.3527 -12.8374 -12.8363 -12.8363
    -5.9191  -5.0467  -5.0467   3.6249   3.8533   3.8533   5.1118   5.1118
     5.5323   6.0879   6.4736   6.4736   7.2890   7.2890   7.6060   7.8326

     occupation numbers 
     1.0000   1.0000   1.0000   1.0000   1.0000   1.0000   1.0000   1.0000
     1.0000   1.0000   1.0000   1.0000   1.0000   1.0000   1.0000   1.0000
     1.0000   0.9952  -0.0076  -0.0076  -0.0000  -0.0000  -0.0000  -0.0000

          k = 0.0877 0.0877 0.1755 ( 12135 PWs)   bands (ev):

   -32.1325 -30.3005 -13.3618 -13.3528 -13.3526 -12.8403 -12.8365 -12.8362
    -5.8630  -5.0469  -5.0428   3.5323   3.8714   3.9236   4.8217   4.9844
     5.4926   5.7450   6.3474   6.3974   7.3671   7.4964   7.6791   8.0348

     occupation numbers 
     1.0000   1.0000   1.0000   1.0000   1.0000   1.0000   1.0000   1.0000
     1.0000   1.0000   1.0000   1.0000   1.0000   1.0000   1.0000   1.0000
     1.0000   1.0000  -0.0320  -0.0296  -0.0000  -0.0000  -0.0000  -0.0000

          k = 0.0877 0.0877 0.2632 ( 12143 PWs)   bands (ev):

   -32.1325 -30.3004 -13.3738 -13.3523 -13.3523 -12.8447 -12.8362 -12.8360
    -5.7823  -5.0506  -5.0376   3.4722   3.9004   3.9767   4.5566   4.7924
     5.3518   5.3526   6.1944   6.2977   7.5189   7.7539   7.8613   8.3072

     occupation numbers 
     1.0000   1.0000   1.0000   1.0000   1.0000   1.0000   1.0000   1.0000
     1.0000   1.0000   1.0000   1.0000   1.0000   1.0000   1.0000   1.0000
     1.0000   1.0000   0.5319   0.0330  -0.0000  -0.0000  -0.0000  -0.0000

          k = 0.0877 0.0877 0.3509 ( 12161 PWs)   bands (ev):

   -32.1324 -30.3004 -13.3857 -13.3520 -13.3517 -12.8492 -12.8359 -12.8359
    -5.6953  -5.0600  -5.0323   3.4766   3.9384   3.9977   4.3447   4.5384
     5.0527   5.2008   6.0565   6.2059   7.6908   7.8467   8.2696   8.6023

     occupation numbers 
     1.0000   1.0000   1.0000   1.0000   1.0000   1.0000   1.0000   1.0000
     1.0000   1.0000   1.0000   1.0000   1.0000   1.0000   1.0000   1.0000
     1.0000   1.0000   1.0297   0.4603  -0.0000  -0.0000  -0.0000  -0.0000

          k = 0.0877 0.0877 0.4387 ( 12147 PWs)   bands (ev):

   -32.1323 -30.3003 -13.3943 -13.3518 -13.3514 -12.8525 -12.8358 -12.8357
    -5.6258  -5.0723  -5.0284   3.5651   3.9324   3.9819   4.1975   4.3120
     4.8997   5.0922   5.9610   6.1431   7.7866   7.9778   8.6167   8.8461

     occupation numbers 
     1.0000   1.0000   1.0000   1.0000   1.0000   1.0000   1.0000   1.0000
     1.0000   1.0000   1.0000   1.0000   1.0000   1.0000   1.0000   1.0000
     1.0000   1.0000   1.0163   0.8198  -0.0000  -0.0000  -0.0000  -0.0000

          k = 0.0877 0.0877-0.5264 ( 12158 PWs)   bands (ev):

   -32.1323 -30.3003 -13.3975 -13.3517 -13.3512 -12.8537 -12.8358 -12.8356
    -5.5986  -5.0784  -5.0270   3.7033   3.7798   4.0113   4.1341   4.2466
     4.8549   5.0530   5.9268   6.1209   7.8116   8.0451   8.7693   8.9454

     occupation numbers 
     1.0000   1.0000   1.0000   1.0000   1.0000   1.0000   1.0000   1.0000
     1.0000   1.0000   1.0000   1.0000   1.0000   1.0000   1.0000   1.0000
     1.0000   1.0000   1.0079   0.9100  -0.0000  -0.0000  -0.0000  -0.0000

          k = 0.0877 0.1755 0.1755 ( 12154 PWs)   bands (ev):

   -32.1325 -30.3005 -13.3621 -13.3612 -13.3524 -12.8408 -12.8385 -12.8361
    -5.8078  -5.0436  -5.0422   3.4185   3.9048   4.0089   4.5933   4.8430
     5.4783   5.5672   6.2532   6.2940   7.4639   7.5249   7.7860   8.2533

     occupation numbers 
     1.0000   1.0000   1.0000   1.0000   1.0000   1.0000   1.0000   1.0000
     1.0000   1.0000   1.0000   1.0000   1.0000   1.0000   1.0000   1.0000
     1.0000   1.0000   0.1934   0.0420  -0.0000  -0.0000  -0.0000  -0.0000

          k = 0.0877 0.1755 0.2632 ( 12158 PWs)   bands (ev):

   -32.1324 -30.3004 -13.3738 -13.3614 -13.3520 -12.8442 -12.8387 -12.8359
    -5.7285  -5.0456  -5.0378   3.3387   3.9253   4.0794   4.3459   4.6987
     5.1724   5.5295   6.0890   6.1866   7.5811   7.7848   7.9143   8.4367

     occupation numbers 
     1.0000   1.0000   1.0000   1.0000   1.0000   1.0000   1.0000   1.0000
     1.0000   1.0000   1.0000   1.0000   1.0000   1.0000   1.0000   1.0000
     1.0000   1.0000   0.9932   0.5800  -0.0000  -0.0000  -0.0000  -0.0000

          k = 0.0877 0.1755 0.3509 ( 12130 PWs)   bands (ev):

   -32.1323 -30.3003 -13.3858 -13.3612 -13.3516 -12.8483 -12.8384 -12.8357
    -5.6434  -5.0531  -5.0331   3.3227   3.9170   4.0773   4.1818   4.5015
     4.9710   5.4632   5.9019   6.0937   7.7494   7.9968   8.1779   8.6034

     occupation numbers 
     1.0000   1.0000   1.0000   1.0000   1.0000   1.0000   1.0000   1.0000
     1.0000   1.0000   1.0000   1.0000   1.0000   1.0000   1.0000   1.0000
     1.0000   1.0000   1.0042   0.9843  -0.0000  -0.0000  -0.0000  -0.0000

          k = 0.0877 0.1755 0.4387 ( 12134 PWs)   bands (ev):

   -32.1323 -30.3003 -13.3945 -13.3610 -13.3513 -12.8513 -12.8381 -12.8355
    -5.5757  -5.0634  -5.0297   3.3816   3.7925   4.0453   4.1188   4.3508
     4.8927   5.4287   5.7436   6.0299   7.8811   8.1404   8.4885   8.7254

     occupation numbers 
     1.0000   1.0000   1.0000   1.0000   1.0000   1.0000   1.0000   1.0000
     1.0000   1.0000   1.0000   1.0000   1.0000   1.0000   1.0000   1.0000
     1.0000   1.0000   1.0000   1.0354  -0.0000  -0.0000  -0.0000  -0.0000

          k = 0.0877 0.1755-0.5264 ( 12158 PWs)   bands (ev):

   -32.1323 -30.3002 -13.3977 -13.3609 -13.3512 -12.8524 -12.8380 -12.8354
    -5.5493  -5.0687  -5.0284   3.4572   3.6715   4.0493   4.0829   4.3110
     4.8741   5.4278   5.6739   6.0074   7.9229   8.2153   8.6819   8.7051

     occupation numbers 
     1.0000   1.0000   1.0000   1.0000   1.0000   1.0000   1.0000   1.0000
     1.0000   1.0000   1.0000   1.0000   1.0000   1.0000   1.0000   1.0000
     1.0000   1.0000   1.0000   1.0313  -0.0000  -0.0000  -0.0000  -0.0000

          k = 0.0877 0.2632 0.2632 ( 12137 PWs)   bands (ev):

   -32.1323 -30.3003 -13.3743 -13.3732 -13.3517 -12.8444 -12.8414 -12.8357
    -5.6519  -5.0403  -5.0389   3.2289   3.8944   4.1580   4.1626   4.6491
     4.9389   5.5677   6.0208   6.0231   7.6572   7.9254   8.0606   8.6647

     occupation numbers 
     1.0000   1.0000   1.0000   1.0000   1.0000   1.0000   1.0000   1.0000
     1.0000   1.0000   1.0000   1.0000   1.0000   1.0000   1.0000   1.0000
     1.0000   1.0000   1.0344   1.0347  -0.0000  -0.0000  -0.0000  -0.0000

          k = 0.0877 0.2632 0.3509 ( 12131 PWs)   bands (ev):

   -32.1323 -30.3002 -13.3860 -13.3737 -13.3513 -12.8471 -12.8416 -12.8354
    -5.5703  -5.0447  -5.0341   3.1689   3.7710   4.0926   4.1742   4.5524
     4.8181   5.5235   5.8739   5.9520   7.7965   8.1108   8.2783   8.6982

     occupation numbers 
     1.0000   1.0000   1.0000   1.0000   1.0000   1.0000   1.0000   1.0000
     1.0000   1.0000   1.0000   1.0000   1.0000   1.0000   1.0000   1.0000
     1.0000   1.0000   1.0018   1.0137  -0.0000  -0.0000  -0.0000  -0.0000

          k = 0.0877 0.2632 0.4387 ( 12132 PWs)   bands (ev):

   -32.1322 -30.3002 -13.3949 -13.3737 -13.3510 -12.8496 -12.8412 -12.8351
    -5.5061  -5.0516  -5.0308   3.1618   3.6326   4.0740   4.1261   4.4573
     4.8353   5.4510   5.8014   5.8709   7.9804   8.2410   8.5260   8.6175

     occupation numbers 
     1.0000   1.0000   1.0000   1.0000   1.0000   1.0000   1.0000   1.0000
     1.0000   1.0000   1.0000   1.0000   1.0000   1.0000   1.0000   1.0000
     1.0000   1.0000   1.0001   1.0017  -0.0000  -0.0000  -0.0000  -0.0000

          k = 0.0877 0.2632-0.5264 ( 12134 PWs)   bands (ev):

   -32.1322 -30.3002 -13.3981 -13.3737 -13.3509 -12.8506 -12.8410 -12.8351
    -5.4813  -5.0552  -5.0297   3.1726   3.5688   4.0561   4.1054   4.4318
     4.8572   5.4123   5.8033   5.8162   8.0661   8.4050   8.4420   8.6415

     occupation numbers 
     1.0000   1.0000   1.0000   1.0000   1.0000   1.0000   1.0000   1.0000
     1.0000   1.0000   1.0000   1.0000   1.0000   1.0000   1.0000   1.0000
     1.0000   1.0000   1.0002   1.0002  -0.0000  -0.0000  -0.0000  -0.0000

          k = 0.0877 0.3509 0.3509 ( 12131 PWs)   bands (ev):

   -32.1322 -30.3002 -13.3866 -13.3857 -13.3509 -12.8465 -12.8443 -12.8350
    -5.4940  -5.0398  -5.0337   3.0456   3.6195   4.0831   4.1683   4.6404
     4.6957   5.4322   5.7022   6.0420   7.8399   8.3402   8.3690   8.7390

     occupation numbers 
     1.0000   1.0000   1.0000   1.0000   1.0000   1.0000   1.0000   1.0000
     1.0000   1.0000   1.0000   1.0000   1.0000   1.0000   1.0000   1.0000
     1.0000   1.0000   1.0000   1.0347  -0.0000  -0.0000  -0.0000  -0.0000

          k = 0.0877 0.3509 0.4387 ( 12160 PWs)   bands (ev):

   -32.1322 -30.3001 -13.3952 -13.3863 -13.3507 -12.8480 -12.8443 -12.8348
    -5.4353  -5.0407  -5.0309   2.9696   3.5159   4.0698   4.1209   4.6046
     4.7945   5.2980   5.5910   6.0991   7.9670   8.3431   8.5268   8.7307

     occupation numbers 
     1.0000   1.0000   1.0000   1.0000   1.0000   1.0000   1.0000   1.0000
     1.0000   1.0000   1.0000   1.0000   1.0000   1.0000   1.0000   1.0000
     1.0000   1.0000   1.0000   0.9725  -0.0000  -0.0000  -0.0000  -0.0000

          k = 0.0877 0.3509-0.5264 ( 12156 PWs)   bands (ev):

   -32.1321 -30.3001 -13.3985 -13.3863 -13.3506 -12.8488 -12.8441 -12.8347
    -5.4130  -5.0417  -5.0298   2.9448   3.4783   4.0644   4.0927   4.5910
     4.8752   5.2057   5.5628   6.1143   8.1104   8.2306   8.5407   8.8027

     occupation numbers 
     1.0000   1.0000   1.0000   1.0000   1.0000   1.0000   1.0000   1.0000
     1.0000   1.0000   1.0000   1.0000   1.0000   1.0000   1.0000   1.0000
     1.0000   1.0000   1.0000   0.9316  -0.0000  -0.0000  -0.0000  -0.0000

          k = 0.0877 0.4387 0.4387 ( 12163 PWs)   bands (ev):

   -32.1321 -30.3001 -13.3955 -13.3953 -13.3505 -12.8471 -12.8464 -12.8345
    -5.3825  -5.0339  -5.0296   2.8443   3.4398   4.0593   4.0916   4.7673
     4.7883   5.1835   5.3989   6.2457   7.9742   8.2251   8.6687   8.8922

     occupation numbers 
     1.0000   1.0000   1.0000   1.0000   1.0000   1.0000   1.0000   1.0000
     1.0000   1.0000   1.0000   1.0000   1.0000   1.0000   1.0000   1.0000
     1.0000   1.0000   1.0000   0.2302  -0.0000  -0.0000  -0.0000  -0.0000

          k = 0.0877 0.4387-0.5264 ( 12168 PWs)   bands (ev):

   -32.1321 -30.3000 -13.3987 -13.3955 -13.3504 -12.8476 -12.8463 -12.8344
    -5.3631  -5.0317  -5.0288   2.8013   3.4124   4.0609   4.0688   4.7728
     4.9141   5.0732   5.3347   6.2921   8.0419   8.0969   8.7318   8.9848

     occupation numbers 
     1.0000   1.0000   1.0000   1.0000   1.0000   1.0000   1.0000   1.0000
     1.0000   1.0000   1.0000   1.0000   1.0000   1.0000   1.0000   1.0000
     1.0000   1.0000   1.0000   0.0471  -0.0000  -0.0000  -0.0000  -0.0000

          k = 0.0877-0.5264-0.5264 ( 12140 PWs)   bands (ev):

   -32.1321 -30.3000 -13.3988 -13.3988 -13.3503 -12.8471 -12.8471 -12.8343
    -5.3449  -5.0280  -5.0280   2.7524   3.3876   4.0574   4.0574   4.9340
     4.9340   4.9701   5.2176   6.3497   8.0052   8.0513   8.8179   9.0686

     occupation numbers 
     1.0000   1.0000   1.0000   1.0000   1.0000   1.0000   1.0000   1.0000
     1.0000   1.0000   1.0000   1.0000   1.0000   1.0000   1.0000   1.0000
     1.0000   1.0000   1.0000  -0.0328  -0.0000  -0.0000  -0.0000  -0.0000

          k = 0.1755 0.1755 0.1755 ( 12149 PWs)   bands (ev):

   -32.1324 -30.3004 -13.3616 -13.3616 -13.3610 -12.8409 -12.8384 -12.8384
    -5.7531  -5.0409  -5.0409   3.3078   4.0030   4.0030   4.5827   4.5827
     5.1928   5.7153   6.2082   6.2082   7.5047   7.5047   7.8028   8.5773

     occupation numbers 
     1.0000   1.0000   1.0000   1.0000   1.0000   1.0000   1.0000   1.0000
     1.0000   1.0000   1.0000   1.0000   1.0000   1.0000   1.0000   1.0000
     1.0000   1.0000   0.4460   0.4460  -0.0000  -0.0000  -0.0000  -0.0000

          k = 0.1755 0.1755 0.2632 ( 12160 PWs)   bands (ev):

   -32.1324 -30.3003 -13.3737 -13.3612 -13.3610 -12.8437 -12.8388 -12.8383
    -5.6748  -5.0420  -5.0372   3.2291   3.9717   4.0392   4.3877   4.5299
     4.9369   5.7247   6.0367   6.1384   7.6058   7.7005   7.8901   8.6657

     occupation numbers 
     1.0000   1.0000   1.0000   1.0000   1.0000   1.0000   1.0000   1.0000
     1.0000   1.0000   1.0000   1.0000   1.0000   1.0000   1.0000   1.0000
     1.0000   1.0000   1.0353   0.8410  -0.0000  -0.0000  -0.0000  -0.0000

          k = 0.1755 0.1755 0.3509 ( 12159 PWs)   bands (ev):

   -32.1323 -30.3003 -13.3858 -13.3613 -13.3604 -12.8474 -12.8382 -12.8381
    -5.5909  -5.0477  -5.0336   3.2164   3.9002   3.9438   4.2962   4.3689
     4.9260   5.6520   5.8126   6.0651   7.7483   8.0398   8.0489   8.6996

     occupation numbers 
     1.0000   1.0000   1.0000   1.0000   1.0000   1.0000   1.0000   1.0000
     1.0000   1.0000   1.0000   1.0000   1.0000   1.0000   1.0000   1.0000
     1.0000   1.0000   1.0002   1.0239  -0.0000  -0.0000  -0.0000  -0.0000

          k = 0.1755 0.1755 0.4387 ( 12147 PWs)   bands (ev):

   -32.1322 -30.3002 -13.3946 -13.3613 -13.3600 -12.8503 -12.8381 -12.8376
    -5.5243  -5.0564  -5.0309   3.2855   3.7190   3.8272   4.2646   4.2735
     5.0614   5.5766   5.5797   6.0134   7.8654   8.2658   8.3985   8.6721

     occupation numbers 
     1.0000   1.0000   1.0000   1.0000   1.0000   1.0000   1.0000   1.0000
     1.0000   1.0000   1.0000   1.0000   1.0000   1.0000   1.0000   1.0000
     1.0000   1.0000   1.0000   1.0329  -0.0000  -0.0000  -0.0000  -0.0000

          k = 0.1755 0.1755-0.5264 ( 12130 PWs)   bands (ev):

   -32.1322 -30.3002 -13.3978 -13.3613 -13.3598 -12.8513 -12.8381 -12.8374
    -5.4984  -5.0611  -5.0299   3.3881   3.5452   3.7984   4.2366   4.2711
     5.1777   5.4340   5.5464   5.9951   7.9074   8.4299   8.5936   8.6003

     occupation numbers 
     1.0000   1.0000   1.0000   1.0000   1.0000   1.0000   1.0000   1.0000
     1.0000   1.0000   1.0000   1.0000   1.0000   1.0000   1.0000   1.0000
     1.0000   1.0000   1.0000   1.0275  -0.0000  -0.0000  -0.0000  -0.0000

          k = 0.1755 0.2632 0.2632 ( 12131 PWs)   bands (ev):

   -32.1323 -30.3003 -13.3738 -13.3732 -13.3608 -12.8436 -12.8414 -12.8382
    -5.5983  -5.0378  -5.0378   3.1414   3.8681   4.0165   4.3304   4.5875
     4.6660   5.8073   5.9963   6.0200   7.6885   7.7635   7.9358   8.8833

     occupation numbers 
     1.0000   1.0000   1.0000   1.0000   1.0000   1.0000   1.0000   1.0000
     1.0000   1.0000   1.0000   1.0000   1.0000   1.0000   1.0000   1.0000
     1.0000   1.0002   1.0279   1.0342  -0.0000  -0.0000  -0.0000  -0.0000

          k = 0.1755 0.2632 0.3509 ( 12132 PWs)   bands (ev):

   -32.1322 -30.3002 -13.3857 -13.3734 -13.3604 -12.8464 -12.8415 -12.8379
    -5.5170  -5.0413  -5.0343   3.1103   3.7084   3.9282   4.2123   4.4983
     4.7915   5.7065   5.9049   5.9641   7.8094   7.9721   8.0929   8.8657

     occupation numbers 
     1.0000   1.0000   1.0000   1.0000   1.0000   1.0000   1.0000   1.0000
     1.0000   1.0000   1.0000   1.0000   1.0000   1.0000   1.0000   1.0000
     1.0000   1.0000   1.0045   1.0172  -0.0000  -0.0000  -0.0000  -0.0000

          k = 0.1755 0.2632 0.4387 ( 12142 PWs)   bands (ev):

   -32.1322 -30.3001 -13.3946 -13.3733 -13.3601 -12.8489 -12.8411 -12.8376
    -5.4530  -5.0474  -5.0321   3.1467   3.5412   3.7923   4.1356   4.4752
     5.0072   5.4872   5.8681   5.9101   7.9355   8.1809   8.3786   8.7344

     occupation numbers 
     1.0000   1.0000   1.0000   1.0000   1.0000   1.0000   1.0000   1.0000
     1.0000   1.0000   1.0000   1.0000   1.0000   1.0000   1.0000   1.0000
     1.0000   1.0000   1.0015   1.0052  -0.0000  -0.0000  -0.0000  -0.0000

          k = 0.1755 0.2632-0.5264 ( 12126 PWs)   bands (ev):

   -32.1322 -30.3001 -13.3979 -13.3733 -13.3600 -12.8499 -12.8409 -12.8374
    -5.4282  -5.0507  -5.0313   3.1999   3.4348   3.7378   4.1150   4.4749
     5.2321   5.2555   5.8629   5.8808   7.9815   8.3909   8.4636   8.6583

     occupation numbers 
     1.0000   1.0000   1.0000   1.0000   1.0000   1.0000   1.0000   1.0000
     1.0000   1.0000   1.0000   1.0000   1.0000   1.0000   1.0000   1.0000
     1.0000   1.0000   1.0013   1.0023  -0.0000  -0.0000  -0.0000  -0.0000

          k = 0.1755 0.3509 0.3509 ( 12130 PWs)   bands (ev):

   -32.1322 -30.3001 -13.3859 -13.3855 -13.3600 -12.8459 -12.8443 -12.8375
    -5.4397  -5.0380  -5.0341   3.0375   3.5303   3.9049   4.0426   4.6678
     4.7603   5.6351   5.7769   6.0805   7.8610   8.1292   8.1559   8.8480

     occupation numbers 
     1.0000   1.0000   1.0000   1.0000   1.0000   1.0000   1.0000   1.0000
     1.0000   1.0000   1.0000   1.0000   1.0000   1.0000   1.0000   1.0000
     1.0000   1.0000   1.0001   1.0069  -0.0000  -0.0000  -0.0000  -0.0000

          k = 0.1755 0.3509 0.4387 ( 12127 PWs)   bands (ev):

   -32.1321 -30.3001 -13.3947 -13.3857 -13.3597 -12.8477 -12.8443 -12.8373
    -5.3801  -5.0392  -5.0322   3.0091   3.4021   3.8083   3.9691   4.6923
     4.9418   5.4536   5.7092   6.1434   7.9778   8.1919   8.3726   8.7203

     occupation numbers 
     1.0000   1.0000   1.0000   1.0000   1.0000   1.0000   1.0000   1.0000
     1.0000   1.0000   1.0000   1.0000   1.0000   1.0000   1.0000   1.0000
     1.0000   1.0000   1.0000   0.8185  -0.0000  -0.0000  -0.0000  -0.0000

          k = 0.1755 0.3509-0.5264 ( 12130 PWs)   bands (ev):

   -32.1321 -30.3000 -13.3980 -13.3857 -13.3596 -12.8485 -12.8441 -12.8372
    -5.3574  -5.0403  -5.0316   3.0070   3.3505   3.7536   3.9587   4.6946
     5.1083   5.2831   5.6980   6.1582   8.0930   8.1917   8.3982   8.8071

     occupation numbers 
     1.0000   1.0000   1.0000   1.0000   1.0000   1.0000   1.0000   1.0000
     1.0000   1.0000   1.0000   1.0000   1.0000   1.0000   1.0000   1.0000
     1.0000   1.0000   1.0000   0.7444  -0.0000  -0.0000  -0.0000  -0.0000

          k = 0.1755 0.4387 0.4387 ( 12140 PWs)   bands (ev):

   -32.1321 -30.3000 -13.3948 -13.3947 -13.3594 -12.8469 -12.8464 -12.8371
    -5.3258  -5.0345  -5.0310   2.9130   3.3231   3.8139   3.8386   4.9071
     4.9189   5.4234   5.5196   6.2932   7.9823   8.1947   8.4764   8.7154

     occupation numbers 
     1.0000   1.0000   1.0000   1.0000   1.0000   1.0000   1.0000   1.0000
     1.0000   1.0000   1.0000   1.0000   1.0000   1.0000   1.0000   1.0000
     1.0000   1.0000   1.0000   0.0443  -0.0000  -0.0000  -0.0000  -0.0000

          k = 0.1755 0.4387-0.5264 ( 12164 PWs)   bands (ev):

   -32.1321 -30.3000 -13.3980 -13.3948 -13.3592 -12.8475 -12.8463 -12.8370
    -5.3058  -5.0326  -5.0306   2.8793   3.2972   3.7738   3.8303   4.9027
     5.0669   5.3109   5.4826   6.3396   8.0577   8.0776   8.5515   8.8614

     occupation numbers 
     1.0000   1.0000   1.0000   1.0000   1.0000   1.0000   1.0000   1.0000
     1.0000   1.0000   1.0000   1.0000   1.0000   1.0000   1.0000   1.0000
     1.0000   1.0000   1.0000  -0.0279  -0.0000  -0.0000  -0.0000  -0.0000

          k = 0.1755-0.5264-0.5264 ( 12164 PWs)   bands (ev):

   -32.1320 -30.3000 -13.3981 -13.3981 -13.3591 -12.8472 -12.8472 -12.8369
    -5.2870  -5.0298  -5.0298   2.8354   3.2788   3.7814   3.7814   4.9749
     5.1379   5.3242   5.3242   6.3981   8.0113   8.0452   8.7081   8.8576

     occupation numbers 
     1.0000   1.0000   1.0000   1.0000   1.0000   1.0000   1.0000   1.0000
     1.0000   1.0000   1.0000   1.0000   1.0000   1.0000   1.0000   1.0000
     1.0000   1.0000   1.0000  -0.0294  -0.0000  -0.0000  -0.0000  -0.0000

          k = 0.2632 0.2632 0.2632 ( 12160 PWs)   bands (ev):

   -32.1322 -30.3002 -13.3734 -13.3730 -13.3730 -12.8430 -12.8413 -12.8413
    -5.5222  -5.0362  -5.0362   3.0667   3.8340   3.8340   4.2903   4.5804
     4.5804   5.9573   5.9573   5.9882   7.7491   7.7491   7.8886   9.0265

     occupation numbers 
     1.0000   1.0000   1.0000   1.0000   1.0000   1.0000   1.0000   1.0000
     1.0000   1.0000   1.0000   1.0000   1.0000   1.0000   1.0000   1.0000
     1.0000   1.0152   1.0152   1.0252  -0.0000  -0.0000  -0.0000  -0.0000

          k = 0.2632 0.2632 0.3509 ( 12142 PWs)   bands (ev):

   -32.1322 -30.3001 -13.3854 -13.3734 -13.3723 -12.8455 -12.8412 -12.8412
    -5.4419  -5.0376  -5.0347   3.0443   3.6777   3.7136   4.0553   4.5993
     4.7861   5.8221   5.9254   6.0399   7.8401   7.9245   7.9550   8.9878

     occupation numbers 
     1.0000   1.0000   1.0000   1.0000   1.0000   1.0000   1.0000   1.0000
     1.0000   1.0000   1.0000   1.0000   1.0000   1.0000   1.0000   1.0000
     1.0000   1.0003   1.0076   1.0350  -0.0000  -0.0000  -0.0000  -0.0000

          k = 0.2632 0.2632 0.4387 ( 12126 PWs)   bands (ev):

   -32.1321 -30.3001 -13.3943 -13.3735 -13.3717 -12.8480 -12.8412 -12.8406
    -5.3789  -5.0419  -5.0335   3.0954   3.4771   3.5764   3.9770   4.6210
     4.9926   5.6457   5.9015   6.0227   7.9288   8.1268   8.2132   8.8831

     occupation numbers 
     1.0000   1.0000   1.0000   1.0000   1.0000   1.0000   1.0000   1.0000
     1.0000   1.0000   1.0000   1.0000   1.0000   1.0000   1.0000   1.0000
     1.0000   1.0000   1.0041   1.0347  -0.0000  -0.0000  -0.0000  -0.0000

          k = 0.2632 0.2632-0.5264 ( 12116 PWs)   bands (ev):

   -32.1321 -30.3000 -13.3976 -13.3735 -13.3715 -12.8490 -12.8412 -12.8403
    -5.3546  -5.0446  -5.0331   3.1884   3.3054   3.5416   3.9621   4.6303
     5.1070   5.5376   5.8929   6.0077   7.9620   8.2776   8.4274   8.7229

     occupation numbers 
     1.0000   1.0000   1.0000   1.0000   1.0000   1.0000   1.0000   1.0000
     1.0000   1.0000   1.0000   1.0000   1.0000   1.0000   1.0000   1.0000
     1.0000   1.0000   1.0032   1.0314  -0.0000  -0.0000  -0.0000  -0.0000

          k = 0.2632 0.3509 0.3509 ( 12148 PWs)   bands (ev):

   -32.1321 -30.3000 -13.3852 -13.3850 -13.3723 -12.8451 -12.8443 -12.8409
    -5.3636  -5.0360  -5.0345   3.0097   3.4977   3.6779   3.8213   4.7547
     4.8299   5.8238   5.8622   6.1742   7.8924   7.9739   7.9806   8.8951

     occupation numbers 
     1.0000   1.0000   1.0000   1.0000   1.0000   1.0000   1.0000   1.0000
     1.0000   1.0000   1.0000   1.0000   1.0000   1.0000   1.0000   1.0000
     1.0000   1.0003   1.0013   0.6546  -0.0000  -0.0000  -0.0000  -0.0000

          k = 0.2632 0.3509 0.4387 ( 12133 PWs)   bands (ev):

   -32.1320 -30.3000 -13.3940 -13.3849 -13.3719 -12.8472 -12.8442 -12.8406
    -5.3032  -5.0374  -5.0340   3.0327   3.3203   3.5622   3.7610   4.8027
     4.9675   5.7255   5.8492   6.2294   7.9846   8.0375   8.1980   8.6898

     occupation numbers 
     1.0000   1.0000   1.0000   1.0000   1.0000   1.0000   1.0000   1.0000
     1.0000   1.0000   1.0000   1.0000   1.0000   1.0000   1.0000   1.0000
     1.0000   1.0000   1.0008   0.3189  -0.0000  -0.0000  -0.0000  -0.0000

          k = 0.2632 0.3509-0.5264 ( 12146 PWs)   bands (ev):

   -32.1320 -30.3000 -13.3973 -13.3849 -13.3718 -12.8481 -12.8440 -12.8405
    -5.2801  -5.0384  -5.0339   3.0891   3.2031   3.5077   3.7601   4.8130
     5.0428   5.6626   5.8491   6.2394   8.0362   8.1179   8.3332   8.6188

     occupation numbers 
     1.0000   1.0000   1.0000   1.0000   1.0000   1.0000   1.0000   1.0000
     1.0000   1.0000   1.0000   1.0000   1.0000   1.0000   1.0000   1.0000
     1.0000   1.0000   1.0008   0.2634  -0.0000  -0.0000  -0.0000  -0.0000

          k = 0.2632 0.4387 0.4387 ( 12139 PWs)   bands (ev):

   -32.1320 -30.2999 -13.3939 -13.3938 -13.3715 -12.8467 -12.8464 -12.8405
    -5.2467  -5.0353  -5.0330   2.9971   3.1912   3.5793   3.6054   4.9552
     4.9625   5.7583   5.7726   6.3690   7.9613   8.1414   8.2590   8.5251

     occupation numbers 
     1.0000   1.0000   1.0000   1.0000   1.0000   1.0000   1.0000   1.0000
     1.0000   1.0000   1.0000   1.0000   1.0000   1.0000   1.0000   1.0000
     1.0000   1.0000   1.0000  -0.0354  -0.0000  -0.0000  -0.0000  -0.0000

          k = 0.2632 0.4387-0.5264 ( 12130 PWs)   bands (ev):

   -32.1320 -30.2999 -13.3971 -13.3937 -13.3713 -12.8475 -12.8464 -12.8404
    -5.2258  -5.0339  -5.0331   2.9919   3.1381   3.5327   3.6039   4.9547
     5.0297   5.7202   5.7786   6.4125   7.9874   8.1201   8.3388   8.5701

     occupation numbers 
     1.0000   1.0000   1.0000   1.0000   1.0000   1.0000   1.0000   1.0000
     1.0000   1.0000   1.0000   1.0000   1.0000   1.0000   1.0000   1.0000
     1.0000   1.0000   1.0001  -0.0247  -0.0000  -0.0000  -0.0000  -0.0000

          k = 0.2632-0.5264-0.5264 ( 12140 PWs)   bands (ev):

   -32.1320 -30.2999 -13.3970 -13.3970 -13.3711 -12.8472 -12.8472 -12.8404
    -5.2061  -5.0323  -5.0323   2.9558   3.1157   3.5462   3.5462   4.9814
     5.0626   5.7402   5.7402   6.4705   7.9390   8.1022   8.5557   8.5557

     occupation numbers 
     1.0000   1.0000   1.0000   1.0000   1.0000   1.0000   1.0000   1.0000
     1.0000   1.0000   1.0000   1.0000   1.0000   1.0000   1.0000   1.0000
     1.0000   1.0000   1.0000  -0.0082  -0.0000  -0.0000  -0.0000  -0.0000

          k = 0.3509 0.3509 0.3509 ( 12127 PWs)   bands (ev):

   -32.1320 -30.3000 -13.3853 -13.3841 -13.3841 -12.8444 -12.8443 -12.8443
    -5.2847  -5.0350  -5.0350   2.9858   3.5064   3.5064   3.5495   4.8761
     4.8761   5.9245   5.9245   6.2950   7.8807   7.9527   7.9527   8.8677

     occupation numbers 
     1.0000   1.0000   1.0000   1.0000   1.0000   1.0000   1.0000   1.0000
     1.0000   1.0000   1.0000   1.0000   1.0000   1.0000   1.0000   1.0000
     1.0000   1.0075   1.0075   0.0396  -0.0000  -0.0000  -0.0000  -0.0000

          k = 0.3509 0.3509 0.4387 ( 12141 PWs)   bands (ev):

   -32.1320 -30.2999 -13.3934 -13.3847 -13.3834 -12.8468 -12.8443 -12.8438
    -5.2244  -5.0357  -5.0354   3.0059   3.2892   3.4004   3.5480   4.9052
     4.9730   5.9458   5.9756   6.3563   7.9287   7.9906   8.0940   8.6321

     occupation numbers 
     1.0000   1.0000   1.0000   1.0000   1.0000   1.0000   1.0000   1.0000
     1.0000   1.0000   1.0000   1.0000   1.0000   1.0000   1.0000   1.0000
     1.0000   1.0121   1.0210  -0.0346  -0.0000  -0.0000  -0.0000  -0.0000

          k = 0.3509 0.3509-0.5264 ( 12130 PWs)   bands (ev):

   -32.1320 -30.2999 -13.3966 -13.3846 -13.3832 -12.8477 -12.8443 -12.8436
    -5.2014  -5.0366  -5.0355   3.0704   3.1421   3.3645   3.5605   4.9154
     5.0108   5.9459   5.9940   6.3668   8.0010   8.0123   8.3058   8.3940

     occupation numbers 
     1.0000   1.0000   1.0000   1.0000   1.0000   1.0000   1.0000   1.0000
     1.0000   1.0000   1.0000   1.0000   1.0000   1.0000   1.0000   1.0000
     1.0000   1.0121   1.0272  -0.0355  -0.0000  -0.0000  -0.0000  -0.0000

          k = 0.3509 0.4387 0.4387 ( 12137 PWs)   bands (ev):

   -32.1319 -30.2999 -13.3930 -13.3927 -13.3834 -12.8465 -12.8465 -12.8439
    -5.1654  -5.0360  -5.0349   2.9777   3.1751   3.4033   3.4048   4.9775
     4.9776   6.0607   6.0708   6.4634   7.8879   8.0704   8.0794   8.4179

     occupation numbers 
     1.0000   1.0000   1.0000   1.0000   1.0000   1.0000   1.0000   1.0000
     1.0000   1.0000   1.0000   1.0000   1.0000   1.0000   1.0000   1.0000
     1.0000   1.0271   1.0186  -0.0097  -0.0000  -0.0000  -0.0000  -0.0000

          k = 0.3509 0.4387-0.5264 ( 12128 PWs)   bands (ev):

   -32.1319 -30.2999 -13.3961 -13.3927 -13.3832 -12.8474 -12.8464 -12.8439
    -5.1436  -5.0355  -5.0352   2.9755   3.1114   3.3560   3.4205   4.9795
     5.0039   6.0981   6.1033   6.4994   7.9021   8.0713   8.2329   8.2585

     occupation numbers 
     1.0000   1.0000   1.0000   1.0000   1.0000   1.0000   1.0000   1.0000
     1.0000   1.0000   1.0000   1.0000   1.0000   1.0000   1.0000   1.0000
     1.0000   0.9748   0.9625  -0.0039  -0.0000  -0.0000  -0.0000  -0.0000

          k = 0.3509-0.5264-0.5264 ( 12160 PWs)   bands (ev):

   -32.1319 -30.2998 -13.3959 -13.3959 -13.3830 -12.8473 -12.8473 -12.8439
    -5.1229  -5.0348  -5.0348   2.9403   3.0860   3.3714   3.3714   4.9879
     5.0172   6.1450   6.1450   6.5525   7.8528   8.1621   8.2163   8.2163

     occupation numbers 
     1.0000   1.0000   1.0000   1.0000   1.0000   1.0000   1.0000   1.0000
     1.0000   1.0000   1.0000   1.0000   1.0000   1.0000   1.0000   1.0000
     1.0000   0.8111   0.8111  -0.0008  -0.0000  -0.0000  -0.0000  -0.0000

          k = 0.4387 0.4387 0.4387 ( 12136 PWs)   bands (ev):

   -32.1319 -30.2998 -13.3926 -13.3920 -13.3920 -12.8465 -12.8465 -12.8463
    -5.1047  -5.0363  -5.0363   2.8893   3.2140   3.2978   3.2978   4.9895
     4.9895   6.2921   6.2921   6.5480   7.8246   7.9960   7.9960   8.3715

     occupation numbers 
     1.0000   1.0000   1.0000   1.0000   1.0000   1.0000   1.0000   1.0000
     1.0000   1.0000   1.0000   1.0000   1.0000   1.0000   1.0000   1.0000
     1.0000   0.0472   0.0472  -0.0009  -0.0000  -0.0000  -0.0000  -0.0000

          k = 0.4387 0.4387-0.5264 ( 12134 PWs)   bands (ev):

   -32.1319 -30.2998 -13.3954 -13.3922 -13.3917 -12.8474 -12.8465 -12.8463
    -5.0824  -5.0368  -5.0362   2.8525   3.1916   3.2618   3.3039   4.9934
     4.9948   6.3743   6.3834   6.5802   7.8255   7.9470   8.0024   8.3052

     occupation numbers 
     1.0000   1.0000   1.0000   1.0000   1.0000   1.0000   1.0000   1.0000
     1.0000   1.0000   1.0000   1.0000   1.0000   1.0000   1.0000   1.0000
     1.0000  -0.0349  -0.0334  -0.0003  -0.0000  -0.0000  -0.0000  -0.0000

          k = 0.4387-0.5264-0.5264 ( 12132 PWs)   bands (ev):

   -32.1318 -30.2998 -13.3951 -13.3951 -13.3917 -12.8473 -12.8473 -12.8464
    -5.0605  -5.0366  -5.0366   2.8064   3.1888   3.2643   3.2643   4.9928
     4.9987   6.4896   6.4896   6.6209   7.7834   7.9051   7.9051   8.2077

     occupation numbers 
     1.0000   1.0000   1.0000   1.0000   1.0000   1.0000   1.0000   1.0000
     1.0000   1.0000   1.0000   1.0000   1.0000   1.0000   1.0000   1.0000
     1.0000  -0.0051  -0.0051  -0.0001  -0.0000  -0.0000  -0.0000  -0.0000

          k =-0.5264-0.5264-0.5264 ( 12160 PWs)   bands (ev):

   -32.1318 -30.2998 -13.3948 -13.3948 -13.3948 -12.8474 -12.8474 -12.8474
    -5.0372  -5.0372  -5.0372   2.7564   3.2283   3.2283   3.2283   4.9945
     4.9945   6.6482   6.6482   6.6482   7.7570   7.7570   7.7570   8.2100

     occupation numbers 
     1.0000   1.0000   1.0000   1.0000   1.0000   1.0000   1.0000   1.0000
     1.0000   1.0000   1.0000   1.0000   1.0000   1.0000   1.0000   1.0000
     1.0000  -0.0000  -0.0000  -0.0000  -0.0000  -0.0000  -0.0000  -0.0000

     the Fermi energy is     6.1995 ev

!    total energy              =   -1173.59144425 Ry
     total all-electron energy =    -33662.972556 Ry
     estimated scf accuracy    <          3.6E-13 Ry
     smearing contrib. (-TS)   =       0.00000623 Ry
     internal energy E=F+TS    =   -1173.59145048 Ry

     The total energy is F=E-TS. E is the sum of the following terms:
     one-electron contribution =     -43.24366274 Ry
     hartree contribution      =      38.13435191 Ry
     xc contribution           =    -104.52494664 Ry
     ewald contribution        =    -149.85271267 Ry
     one-center paw contrib.   =    -914.10448035 Ry
      -> PAW hartree energy AE =      47.95646162 Ry
      -> PAW hartree energy PS =     -47.73420570 Ry
      -> PAW xc energy AE      =     -71.55296539 Ry
      -> PAW xc energy PS      =      11.34433058 Ry
      -> total E_H with PAW    =      38.35660783 Ry
      -> total E_XC with PAW   =    -164.73358145 Ry

     convergence has been achieved in  21 iterations

     Forces acting on atoms (cartesian axes, Ry/au):

     atom    1 type  1   force =     0.00000000    0.00000000    0.00000000
     atom    2 type  2   force =     0.00000000    0.00000000    0.00000000
     atom    3 type  3   force =     0.00000000    0.00000000    0.00000000
     atom    4 type  3   force =     0.00000000    0.00000000    0.00000000
     atom    5 type  3   force =     0.00000000    0.00000000    0.00000000
     The non-local contrib.  to forces
     atom    1 type  1   force =     0.00000000    0.00000000    0.00000000
     atom    2 type  2   force =     0.00000000    0.00000000    0.00000000
     atom    3 type  3   force =     0.00000000    0.00000000    0.00000000
     atom    4 type  3   force =     0.00000000    0.00000000    0.00000000
     atom    5 type  3   force =     0.00000000    0.00000000    0.00000000
     The ionic contribution  to forces
     atom    1 type  1   force =    -0.00000000   -0.00000000   -0.00000000
     atom    2 type  2   force =     0.00000000    0.00000000    0.00000000
     atom    3 type  3   force =    -0.00000000   -0.00000000   -0.00000000
     atom    4 type  3   force =    -0.00000000   -0.00000000   -0.00000000
     atom    5 type  3   force =    -0.00000000   -0.00000000   -0.00000000
     The local contribution  to forces
     atom    1 type  1   force =     0.00000000    0.00000000    0.00000000
     atom    2 type  2   force =     0.00000000    0.00000000    0.00000000
     atom    3 type  3   force =     0.00000000    0.00000000    0.00000000
     atom    4 type  3   force =     0.00000000    0.00000000    0.00000000
     atom    5 type  3   force =    -0.00000000    0.00000000    0.00000000
     The core correction contribution to forces
     atom    1 type  1   force =     0.00000000    0.00000000   -0.00000000
     atom    2 type  2   force =    -0.00000000   -0.00000000   -0.00000000
     atom    3 type  3   force =     0.00000000    0.00000000    0.00000000
     atom    4 type  3   force =     0.00000000    0.00000000    0.00000000
     atom    5 type  3   force =     0.00000000    0.00000000    0.00000000
     The Hubbard contrib.    to forces
     atom    1 type  1   force =     0.00000000    0.00000000    0.00000000
     atom    2 type  2   force =     0.00000000    0.00000000    0.00000000
     atom    3 type  3   force =     0.00000000    0.00000000    0.00000000
     atom    4 type  3   force =     0.00000000    0.00000000    0.00000000
     atom    5 type  3   force =     0.00000000    0.00000000    0.00000000
     The SCF correction term to forces
     atom    1 type  1   force =    -0.00000000    0.00000000   -0.00000000
     atom    2 type  2   force =     0.00000000    0.00000000    0.00000000
     atom    3 type  3   force =     0.00000000   -0.00000000   -0.00000000
     atom    4 type  3   force =    -0.00000000    0.00000000   -0.00000000
     atom    5 type  3   force =     0.00000000   -0.00000000    0.00000000

     Total force =     0.000000     Total SCF correction =     0.000000


     Computing stress (Cartesian axis) and pressure

          total   stress  (Ry/bohr**3)                   (kbar)     P=       -0.05
  -0.00000032   0.00000000   0.00000000           -0.05        0.00        0.00
   0.00000000  -0.00000032   0.00000000            0.00       -0.05        0.00
   0.00000000   0.00000000  -0.00000032            0.00        0.00       -0.05

     kinetic stress (kbar)   7085.05      0.00      0.00
                                0.00   7085.05      0.00
                                0.00      0.00   7085.05

     local   stress (kbar)  -2040.00     -0.00     -0.00
                               -0.00  -2040.00      0.00
                               -0.00      0.00  -2040.00

     nonloc. stress (kbar)   2401.91      0.00      0.00
                                0.00   2401.91      0.00
                                0.00      0.00   2401.91

     hartree stress (kbar)   1860.93      0.00      0.00
                                0.00   1860.93     -0.00
                                0.00     -0.00   1860.93

     exc-cor stress (kbar)   8560.44      0.00     -0.00
                                0.00   8560.44     -0.00
                               -0.00     -0.00   8560.44

     corecor stress (kbar) -10555.66      0.00      0.00
                                0.00 -10555.66      0.00
                                0.00      0.00 -10555.66

     ewald   stress (kbar)  -7312.72     -0.00     -0.00
                               -0.00  -7312.72     -0.00
                               -0.00     -0.00  -7312.72

     hubbard stress (kbar)      0.00      0.00      0.00
                                0.00      0.00      0.00
                                0.00      0.00      0.00

     DFT-D   stress (kbar)      0.00      0.00      0.00
                                0.00      0.00      0.00
                                0.00      0.00      0.00

     XDM     stress (kbar)      0.00      0.00      0.00
                                0.00      0.00      0.00
                                0.00      0.00      0.00

     dft-nl  stress (kbar)      0.00      0.00      0.00
                                0.00      0.00      0.00
                                0.00      0.00      0.00

     TS-vdW  stress (kbar)      0.00      0.00      0.00
                                0.00      0.00      0.00
                                0.00      0.00      0.00

     MDB     stress (kbar)      0.00      0.00      0.00
                                0.00      0.00      0.00
                                0.00      0.00      0.00

     3D-RISM stress (kbar)      0.00      0.00      0.00
                                0.00      0.00      0.00
                                0.00      0.00      0.00


     Writing all to output data dir ./tmp/caces3.save/ :
     XML data file, charge density, pseudopotentials, collected wavefunctions

     init_run     :     95.20s CPU     96.50s WALL (       2 calls)
     electrons    :  25599.43s CPU  25318.64s WALL (       9 calls)
     update_pot   :      2.18s CPU      2.00s WALL (       7 calls)
     forces       :     32.93s CPU     26.61s WALL (       9 calls)
     stress       :    248.60s CPU    207.62s WALL (       9 calls)

     Called by init_run:
     wfcinit      :     91.32s CPU     92.09s WALL (       2 calls)
     wfcinit:atom :      0.39s CPU      0.32s WALL (     168 calls)
     wfcinit:wfcr :     88.40s CPU     89.57s WALL (     168 calls)
     potinit      :      0.88s CPU      0.90s WALL (       2 calls)
     hinit0       :      0.72s CPU      0.75s WALL (       2 calls)

     Called by electrons:
     c_bands      :  24792.80s CPU  24632.27s WALL (     132 calls)
     sum_band     :    651.09s CPU    522.97s WALL (     132 calls)
     v_of_rho     :     14.35s CPU     13.89s WALL (     138 calls)
     v_h          :      0.80s CPU      0.85s WALL (     138 calls)
     v_xc         :     15.16s CPU     14.69s WALL (     156 calls)
     newd         :    129.67s CPU    139.57s WALL (     138 calls)
     PAW_pot      :     17.57s CPU     17.40s WALL (     145 calls)
     mix_rho      :      3.31s CPU      2.76s WALL (     132 calls)

     Called by c_bands:
     init_us_2    :     84.65s CPU     65.40s WALL (   24444 calls)
     cegterg      :  23342.56s CPU  23230.68s WALL (   11088 calls)

     Called by sum_band:
     sum_band:wei :      1.50s CPU      1.48s WALL (     132 calls)
     sum_band:loo :    481.05s CPU    358.09s WALL (     132 calls)
     sum_band:buf :      5.74s CPU      4.29s WALL (   11088 calls)
     sum_band:ini :     41.56s CPU     28.98s WALL (   11088 calls)
     sum_band:cal :     47.85s CPU     28.88s WALL (   11676 calls)
     sum_band:bec :      0.79s CPU      0.56s WALL (   11676 calls)
     addusdens    :    134.33s CPU    135.40s WALL (     132 calls)
                                        0.00s GPU  (     132 calls)
     addusd:skk   :      0.23s CPU      0.55s WALL (     396 calls)
                                        0.00s GPU  (     396 calls)

     Called by *egterg:
     cdiaghg      :   1658.98s CPU   1540.18s WALL (   57691 calls)
     cegterg:over :   8264.19s CPU   8144.72s WALL (   47443 calls)
     cegterg:upda :    496.48s CPU    783.35s WALL (   47443 calls)
     cegterg:last :    570.83s CPU    824.61s WALL (   28278 calls)
     h_psi        :   4420.18s CPU   4383.19s WALL (   58699 calls)
     s_psi        :    237.85s CPU    297.43s WALL (   58699 calls)
     g_psi        :     17.43s CPU     12.07s WALL (   47443 calls)

     Called by h_psi:
     h_psi:calbec :   1250.55s CPU   1203.06s WALL (   58699 calls)
     vloc_psi     :   2655.92s CPU   2337.63s WALL (   58699 calls)
     add_vuspsi   :    504.20s CPU    833.00s WALL (   58699 calls)

     General routines
     calbec       :   1336.41s CPU   1258.06s WALL (   74155 calls)
     fft          :      8.88s CPU      8.98s WALL (    2011 calls)
     ffts         :      0.80s CPU      0.74s WALL (     270 calls)
     fftw         :   2626.24s CPU   2279.96s WALL ( 1841390 calls)
     interpolate  :      1.02s CPU      1.08s WALL (     138 calls)

     Parallel routines

     PAW routines
     PAW_pot      :     17.57s CPU     17.40s WALL (     145 calls)
     PAW_symme    :      0.28s CPU      0.23s WALL (     277 calls)

     PWSCF        :      7h13m CPU      7h 7m WALL


   This run was terminated on:  16:17:38  19Apr2025            

=------------------------------------------------------------------------------=
   JOB DONE.
=------------------------------------------------------------------------------=
