
     Program PWSCF v.7.3.1 starts on 31Mar2025 at 13:51:30 

     This program is part of the open-source Quantum ESPRESSO suite
     for quantum simulation of materials; please cite
         "P. Giannozzi et al., J. Phys.:Condens. Matter 21 395502 (2009);
         "P. Giannozzi et al., J. Phys.:Condens. Matter 29 465901 (2017);
         "P. Giannozzi et al., J. Chem. Phys. 152 154105 (2020);
          URL http://www.quantum-espresso.org", 
     in publications or presentations arising from this work. More details at
     http://www.quantum-espresso.org/quote

     Parallel version (MPI), running on     8 processors

     MPI processes distributed on     1 nodes
     57812 MiB available memory on the printing compute node when the environment starts

     Waiting for input...
     Reading input from standard input

     Current dimensions of program PWSCF are:
     Max number of different atomic species (ntypx) = 10
     Max number of k-points (npk) =  40000
     Max angular momentum in pseudopotentials (lmaxx) =  4
     file Ag.pbe-spn-kjpaw_psl.1.0.0.UPF: wavefunction(s)  4S 5S 4P 4D renormalized
     file In.pbe-dn-kjpaw_psl.1.0.0.UPF: wavefunction(s)  5S 5P 4D renormalized
     file F.pbe-n-kjpaw_psl.1.0.0.UPF: wavefunction(s)  2S 2P renormalized

     R & G space division:  proc/nbgrp/npool/nimage =       8
     Subspace diagonalization in iterative solution of the eigenvalue problem:
     a serial algorithm will be used


     Parallelization info
     --------------------
     sticks:   dense  smooth     PW     G-vecs:    dense   smooth      PW
     Min         284     141     42                10224     3610     586
     Max         286     143     43                10225     3612     589
     Sum        2285    1137    341                81793    28887    4697

     Using Slab Decomposition



     bravais-lattice index     =            0
     lattice parameter (alat)  =       6.6896  a.u.
     unit-cell volume          =     299.3687 (a.u.)^3
     number of atoms/cell      =            5
     number of atomic types    =            3
     number of electrons       =        53.00
     number of Kohn-Sham states=           32
     kinetic-energy cutoff     =      80.0000  Ry
     charge density cutoff     =     640.0000  Ry
     scf convergence threshold =      1.0E-10
     mixing beta               =       0.3000
     number of iterations used =            8  plain     mixing
     energy convergence thresh.=      1.0E-06
     force convergence thresh. =      1.0E-05
     press convergence thresh. =      5.0E-01
     Exchange-correlation= SLA  PW   PBX  PBC
                           (   1   4   3   4   0   0   0)
     nstep                     =           50


     celldm(1)=   6.689630  celldm(2)=   0.000000  celldm(3)=   0.000000
     celldm(4)=   0.000000  celldm(5)=   0.000000  celldm(6)=   0.000000

     crystal axes: (cart. coord. in units of alat)
               a(1) = (   1.000000   0.000000   0.000000 )  
               a(2) = (   0.000000   1.000000   0.000000 )  
               a(3) = (   0.000000   0.000000   1.000000 )  

     reciprocal axes: (cart. coord. in units 2 pi/alat)
               b(1) = (  1.000000  0.000000  0.000000 )  
               b(2) = (  0.000000  1.000000  0.000000 )  
               b(3) = (  0.000000  0.000000  1.000000 )  


     PseudoPot. # 1 for Ag read from file:
     /home/administrator/Downloads/BURAI/BURAI1.3/pseudopot/Ag.pbe-spn-kjpaw_psl.1.0.0.UPF
     MD5 check sum: 4bb6ed288085a1d2cdc62c229711c47d
     Pseudo is Projector augmented-wave + core cor, Zval = 19.0
     Generated using "atomic" code by A. Dal Corso  v.5.1.2
     Shape of augmentation charge: PSQ
     Using radial grid of 1237 points,  6 beta functions with: 
                l(1) =   0
                l(2) =   0
                l(3) =   1
                l(4) =   1
                l(5) =   2
                l(6) =   2
     Q(r) pseudized with 0 coefficients 


     PseudoPot. # 2 for In read from file:
     /home/administrator/Downloads/BURAI/BURAI1.3/pseudopot/In.pbe-dn-kjpaw_psl.1.0.0.UPF
     MD5 check sum: fd1a0e78b31ae68673c860ae14814025
     Pseudo is Projector augmented-wave + core cor, Zval = 13.0
     Generated using "atomic" code by A. Dal Corso  v.5.1.2
     Shape of augmentation charge: PSQ
     Using radial grid of 1241 points,  6 beta functions with: 
                l(1) =   0
                l(2) =   0
                l(3) =   1
                l(4) =   1
                l(5) =   2
                l(6) =   2
     Q(r) pseudized with 0 coefficients 


     PseudoPot. # 3 for F  read from file:
     /home/administrator/Downloads/BURAI/BURAI1.3/pseudopot/F.pbe-n-kjpaw_psl.1.0.0.UPF
     MD5 check sum: de2194216b7114fcf395f1df79715f8b
     Pseudo is Projector augmented-wave + core cor, Zval =  7.0
     Generated using "atomic" code by A. Dal Corso  v.5.1.2
     Shape of augmentation charge: PSQ
     Using radial grid of 1105 points,  4 beta functions with: 
                l(1) =   0
                l(2) =   0
                l(3) =   1
                l(4) =   1
     Q(r) pseudized with 0 coefficients 


     atomic species   valence    mass     pseudopotential
     Ag               19.00   107.86820     Ag( 1.00)
     In               13.00   114.81800     In( 1.00)
     F                 7.00    18.99800     F ( 1.00)

     No symmetry found


                                    s                        frac. trans.

      isym =  1     identity                                     

 cryst.   s( 1) = (     1          0          0      )
                  (     0          1          0      )
                  (     0          0          1      )

 cart.    s( 1) = (  1.0000000  0.0000000  0.0000000 )
                  (  0.0000000  1.0000000  0.0000000 )
                  (  0.0000000  0.0000000  1.0000000 )


   Cartesian axes

     site n.     atom                  positions (alat units)
         1        Ag     tau(   1) = (   0.0000000   0.0000000   0.0000000  )
         2        In     tau(   2) = (   0.5000000   0.5000000   0.5000000  )
         3        F      tau(   3) = (   0.5001000   0.5000000   0.0000000  )
         4        F      tau(   4) = (   0.0000000   0.5002000   0.5000000  )
         5        F      tau(   5) = (   0.5000000   0.0000000   0.5003000  )

   Crystallographic axes

     site n.     atom                  positions (cryst. coord.)
         1        Ag     tau(   1) = (  0.0000000  0.0000000  0.0000000  )
         2        In     tau(   2) = (  0.5000000  0.5000000  0.5000000  )
         3        F      tau(   3) = (  0.5001000  0.5000000  0.0000000  )
         4        F      tau(   4) = (  0.0000000  0.5002000  0.5000000  )
         5        F      tau(   5) = (  0.5000000  0.0000000  0.5003000  )

     number of k points=   112  Marzari-Vanderbilt smearing, width (Ry)=  0.0050
                       cart. coord. in units 2pi/alat
        k(    1) = (   0.0000000   0.0000000   0.0000000), wk =   0.0092593
        k(    2) = (   0.0000000   0.0000000   0.1666667), wk =   0.0185185
        k(    3) = (   0.0000000   0.0000000   0.3333333), wk =   0.0185185
        k(    4) = (   0.0000000   0.0000000  -0.5000000), wk =   0.0092593
        k(    5) = (   0.0000000   0.1666667   0.0000000), wk =   0.0185185
        k(    6) = (   0.0000000   0.1666667   0.1666667), wk =   0.0185185
        k(    7) = (   0.0000000   0.1666667   0.3333333), wk =   0.0185185
        k(    8) = (   0.0000000   0.1666667  -0.5000000), wk =   0.0185185
        k(    9) = (   0.0000000   0.1666667  -0.3333333), wk =   0.0185185
        k(   10) = (   0.0000000   0.1666667  -0.1666667), wk =   0.0185185
        k(   11) = (   0.0000000   0.3333333   0.0000000), wk =   0.0185185
        k(   12) = (   0.0000000   0.3333333   0.1666667), wk =   0.0185185
        k(   13) = (   0.0000000   0.3333333   0.3333333), wk =   0.0185185
        k(   14) = (   0.0000000   0.3333333  -0.5000000), wk =   0.0185185
        k(   15) = (   0.0000000   0.3333333  -0.3333333), wk =   0.0185185
        k(   16) = (   0.0000000   0.3333333  -0.1666667), wk =   0.0185185
        k(   17) = (   0.0000000  -0.5000000   0.0000000), wk =   0.0092593
        k(   18) = (   0.0000000  -0.5000000   0.1666667), wk =   0.0185185
        k(   19) = (   0.0000000  -0.5000000   0.3333333), wk =   0.0185185
        k(   20) = (   0.0000000  -0.5000000  -0.5000000), wk =   0.0092593
        k(   21) = (   0.1666667   0.0000000   0.0000000), wk =   0.0185185
        k(   22) = (   0.1666667   0.0000000   0.1666667), wk =   0.0185185
        k(   23) = (   0.1666667   0.0000000   0.3333333), wk =   0.0185185
        k(   24) = (   0.1666667   0.0000000  -0.5000000), wk =   0.0185185
        k(   25) = (   0.1666667   0.0000000  -0.3333333), wk =   0.0185185
        k(   26) = (   0.1666667   0.0000000  -0.1666667), wk =   0.0185185
        k(   27) = (   0.1666667   0.1666667   0.0000000), wk =   0.0185185
        k(   28) = (   0.1666667   0.1666667   0.1666667), wk =   0.0185185
        k(   29) = (   0.1666667   0.1666667   0.3333333), wk =   0.0185185
        k(   30) = (   0.1666667   0.1666667  -0.5000000), wk =   0.0185185
        k(   31) = (   0.1666667   0.1666667  -0.3333333), wk =   0.0185185
        k(   32) = (   0.1666667   0.1666667  -0.1666667), wk =   0.0185185
        k(   33) = (   0.1666667   0.3333333   0.0000000), wk =   0.0185185
        k(   34) = (   0.1666667   0.3333333   0.1666667), wk =   0.0185185
        k(   35) = (   0.1666667   0.3333333   0.3333333), wk =   0.0185185
        k(   36) = (   0.1666667   0.3333333  -0.5000000), wk =   0.0185185
        k(   37) = (   0.1666667   0.3333333  -0.3333333), wk =   0.0185185
        k(   38) = (   0.1666667   0.3333333  -0.1666667), wk =   0.0185185
        k(   39) = (   0.1666667  -0.5000000   0.0000000), wk =   0.0185185
        k(   40) = (   0.1666667  -0.5000000   0.1666667), wk =   0.0185185
        k(   41) = (   0.1666667  -0.5000000   0.3333333), wk =   0.0185185
        k(   42) = (   0.1666667  -0.5000000  -0.5000000), wk =   0.0185185
        k(   43) = (   0.1666667  -0.5000000  -0.3333333), wk =   0.0185185
        k(   44) = (   0.1666667  -0.5000000  -0.1666667), wk =   0.0185185
        k(   45) = (   0.1666667  -0.3333333   0.0000000), wk =   0.0185185
        k(   46) = (   0.1666667  -0.3333333   0.1666667), wk =   0.0185185
        k(   47) = (   0.1666667  -0.3333333   0.3333333), wk =   0.0185185
        k(   48) = (   0.1666667  -0.3333333  -0.5000000), wk =   0.0185185
        k(   49) = (   0.1666667  -0.3333333  -0.3333333), wk =   0.0185185
        k(   50) = (   0.1666667  -0.3333333  -0.1666667), wk =   0.0185185
        k(   51) = (   0.1666667  -0.1666667   0.0000000), wk =   0.0185185
        k(   52) = (   0.1666667  -0.1666667   0.1666667), wk =   0.0185185
        k(   53) = (   0.1666667  -0.1666667   0.3333333), wk =   0.0185185
        k(   54) = (   0.1666667  -0.1666667  -0.5000000), wk =   0.0185185
        k(   55) = (   0.1666667  -0.1666667  -0.3333333), wk =   0.0185185
        k(   56) = (   0.1666667  -0.1666667  -0.1666667), wk =   0.0185185
        k(   57) = (   0.3333333   0.0000000   0.0000000), wk =   0.0185185
        k(   58) = (   0.3333333   0.0000000   0.1666667), wk =   0.0185185
        k(   59) = (   0.3333333   0.0000000   0.3333333), wk =   0.0185185
        k(   60) = (   0.3333333   0.0000000  -0.5000000), wk =   0.0185185
        k(   61) = (   0.3333333   0.0000000  -0.3333333), wk =   0.0185185
        k(   62) = (   0.3333333   0.0000000  -0.1666667), wk =   0.0185185
        k(   63) = (   0.3333333   0.1666667   0.0000000), wk =   0.0185185
        k(   64) = (   0.3333333   0.1666667   0.1666667), wk =   0.0185185
        k(   65) = (   0.3333333   0.1666667   0.3333333), wk =   0.0185185
        k(   66) = (   0.3333333   0.1666667  -0.5000000), wk =   0.0185185
        k(   67) = (   0.3333333   0.1666667  -0.3333333), wk =   0.0185185
        k(   68) = (   0.3333333   0.1666667  -0.1666667), wk =   0.0185185
        k(   69) = (   0.3333333   0.3333333   0.0000000), wk =   0.0185185
        k(   70) = (   0.3333333   0.3333333   0.1666667), wk =   0.0185185
        k(   71) = (   0.3333333   0.3333333   0.3333333), wk =   0.0185185
        k(   72) = (   0.3333333   0.3333333  -0.5000000), wk =   0.0185185
        k(   73) = (   0.3333333   0.3333333  -0.3333333), wk =   0.0185185
        k(   74) = (   0.3333333   0.3333333  -0.1666667), wk =   0.0185185
        k(   75) = (   0.3333333  -0.5000000   0.0000000), wk =   0.0185185
        k(   76) = (   0.3333333  -0.5000000   0.1666667), wk =   0.0185185
        k(   77) = (   0.3333333  -0.5000000   0.3333333), wk =   0.0185185
        k(   78) = (   0.3333333  -0.5000000  -0.5000000), wk =   0.0185185
        k(   79) = (   0.3333333  -0.5000000  -0.3333333), wk =   0.0185185
        k(   80) = (   0.3333333  -0.5000000  -0.1666667), wk =   0.0185185
        k(   81) = (   0.3333333  -0.3333333   0.0000000), wk =   0.0185185
        k(   82) = (   0.3333333  -0.3333333   0.1666667), wk =   0.0185185
        k(   83) = (   0.3333333  -0.3333333   0.3333333), wk =   0.0185185
        k(   84) = (   0.3333333  -0.3333333  -0.5000000), wk =   0.0185185
        k(   85) = (   0.3333333  -0.3333333  -0.3333333), wk =   0.0185185
        k(   86) = (   0.3333333  -0.3333333  -0.1666667), wk =   0.0185185
        k(   87) = (   0.3333333  -0.1666667   0.0000000), wk =   0.0185185
        k(   88) = (   0.3333333  -0.1666667   0.1666667), wk =   0.0185185
        k(   89) = (   0.3333333  -0.1666667   0.3333333), wk =   0.0185185
        k(   90) = (   0.3333333  -0.1666667  -0.5000000), wk =   0.0185185
        k(   91) = (   0.3333333  -0.1666667  -0.3333333), wk =   0.0185185
        k(   92) = (   0.3333333  -0.1666667  -0.1666667), wk =   0.0185185
        k(   93) = (  -0.5000000   0.0000000   0.0000000), wk =   0.0092593
        k(   94) = (  -0.5000000   0.0000000   0.1666667), wk =   0.0185185
        k(   95) = (  -0.5000000   0.0000000   0.3333333), wk =   0.0185185
        k(   96) = (  -0.5000000   0.0000000  -0.5000000), wk =   0.0092593
        k(   97) = (  -0.5000000   0.1666667   0.0000000), wk =   0.0185185
        k(   98) = (  -0.5000000   0.1666667   0.1666667), wk =   0.0185185
        k(   99) = (  -0.5000000   0.1666667   0.3333333), wk =   0.0185185
        k(  100) = (  -0.5000000   0.1666667  -0.5000000), wk =   0.0185185
        k(  101) = (  -0.5000000   0.1666667  -0.3333333), wk =   0.0185185
        k(  102) = (  -0.5000000   0.1666667  -0.1666667), wk =   0.0185185
        k(  103) = (  -0.5000000   0.3333333   0.0000000), wk =   0.0185185
        k(  104) = (  -0.5000000   0.3333333   0.1666667), wk =   0.0185185
        k(  105) = (  -0.5000000   0.3333333   0.3333333), wk =   0.0185185
        k(  106) = (  -0.5000000   0.3333333  -0.5000000), wk =   0.0185185
        k(  107) = (  -0.5000000   0.3333333  -0.3333333), wk =   0.0185185
        k(  108) = (  -0.5000000   0.3333333  -0.1666667), wk =   0.0185185
        k(  109) = (  -0.5000000  -0.5000000   0.0000000), wk =   0.0092593
        k(  110) = (  -0.5000000  -0.5000000   0.1666667), wk =   0.0185185
        k(  111) = (  -0.5000000  -0.5000000   0.3333333), wk =   0.0185185
        k(  112) = (  -0.5000000  -0.5000000  -0.5000000), wk =   0.0092593

                       cryst. coord.
        k(    1) = (   0.0000000   0.0000000   0.0000000), wk =   0.0092593
        k(    2) = (   0.0000000   0.0000000   0.1666667), wk =   0.0185185
        k(    3) = (   0.0000000   0.0000000   0.3333333), wk =   0.0185185
        k(    4) = (   0.0000000   0.0000000  -0.5000000), wk =   0.0092593
        k(    5) = (   0.0000000   0.1666667   0.0000000), wk =   0.0185185
        k(    6) = (   0.0000000   0.1666667   0.1666667), wk =   0.0185185
        k(    7) = (   0.0000000   0.1666667   0.3333333), wk =   0.0185185
        k(    8) = (   0.0000000   0.1666667  -0.5000000), wk =   0.0185185
        k(    9) = (   0.0000000   0.1666667  -0.3333333), wk =   0.0185185
        k(   10) = (   0.0000000   0.1666667  -0.1666667), wk =   0.0185185
        k(   11) = (   0.0000000   0.3333333   0.0000000), wk =   0.0185185
        k(   12) = (   0.0000000   0.3333333   0.1666667), wk =   0.0185185
        k(   13) = (   0.0000000   0.3333333   0.3333333), wk =   0.0185185
        k(   14) = (   0.0000000   0.3333333  -0.5000000), wk =   0.0185185
        k(   15) = (   0.0000000   0.3333333  -0.3333333), wk =   0.0185185
        k(   16) = (   0.0000000   0.3333333  -0.1666667), wk =   0.0185185
        k(   17) = (   0.0000000  -0.5000000   0.0000000), wk =   0.0092593
        k(   18) = (   0.0000000  -0.5000000   0.1666667), wk =   0.0185185
        k(   19) = (   0.0000000  -0.5000000   0.3333333), wk =   0.0185185
        k(   20) = (   0.0000000  -0.5000000  -0.5000000), wk =   0.0092593
        k(   21) = (   0.1666667   0.0000000   0.0000000), wk =   0.0185185
        k(   22) = (   0.1666667   0.0000000   0.1666667), wk =   0.0185185
        k(   23) = (   0.1666667   0.0000000   0.3333333), wk =   0.0185185
        k(   24) = (   0.1666667   0.0000000  -0.5000000), wk =   0.0185185
        k(   25) = (   0.1666667   0.0000000  -0.3333333), wk =   0.0185185
        k(   26) = (   0.1666667   0.0000000  -0.1666667), wk =   0.0185185
        k(   27) = (   0.1666667   0.1666667   0.0000000), wk =   0.0185185
        k(   28) = (   0.1666667   0.1666667   0.1666667), wk =   0.0185185
        k(   29) = (   0.1666667   0.1666667   0.3333333), wk =   0.0185185
        k(   30) = (   0.1666667   0.1666667  -0.5000000), wk =   0.0185185
        k(   31) = (   0.1666667   0.1666667  -0.3333333), wk =   0.0185185
        k(   32) = (   0.1666667   0.1666667  -0.1666667), wk =   0.0185185
        k(   33) = (   0.1666667   0.3333333   0.0000000), wk =   0.0185185
        k(   34) = (   0.1666667   0.3333333   0.1666667), wk =   0.0185185
        k(   35) = (   0.1666667   0.3333333   0.3333333), wk =   0.0185185
        k(   36) = (   0.1666667   0.3333333  -0.5000000), wk =   0.0185185
        k(   37) = (   0.1666667   0.3333333  -0.3333333), wk =   0.0185185
        k(   38) = (   0.1666667   0.3333333  -0.1666667), wk =   0.0185185
        k(   39) = (   0.1666667  -0.5000000   0.0000000), wk =   0.0185185
        k(   40) = (   0.1666667  -0.5000000   0.1666667), wk =   0.0185185
        k(   41) = (   0.1666667  -0.5000000   0.3333333), wk =   0.0185185
        k(   42) = (   0.1666667  -0.5000000  -0.5000000), wk =   0.0185185
        k(   43) = (   0.1666667  -0.5000000  -0.3333333), wk =   0.0185185
        k(   44) = (   0.1666667  -0.5000000  -0.1666667), wk =   0.0185185
        k(   45) = (   0.1666667  -0.3333333   0.0000000), wk =   0.0185185
        k(   46) = (   0.1666667  -0.3333333   0.1666667), wk =   0.0185185
        k(   47) = (   0.1666667  -0.3333333   0.3333333), wk =   0.0185185
        k(   48) = (   0.1666667  -0.3333333  -0.5000000), wk =   0.0185185
        k(   49) = (   0.1666667  -0.3333333  -0.3333333), wk =   0.0185185
        k(   50) = (   0.1666667  -0.3333333  -0.1666667), wk =   0.0185185
        k(   51) = (   0.1666667  -0.1666667   0.0000000), wk =   0.0185185
        k(   52) = (   0.1666667  -0.1666667   0.1666667), wk =   0.0185185
        k(   53) = (   0.1666667  -0.1666667   0.3333333), wk =   0.0185185
        k(   54) = (   0.1666667  -0.1666667  -0.5000000), wk =   0.0185185
        k(   55) = (   0.1666667  -0.1666667  -0.3333333), wk =   0.0185185
        k(   56) = (   0.1666667  -0.1666667  -0.1666667), wk =   0.0185185
        k(   57) = (   0.3333333   0.0000000   0.0000000), wk =   0.0185185
        k(   58) = (   0.3333333   0.0000000   0.1666667), wk =   0.0185185
        k(   59) = (   0.3333333   0.0000000   0.3333333), wk =   0.0185185
        k(   60) = (   0.3333333   0.0000000  -0.5000000), wk =   0.0185185
        k(   61) = (   0.3333333   0.0000000  -0.3333333), wk =   0.0185185
        k(   62) = (   0.3333333   0.0000000  -0.1666667), wk =   0.0185185
        k(   63) = (   0.3333333   0.1666667   0.0000000), wk =   0.0185185
        k(   64) = (   0.3333333   0.1666667   0.1666667), wk =   0.0185185
        k(   65) = (   0.3333333   0.1666667   0.3333333), wk =   0.0185185
        k(   66) = (   0.3333333   0.1666667  -0.5000000), wk =   0.0185185
        k(   67) = (   0.3333333   0.1666667  -0.3333333), wk =   0.0185185
        k(   68) = (   0.3333333   0.1666667  -0.1666667), wk =   0.0185185
        k(   69) = (   0.3333333   0.3333333   0.0000000), wk =   0.0185185
        k(   70) = (   0.3333333   0.3333333   0.1666667), wk =   0.0185185
        k(   71) = (   0.3333333   0.3333333   0.3333333), wk =   0.0185185
        k(   72) = (   0.3333333   0.3333333  -0.5000000), wk =   0.0185185
        k(   73) = (   0.3333333   0.3333333  -0.3333333), wk =   0.0185185
        k(   74) = (   0.3333333   0.3333333  -0.1666667), wk =   0.0185185
        k(   75) = (   0.3333333  -0.5000000   0.0000000), wk =   0.0185185
        k(   76) = (   0.3333333  -0.5000000   0.1666667), wk =   0.0185185
        k(   77) = (   0.3333333  -0.5000000   0.3333333), wk =   0.0185185
        k(   78) = (   0.3333333  -0.5000000  -0.5000000), wk =   0.0185185
        k(   79) = (   0.3333333  -0.5000000  -0.3333333), wk =   0.0185185
        k(   80) = (   0.3333333  -0.5000000  -0.1666667), wk =   0.0185185
        k(   81) = (   0.3333333  -0.3333333   0.0000000), wk =   0.0185185
        k(   82) = (   0.3333333  -0.3333333   0.1666667), wk =   0.0185185
        k(   83) = (   0.3333333  -0.3333333   0.3333333), wk =   0.0185185
        k(   84) = (   0.3333333  -0.3333333  -0.5000000), wk =   0.0185185
        k(   85) = (   0.3333333  -0.3333333  -0.3333333), wk =   0.0185185
        k(   86) = (   0.3333333  -0.3333333  -0.1666667), wk =   0.0185185
        k(   87) = (   0.3333333  -0.1666667   0.0000000), wk =   0.0185185
        k(   88) = (   0.3333333  -0.1666667   0.1666667), wk =   0.0185185
        k(   89) = (   0.3333333  -0.1666667   0.3333333), wk =   0.0185185
        k(   90) = (   0.3333333  -0.1666667  -0.5000000), wk =   0.0185185
        k(   91) = (   0.3333333  -0.1666667  -0.3333333), wk =   0.0185185
        k(   92) = (   0.3333333  -0.1666667  -0.1666667), wk =   0.0185185
        k(   93) = (  -0.5000000   0.0000000   0.0000000), wk =   0.0092593
        k(   94) = (  -0.5000000   0.0000000   0.1666667), wk =   0.0185185
        k(   95) = (  -0.5000000   0.0000000   0.3333333), wk =   0.0185185
        k(   96) = (  -0.5000000   0.0000000  -0.5000000), wk =   0.0092593
        k(   97) = (  -0.5000000   0.1666667   0.0000000), wk =   0.0185185
        k(   98) = (  -0.5000000   0.1666667   0.1666667), wk =   0.0185185
        k(   99) = (  -0.5000000   0.1666667   0.3333333), wk =   0.0185185
        k(  100) = (  -0.5000000   0.1666667  -0.5000000), wk =   0.0185185
        k(  101) = (  -0.5000000   0.1666667  -0.3333333), wk =   0.0185185
        k(  102) = (  -0.5000000   0.1666667  -0.1666667), wk =   0.0185185
        k(  103) = (  -0.5000000   0.3333333   0.0000000), wk =   0.0185185
        k(  104) = (  -0.5000000   0.3333333   0.1666667), wk =   0.0185185
        k(  105) = (  -0.5000000   0.3333333   0.3333333), wk =   0.0185185
        k(  106) = (  -0.5000000   0.3333333  -0.5000000), wk =   0.0185185
        k(  107) = (  -0.5000000   0.3333333  -0.3333333), wk =   0.0185185
        k(  108) = (  -0.5000000   0.3333333  -0.1666667), wk =   0.0185185
        k(  109) = (  -0.5000000  -0.5000000   0.0000000), wk =   0.0092593
        k(  110) = (  -0.5000000  -0.5000000   0.1666667), wk =   0.0185185
        k(  111) = (  -0.5000000  -0.5000000   0.3333333), wk =   0.0185185
        k(  112) = (  -0.5000000  -0.5000000  -0.5000000), wk =   0.0092593

     Dense  grid:    81793 G-vectors     FFT dimensions: (  54,  54,  54)

     Smooth grid:    28887 G-vectors     FFT dimensions: (  40,  40,  40)

     Dynamical RAM for                 wfc:       0.22 MB

     Dynamical RAM for     wfc (w. buffer):      24.94 MB

     Dynamical RAM for           str. fact:       0.47 MB

     Dynamical RAM for           local pot:       0.00 MB

     Dynamical RAM for          nlocal pot:       0.41 MB

     Dynamical RAM for                qrad:      12.18 MB

     Dynamical RAM for          rho,v,vnew:       0.94 MB

     Dynamical RAM for               rhoin:       0.31 MB

     Dynamical RAM for            rho*nmix:       2.50 MB

     Dynamical RAM for           G-vectors:       0.61 MB

     Dynamical RAM for          h,s,v(r/c):       0.19 MB

     Dynamical RAM for          <psi|beta>:       0.03 MB

     Dynamical RAM for                 psi:       0.44 MB

     Dynamical RAM for                hpsi:       0.44 MB

     Dynamical RAM for                spsi:       0.44 MB

     Dynamical RAM for      wfcinit/wfcrot:       0.47 MB

     Dynamical RAM for           addusdens:      29.49 MB

     Dynamical RAM for          addusforce:      30.20 MB

     Dynamical RAM for         addusstress:      31.36 MB

     Estimated static dynamical RAM per process >      41.26 MB

     Estimated max dynamical RAM per process >      75.12 MB

     Estimated total dynamical RAM >     600.94 MB

     Check: negative core charge=   -0.000003

     Initial potential from superposition of free atoms

     starting charge      52.9960, renormalised to      53.0000
     Starting wfcs are   31 randomized atomic wfcs +    1 random wfcs
     Checking if some PAW data can be deallocated... 
       PAW data deallocated on    6 nodes for type:  1
       PAW data deallocated on    6 nodes for type:  2
       PAW data deallocated on    4 nodes for type:  3

     total cpu time spent up to now is       51.0 secs

     Self-consistent Calculation

     iteration #  1     ecut=    80.00 Ry     beta= 0.30
     Davidson diagonalization with overlap

---- Real-time Memory Report at c_bands before calling an iterative solver
            82 MiB given to the printing process from OS
             0 MiB allocation reported by mallinfo(arena+hblkhd)
         57299 MiB available memory on the node where the printing process lives
------------------
     ethr =  1.00E-02,  avg # of iterations =  4.2

     total cpu time spent up to now is      272.1 secs

     total energy              =   -1145.40559795 Ry
     estimated scf accuracy    <       0.61614674 Ry

     iteration #  2     ecut=    80.00 Ry     beta= 0.30
     Davidson diagonalization with overlap

---- Real-time Memory Report at c_bands before calling an iterative solver
           108 MiB given to the printing process from OS
             0 MiB allocation reported by mallinfo(arena+hblkhd)
         57120 MiB available memory on the node where the printing process lives
------------------
     ethr =  1.16E-03,  avg # of iterations =  2.0

     total cpu time spent up to now is      412.1 secs

     total energy              =   -1145.44314077 Ry
     estimated scf accuracy    <       0.07377484 Ry

     iteration #  3     ecut=    80.00 Ry     beta= 0.30
     Davidson diagonalization with overlap

---- Real-time Memory Report at c_bands before calling an iterative solver
           108 MiB given to the printing process from OS
             0 MiB allocation reported by mallinfo(arena+hblkhd)
         57124 MiB available memory on the node where the printing process lives
------------------
     ethr =  1.39E-04,  avg # of iterations =  3.7

     total cpu time spent up to now is      603.6 secs

     total energy              =   -1145.45039727 Ry
     estimated scf accuracy    <       0.01052726 Ry

     iteration #  4     ecut=    80.00 Ry     beta= 0.30
     Davidson diagonalization with overlap

---- Real-time Memory Report at c_bands before calling an iterative solver
           108 MiB given to the printing process from OS
             0 MiB allocation reported by mallinfo(arena+hblkhd)
         57123 MiB available memory on the node where the printing process lives
------------------
     ethr =  1.99E-05,  avg # of iterations =  2.6

     total cpu time spent up to now is      760.2 secs

     total energy              =   -1145.45123238 Ry
     estimated scf accuracy    <       0.00025773 Ry

     iteration #  5     ecut=    80.00 Ry     beta= 0.30
     Davidson diagonalization with overlap

---- Real-time Memory Report at c_bands before calling an iterative solver
           108 MiB given to the printing process from OS
             0 MiB allocation reported by mallinfo(arena+hblkhd)
         57124 MiB available memory on the node where the printing process lives
------------------
     c_bands:  1 eigenvalues not converged
     c_bands:  1 eigenvalues not converged
     ethr =  4.86E-07,  avg # of iterations =  4.5

     total cpu time spent up to now is      994.1 secs

     total energy              =   -1145.45127508 Ry
     estimated scf accuracy    <       0.00007009 Ry

     iteration #  6     ecut=    80.00 Ry     beta= 0.30
     Davidson diagonalization with overlap

---- Real-time Memory Report at c_bands before calling an iterative solver
           108 MiB given to the printing process from OS
             0 MiB allocation reported by mallinfo(arena+hblkhd)
         57124 MiB available memory on the node where the printing process lives
------------------
     ethr =  1.32E-07,  avg # of iterations =  2.2

     total cpu time spent up to now is     1138.1 secs

     total energy              =   -1145.45128503 Ry
     estimated scf accuracy    <       0.00000715 Ry

     iteration #  7     ecut=    80.00 Ry     beta= 0.30
     Davidson diagonalization with overlap

---- Real-time Memory Report at c_bands before calling an iterative solver
           109 MiB given to the printing process from OS
             0 MiB allocation reported by mallinfo(arena+hblkhd)
         57122 MiB available memory on the node where the printing process lives
------------------
     ethr =  1.35E-08,  avg # of iterations =  2.0

     total cpu time spent up to now is     1280.1 secs

     total energy              =   -1145.45128583 Ry
     estimated scf accuracy    <       0.00000151 Ry

     iteration #  8     ecut=    80.00 Ry     beta= 0.30
     Davidson diagonalization with overlap

---- Real-time Memory Report at c_bands before calling an iterative solver
           109 MiB given to the printing process from OS
             0 MiB allocation reported by mallinfo(arena+hblkhd)
         57118 MiB available memory on the node where the printing process lives
------------------
     ethr =  2.86E-09,  avg # of iterations =  2.0

     total cpu time spent up to now is     1421.9 secs

     total energy              =   -1145.45128606 Ry
     estimated scf accuracy    <       0.00000006 Ry

     iteration #  9     ecut=    80.00 Ry     beta= 0.30
     Davidson diagonalization with overlap

---- Real-time Memory Report at c_bands before calling an iterative solver
           109 MiB given to the printing process from OS
             0 MiB allocation reported by mallinfo(arena+hblkhd)
         57109 MiB available memory on the node where the printing process lives
------------------
     ethr =  1.17E-10,  avg # of iterations =  3.3

     total cpu time spent up to now is     1615.7 secs

     total energy              =   -1145.45128607 Ry
     estimated scf accuracy    <       0.00000002 Ry

     iteration # 10     ecut=    80.00 Ry     beta= 0.30
     Davidson diagonalization with overlap

---- Real-time Memory Report at c_bands before calling an iterative solver
           109 MiB given to the printing process from OS
             0 MiB allocation reported by mallinfo(arena+hblkhd)
         57110 MiB available memory on the node where the printing process lives
------------------
     ethr =  4.47E-11,  avg # of iterations =  2.0

     total cpu time spent up to now is     1759.0 secs

     total energy              =   -1145.45128607 Ry
     estimated scf accuracy    <          1.6E-09 Ry

     iteration # 11     ecut=    80.00 Ry     beta= 0.30
     Davidson diagonalization with overlap

---- Real-time Memory Report at c_bands before calling an iterative solver
           109 MiB given to the printing process from OS
             0 MiB allocation reported by mallinfo(arena+hblkhd)
         57111 MiB available memory on the node where the printing process lives
------------------
     ethr =  2.97E-12,  avg # of iterations =  2.3

     total cpu time spent up to now is     1912.0 secs

     total energy              =   -1145.45128607 Ry
     estimated scf accuracy    <          2.1E-10 Ry

     iteration # 12     ecut=    80.00 Ry     beta= 0.30
     Davidson diagonalization with overlap

---- Real-time Memory Report at c_bands before calling an iterative solver
           109 MiB given to the printing process from OS
             0 MiB allocation reported by mallinfo(arena+hblkhd)
         57113 MiB available memory on the node where the printing process lives
------------------
     ethr =  3.89E-13,  avg # of iterations =  2.3

     total cpu time spent up to now is     2061.3 secs

     End of self-consistent calculation

          k = 0.0000 0.0000 0.0000 (  3695 PWs)   bands (ev):

   -72.3453 -35.9002 -35.9002 -35.9002 -10.3334  -9.3810  -9.3810   3.7110
     3.7111   3.7111   6.0697   6.0697   7.3729   7.3729   7.3729  10.8757
    10.8757  10.8757  10.9386  10.9386  10.9386  14.4476  14.4476  15.0207
    15.0207  15.0207  17.2595  25.4366  29.7213  29.7213  29.7213  30.7653

     occupation numbers 
     1.0000   1.0000   1.0000   1.0000   1.0000   1.0000   1.0000   1.0000
     1.0000   1.0000   1.0000   1.0000   1.0000   1.0000   1.0000   1.0000
     1.0000   1.0000   1.0000   1.0000   1.0000   1.0000   1.0000   1.0000
     1.0000   1.0000   1.0000   0.0000   0.0000   0.0000   0.0000   0.0000

          k = 0.0000 0.0000 0.1667 (  3635 PWs)   bands (ev):

   -72.3452 -35.9018 -35.8998 -35.8998 -10.2240  -9.3741  -9.2955   3.5690
     3.5690   3.7156   4.1289   6.0715   7.4742   7.4742   8.7338  10.6079
    10.8202  10.8202  11.0226  11.0226  11.0527  14.6088  14.7524  15.0147
    15.2424  15.2424  17.9711  25.6832  27.8798  29.5870  29.5870  31.0877

     occupation numbers 
     1.0000   1.0000   1.0000   1.0000   1.0000   1.0000   1.0000   1.0000
     1.0000   1.0000   1.0000   1.0000   1.0000   1.0000   1.0000   1.0000
     1.0000   1.0000   1.0000   1.0000   1.0000   1.0000   1.0000   1.0000
     1.0000   1.0000   1.0000   0.0000   0.0000   0.0000   0.0000   0.0000

          k = 0.0000 0.0000 0.3333 (  3619 PWs)   bands (ev):

   -72.3451 -35.9058 -35.8994 -35.8994 -10.0358  -9.3602  -9.0557   2.1286
     3.3159   3.3159   3.7248   6.0752   7.6261   7.6261   9.0327  10.1658
    10.6889  10.6889  11.2616  11.2616  11.8559  14.9481  15.0027  15.2662
    15.6702  15.6702  19.6587  24.3942  27.6799  29.2973  29.2973  31.8948

     occupation numbers 
     1.0000   1.0000   1.0000   1.0000   1.0000   1.0000   1.0000   1.0000
     1.0000   1.0000   1.0000   1.0000   1.0000   1.0000   1.0000   1.0000
     1.0000   1.0000   1.0000   1.0000   1.0000   1.0000   1.0000   1.0000
     1.0000   1.0000   1.0000   0.0000   0.0000   0.0000   0.0000   0.0000

          k = 0.0000 0.0000-0.5000 (  3588 PWs)   bands (ev):

   -72.3450 -35.9078 -35.8991 -35.8991  -9.9602  -9.3533  -8.8934   1.3307
     3.2014   3.2014   3.7294   6.0772   7.6812   7.6812   8.9296   9.9752
    10.6332  10.6332  11.3928  11.3928  12.3062  14.9967  15.1267  15.4917
    15.8793  15.8793  21.3853  22.4301  28.3226  29.1404  29.1404  32.2416

     occupation numbers 
     1.0000   1.0000   1.0000   1.0000   1.0000   1.0000   1.0000   1.0000
     1.0000   1.0000   1.0000   1.0000   1.0000   1.0000   1.0000   1.0000
     1.0000   1.0000   1.0000   1.0000   1.0000   1.0000   1.0000   1.0000
     1.0000   1.0000   0.0734   0.0000   0.0000   0.0000   0.0000   0.0000

          k = 0.0000 0.1667 0.0000 (  3635 PWs)   bands (ev):

   -72.3452 -35.9018 -35.8998 -35.8998 -10.2240  -9.3741  -9.2955   3.5690
     3.5690   3.7156   4.1289   6.0715   7.4742   7.4742   8.7338  10.6079
    10.8202  10.8202  11.0224  11.0226  11.0529  14.6088  14.7524  15.0147
    15.2424  15.2424  17.9711  25.6832  27.8798  29.5870  29.5870  31.0877

     occupation numbers 
     1.0000   1.0000   1.0000   1.0000   1.0000   1.0000   1.0000   1.0000
     1.0000   1.0000   1.0000   1.0000   1.0000   1.0000   1.0000   1.0000
     1.0000   1.0000   1.0000   1.0000   1.0000   1.0000   1.0000   1.0000
     1.0000   1.0000   1.0000   0.0000   0.0000   0.0000   0.0000   0.0000

          k = 0.0000 0.1667 0.1667 (  3627 PWs)   bands (ev):

   -72.3452 -35.9018 -35.9017 -35.8995 -10.1099  -9.3234  -9.2589   3.4081
     3.5693   3.5712   3.7160   4.7375   7.5980   8.2043   9.3155  10.4028
    10.4755  10.8925  10.9077  10.9579  11.8687  14.8116  14.8230  15.2257
    15.2528  15.4023  18.6043  25.8850  27.3866  28.6063  29.4110  32.1557

     occupation numbers 
     1.0000   1.0000   1.0000   1.0000   1.0000   1.0000   1.0000   1.0000
     1.0000   1.0000   1.0000   1.0000   1.0000   1.0000   1.0000   1.0000
     1.0000   1.0000   1.0000   1.0000   1.0000   1.0000   1.0000   1.0000
     1.0000   1.0000   1.0000   0.0000   0.0000   0.0000   0.0000   0.0000

          k = 0.0000 0.1667 0.3333 (  3612 PWs)   bands (ev):

   -72.3450 -35.9056 -35.9014 -35.8992  -9.9196  -9.2903  -9.0410   2.0531
     3.1314   3.3123   3.5728   4.4531   7.7931   8.5160   9.3827  10.1802
    10.3776  10.7689  11.1482  11.2029  12.8506  15.0756  15.2336  15.2343
    15.6364  15.6720  20.1029  24.6187  27.2213  28.5733  29.0375  32.1178

     occupation numbers 
     1.0000   1.0000   1.0000   1.0000   1.0000   1.0000   1.0000   1.0000
     1.0000   1.0000   1.0000   1.0000   1.0000   1.0000   1.0000   1.0000
     1.0000   1.0000   1.0000   1.0000   1.0000   1.0000   1.0000   1.0000
     1.0000   1.0000   1.0000   0.0000   0.0000   0.0000   0.0000   0.0000

          k = 0.0000 0.1667-0.5000 (  3614 PWs)   bands (ev):

   -72.3450 -35.9076 -35.9012 -35.8990  -9.8470  -9.2809  -8.8779   1.2846
     3.0063   3.1959   3.5740   4.4340   7.8688   8.6544   9.1584  10.0417
    10.4035  10.7050  11.2678  11.4298  13.2814  15.2320  15.2621  15.4980
    15.6529  15.8827  21.5280  22.9103  27.7511  28.5048  28.8390  31.5694

     occupation numbers 
     1.0000   1.0000   1.0000   1.0000   1.0000   1.0000   1.0000   1.0000
     1.0000   1.0000   1.0000   1.0000   1.0000   1.0000   1.0000   1.0000
     1.0000   1.0000   1.0000   1.0000   1.0000   1.0000   1.0000   1.0000
     1.0000   1.0000   0.0000   0.0000   0.0000   0.0000   0.0000   0.0000

          k = 0.0000 0.1667-0.3333 (  3612 PWs)   bands (ev):

   -72.3450 -35.9056 -35.9014 -35.8992  -9.9196  -9.2903  -9.0410   2.0531
     3.1314   3.3123   3.5728   4.4531   7.7931   8.5160   9.3827  10.1802
    10.3776  10.7689  11.1482  11.2029  12.8506  15.0756  15.2336  15.2343
    15.6364  15.6720  20.1029  24.6187  27.2213  28.5733  29.0375  32.1165

     occupation numbers 
     1.0000   1.0000   1.0000   1.0000   1.0000   1.0000   1.0000   1.0000
     1.0000   1.0000   1.0000   1.0000   1.0000   1.0000   1.0000   1.0000
     1.0000   1.0000   1.0000   1.0000   1.0000   1.0000   1.0000   1.0000
     1.0000   1.0000   1.0000   0.0000   0.0000   0.0000   0.0000   0.0000

          k = 0.0000 0.1667-0.1667 (  3627 PWs)   bands (ev):

   -72.3452 -35.9018 -35.9017 -35.8995 -10.1099  -9.3234  -9.2589   3.4081
     3.5693   3.5713   3.7160   4.7375   7.5980   8.2043   9.3155  10.4028
    10.4755  10.8925  10.9077  10.9579  11.8687  14.8116  14.8230  15.2257
    15.2528  15.4023  18.6043  25.8850  27.3866  28.6063  29.4110  32.1556

     occupation numbers 
     1.0000   1.0000   1.0000   1.0000   1.0000   1.0000   1.0000   1.0000
     1.0000   1.0000   1.0000   1.0000   1.0000   1.0000   1.0000   1.0000
     1.0000   1.0000   1.0000   1.0000   1.0000   1.0000   1.0000   1.0000
     1.0000   1.0000   1.0000   0.0000   0.0000   0.0000   0.0000   0.0000

          k = 0.0000 0.3333 0.0000 (  3619 PWs)   bands (ev):

   -72.3451 -35.9058 -35.8994 -35.8994 -10.0358  -9.3602  -9.0557   2.1286
     3.3159   3.3159   3.7248   6.0752   7.6261   7.6261   9.0327  10.1658
    10.6888  10.6888  11.2616  11.2616  11.8559  14.9481  15.0027  15.2663
    15.6702  15.6702  19.6587  24.3942  27.6799  29.2973  29.2973  31.8948

     occupation numbers 
     1.0000   1.0000   1.0000   1.0000   1.0000   1.0000   1.0000   1.0000
     1.0000   1.0000   1.0000   1.0000   1.0000   1.0000   1.0000   1.0000
     1.0000   1.0000   1.0000   1.0000   1.0000   1.0000   1.0000   1.0000
     1.0000   1.0000   1.0000   0.0000   0.0000   0.0000   0.0000   0.0000

          k = 0.0000 0.3333 0.1667 (  3612 PWs)   bands (ev):

   -72.3450 -35.9056 -35.9013 -35.8992  -9.9196  -9.2903  -9.0410   2.0531
     3.1314   3.3123   3.5728   4.4531   7.7931   8.5160   9.3827  10.1802
    10.3776  10.7689  11.1482  11.2029  12.8506  15.0756  15.2336  15.2343
    15.6364  15.6720  20.1029  24.6187  27.2213  28.5733  29.0375  32.0456

     occupation numbers 
     1.0000   1.0000   1.0000   1.0000   1.0000   1.0000   1.0000   1.0000
     1.0000   1.0000   1.0000   1.0000   1.0000   1.0000   1.0000   1.0000
     1.0000   1.0000   1.0000   1.0000   1.0000   1.0000   1.0000   1.0000
     1.0000   1.0000   1.0000   0.0000   0.0000   0.0000   0.0000   0.0000

          k = 0.0000 0.3333 0.3333 (  3604 PWs)   bands (ev):

   -72.3449 -35.9052 -35.9052 -35.8988  -9.7489  -9.0748  -8.9856   1.5734
     2.7853   2.9976   3.3043   3.3057   8.0743   9.0459   9.8795   9.9089
    10.1516  10.9329  10.9694  11.4661  14.2851  15.1324  15.4540  15.5556
    15.6623  15.6909  21.1330  25.1375  25.3223  28.5114  28.7134  31.0078

     occupation numbers 
     1.0000   1.0000   1.0000   1.0000   1.0000   1.0000   1.0000   1.0000
     1.0000   1.0000   1.0000   1.0000   1.0000   1.0000   1.0000   1.0000
     1.0000   1.0000   1.0000   1.0000   1.0000   1.0000   1.0000   1.0000
     1.0000   1.0000   1.0016   0.0000   0.0000   0.0000   0.0000   0.0000

          k = 0.0000 0.3333-0.5000 (  3604 PWs)   bands (ev):

   -72.3448 -35.9071 -35.9050 -35.8987  -9.6960  -9.0207  -8.8466   1.0537
     2.6578   2.7011   3.1849   3.3014   8.1927   9.3388   9.5823  10.0440
    10.0989  10.8660  11.0514  11.6722  14.8738  15.2598  15.4134  15.6031
    15.6803  15.8921  21.9958  23.9273  25.6488  28.2452  28.6780  30.5853

     occupation numbers 
     1.0000   1.0000   1.0000   1.0000   1.0000   1.0000   1.0000   1.0000
     1.0000   1.0000   1.0000   1.0000   1.0000   1.0000   1.0000   1.0000
     1.0000   1.0000   1.0000   1.0000   1.0000   1.0000   1.0000   1.0000
     1.0000   1.0000   0.0000   0.0000   0.0000   0.0000   0.0000   0.0000

          k = 0.0000 0.3333-0.3333 (  3604 PWs)   bands (ev):

   -72.3449 -35.9052 -35.9052 -35.8988  -9.7489  -9.0748  -8.9856   1.5734
     2.7853   2.9976   3.3043   3.3058   8.0743   9.0459   9.8795   9.9090
    10.1516  10.9329  10.9694  11.4661  14.2851  15.1324  15.4540  15.5556
    15.6623  15.6909  21.1330  25.1375  25.3223  28.5114  28.7134  31.0078

     occupation numbers 
     1.0000   1.0000   1.0000   1.0000   1.0000   1.0000   1.0000   1.0000
     1.0000   1.0000   1.0000   1.0000   1.0000   1.0000   1.0000   1.0000
     1.0000   1.0000   1.0000   1.0000   1.0000   1.0000   1.0000   1.0000
     1.0000   1.0000   1.0016   0.0000   0.0000   0.0000   0.0000   0.0000

          k = 0.0000 0.3333-0.1667 (  3612 PWs)   bands (ev):

   -72.3450 -35.9056 -35.9013 -35.8992  -9.9196  -9.2903  -9.0410   2.0531
     3.1314   3.3123   3.5728   4.4531   7.7931   8.5160   9.3827  10.1802
    10.3776  10.7689  11.1482  11.2029  12.8506  15.0756  15.2336  15.2343
    15.6364  15.6720  20.1029  24.6187  27.2213  28.5733  29.0375  32.1155

     occupation numbers 
     1.0000   1.0000   1.0000   1.0000   1.0000   1.0000   1.0000   1.0000
     1.0000   1.0000   1.0000   1.0000   1.0000   1.0000   1.0000   1.0000
     1.0000   1.0000   1.0000   1.0000   1.0000   1.0000   1.0000   1.0000
     1.0000   1.0000   1.0000   0.0000   0.0000   0.0000   0.0000   0.0000

          k = 0.0000-0.5000 0.0000 (  3588 PWs)   bands (ev):

   -72.3450 -35.9078 -35.8991 -35.8991  -9.9602  -9.3533  -8.8934   1.3307
     3.2014   3.2014   3.7294   6.0772   7.6812   7.6812   8.9296   9.9752
    10.6332  10.6332  11.3929  11.3929  12.3062  14.9967  15.1267  15.4917
    15.8793  15.8793  21.3853  22.4301  28.3226  29.1404  29.1404  32.2417

     occupation numbers 
     1.0000   1.0000   1.0000   1.0000   1.0000   1.0000   1.0000   1.0000
     1.0000   1.0000   1.0000   1.0000   1.0000   1.0000   1.0000   1.0000
     1.0000   1.0000   1.0000   1.0000   1.0000   1.0000   1.0000   1.0000
     1.0000   1.0000   0.0734   0.0000   0.0000   0.0000   0.0000   0.0000

          k = 0.0000-0.5000 0.1667 (  3614 PWs)   bands (ev):

   -72.3450 -35.9076 -35.9012 -35.8990  -9.8470  -9.2809  -8.8779   1.2846
     3.0063   3.1959   3.5740   4.4340   7.8688   8.6544   9.1584  10.0417
    10.4035  10.7050  11.2678  11.4298  13.2814  15.2320  15.2621  15.4980
    15.6529  15.8827  21.5280  22.9103  27.7511  28.5048  28.8390  31.5693

     occupation numbers 
     1.0000   1.0000   1.0000   1.0000   1.0000   1.0000   1.0000   1.0000
     1.0000   1.0000   1.0000   1.0000   1.0000   1.0000   1.0000   1.0000
     1.0000   1.0000   1.0000   1.0000   1.0000   1.0000   1.0000   1.0000
     1.0000   1.0000   0.0000   0.0000   0.0000   0.0000   0.0000   0.0000

          k = 0.0000-0.5000 0.3333 (  3604 PWs)   bands (ev):

   -72.3448 -35.9071 -35.9050 -35.8987  -9.6960  -9.0207  -8.8466   1.0537
     2.6579   2.7010   3.1849   3.3014   8.1927   9.3388   9.5823  10.0440
    10.0989  10.8660  11.0514  11.6722  14.8738  15.2598  15.4134  15.6031
    15.6803  15.8921  21.9958  23.9273  25.6488  28.2452  28.6780  30.5853

     occupation numbers 
     1.0000   1.0000   1.0000   1.0000   1.0000   1.0000   1.0000   1.0000
     1.0000   1.0000   1.0000   1.0000   1.0000   1.0000   1.0000   1.0000
     1.0000   1.0000   1.0000   1.0000   1.0000   1.0000   1.0000   1.0000
     1.0000   1.0000   0.0000   0.0000   0.0000   0.0000   0.0000   0.0000

          k = 0.0000-0.5000-0.5000 (  3628 PWs)   bands (ev):

   -72.3448 -35.9070 -35.9070 -35.8986  -9.6548  -8.8308  -8.8308   0.7610
     2.1928   2.4998   3.1793   3.1794   8.3333   9.6297   9.8880   9.8891
     9.8897  10.9557  10.9557  11.8608  15.0797  15.4078  15.5695  15.7264
    15.8982  15.8982  22.4835  24.5126  24.5126  27.9519  28.5470  30.1759

     occupation numbers 
     1.0000   1.0000   1.0000   1.0000   1.0000   1.0000   1.0000   1.0000
     1.0000   1.0000   1.0000   1.0000   1.0000   1.0000   1.0000   1.0000
     1.0000   1.0000   1.0000   1.0000   1.0000   1.0000   1.0000   1.0000
     1.0000   1.0000   0.0000   0.0000   0.0000   0.0000   0.0000   0.0000

          k = 0.1667 0.0000 0.0000 (  3635 PWs)   bands (ev):

   -72.3452 -35.9018 -35.8998 -35.8998 -10.2240  -9.3741  -9.2955   3.5690
     3.5690   3.7156   4.1289   6.0715   7.4742   7.4742   8.7338  10.6079
    10.8202  10.8202  11.0226  11.0226  11.0528  14.6088  14.7524  15.0147
    15.2424  15.2424  17.9711  25.6832  27.8798  29.5870  29.5870  31.0877

     occupation numbers 
     1.0000   1.0000   1.0000   1.0000   1.0000   1.0000   1.0000   1.0000
     1.0000   1.0000   1.0000   1.0000   1.0000   1.0000   1.0000   1.0000
     1.0000   1.0000   1.0000   1.0000   1.0000   1.0000   1.0000   1.0000
     1.0000   1.0000   1.0000   0.0000   0.0000   0.0000   0.0000   0.0000

          k = 0.1667 0.0000 0.1667 (  3627 PWs)   bands (ev):

   -72.3452 -35.9018 -35.9017 -35.8995 -10.1099  -9.3234  -9.2589   3.4082
     3.5693   3.5712   3.7160   4.7375   7.5980   8.2043   9.3155  10.4028
    10.4755  10.8925  10.9077  10.9579  11.8687  14.8116  14.8230  15.2257
    15.2528  15.4023  18.6043  25.8850  27.3866  28.6063  29.4110  32.1555

     occupation numbers 
     1.0000   1.0000   1.0000   1.0000   1.0000   1.0000   1.0000   1.0000
     1.0000   1.0000   1.0000   1.0000   1.0000   1.0000   1.0000   1.0000
     1.0000   1.0000   1.0000   1.0000   1.0000   1.0000   1.0000   1.0000
     1.0000   1.0000   1.0000   0.0000   0.0000   0.0000   0.0000   0.0000

          k = 0.1667 0.0000 0.3333 (  3612 PWs)   bands (ev):

   -72.3450 -35.9056 -35.9013 -35.8992  -9.9196  -9.2903  -9.0410   2.0531
     3.1314   3.3123   3.5728   4.4531   7.7931   8.5160   9.3827  10.1802
    10.3776  10.7689  11.1482  11.2029  12.8506  15.0756  15.2336  15.2343
    15.6364  15.6720  20.1029  24.6187  27.2213  28.5733  29.0375  32.1175

     occupation numbers 
     1.0000   1.0000   1.0000   1.0000   1.0000   1.0000   1.0000   1.0000
     1.0000   1.0000   1.0000   1.0000   1.0000   1.0000   1.0000   1.0000
     1.0000   1.0000   1.0000   1.0000   1.0000   1.0000   1.0000   1.0000
     1.0000   1.0000   1.0000   0.0000   0.0000   0.0000   0.0000   0.0000

          k = 0.1667 0.0000-0.5000 (  3614 PWs)   bands (ev):

   -72.3450 -35.9076 -35.9012 -35.8990  -9.8470  -9.2809  -8.8779   1.2846
     3.0063   3.1959   3.5740   4.4340   7.8688   8.6544   9.1584  10.0417
    10.4035  10.7050  11.2678  11.4298  13.2814  15.2320  15.2621  15.4980
    15.6529  15.8827  21.5280  22.9103  27.7511  28.5048  28.8390  31.5693

     occupation numbers 
     1.0000   1.0000   1.0000   1.0000   1.0000   1.0000   1.0000   1.0000
     1.0000   1.0000   1.0000   1.0000   1.0000   1.0000   1.0000   1.0000
     1.0000   1.0000   1.0000   1.0000   1.0000   1.0000   1.0000   1.0000
     1.0000   1.0000   0.0000   0.0000   0.0000   0.0000   0.0000   0.0000

          k = 0.1667 0.0000-0.3333 (  3612 PWs)   bands (ev):

   -72.3450 -35.9056 -35.9013 -35.8992  -9.9196  -9.2903  -9.0410   2.0531
     3.1314   3.3123   3.5728   4.4531   7.7931   8.5160   9.3827  10.1802
    10.3776  10.7689  11.1482  11.2029  12.8506  15.0756  15.2336  15.2343
    15.6364  15.6720  20.1029  24.6187  27.2213  28.5733  29.0375  32.1176

     occupation numbers 
     1.0000   1.0000   1.0000   1.0000   1.0000   1.0000   1.0000   1.0000
     1.0000   1.0000   1.0000   1.0000   1.0000   1.0000   1.0000   1.0000
     1.0000   1.0000   1.0000   1.0000   1.0000   1.0000   1.0000   1.0000
     1.0000   1.0000   1.0000   0.0000   0.0000   0.0000   0.0000   0.0000

          k = 0.1667 0.0000-0.1667 (  3627 PWs)   bands (ev):

   -72.3452 -35.9018 -35.9017 -35.8995 -10.1099  -9.3234  -9.2589   3.4082
     3.5693   3.5712   3.7160   4.7375   7.5980   8.2043   9.3155  10.4028
    10.4755  10.8925  10.9077  10.9579  11.8687  14.8116  14.8230  15.2257
    15.2528  15.4023  18.6043  25.8850  27.3866  28.6063  29.4110  32.1558

     occupation numbers 
     1.0000   1.0000   1.0000   1.0000   1.0000   1.0000   1.0000   1.0000
     1.0000   1.0000   1.0000   1.0000   1.0000   1.0000   1.0000   1.0000
     1.0000   1.0000   1.0000   1.0000   1.0000   1.0000   1.0000   1.0000
     1.0000   1.0000   1.0000   0.0000   0.0000   0.0000   0.0000   0.0000

          k = 0.1667 0.1667 0.0000 (  3627 PWs)   bands (ev):

   -72.3452 -35.9018 -35.9017 -35.8995 -10.1099  -9.3234  -9.2589   3.4082
     3.5693   3.5712   3.7160   4.7375   7.5980   8.2043   9.3155  10.4028
    10.4755  10.8925  10.9078  10.9579  11.8687  14.8116  14.8230  15.2257
    15.2528  15.4023  18.6043  25.8850  27.3866  28.6063  29.4110  32.1555

     occupation numbers 
     1.0000   1.0000   1.0000   1.0000   1.0000   1.0000   1.0000   1.0000
     1.0000   1.0000   1.0000   1.0000   1.0000   1.0000   1.0000   1.0000
     1.0000   1.0000   1.0000   1.0000   1.0000   1.0000   1.0000   1.0000
     1.0000   1.0000   1.0000   0.0000   0.0000   0.0000   0.0000   0.0000

          k = 0.1667 0.1667 0.1667 (  3620 PWs)   bands (ev):

   -72.3451 -35.9015 -35.9015 -35.9015  -9.9859  -9.2533  -9.2523   3.3943
     3.4101   3.4113   3.7392   3.7404   6.8069   9.4911   9.4952  10.0230
    10.5294  10.5315  11.1489  11.8423  11.8445  14.8638  14.8647  15.2247
    15.5009  15.5018  19.1700  25.9642  27.5542  27.5598  28.9975  32.6636

     occupation numbers 
     1.0000   1.0000   1.0000   1.0000   1.0000   1.0000   1.0000   1.0000
     1.0000   1.0000   1.0000   1.0000   1.0000   1.0000   1.0000   1.0000
     1.0000   1.0000   1.0000   1.0000   1.0000   1.0000   1.0000   1.0000
     1.0000   1.0000   1.0000   0.0000   0.0000   0.0000   0.0000   0.0000

          k = 0.1667 0.1667 0.3333 (  3623 PWs)   bands (ev):

   -72.3450 -35.9055 -35.9012 -35.9011  -9.7811  -9.2406  -9.0295   2.0020
     3.1167   3.1497   3.4164   3.7514   6.6848   9.5238   9.7414  10.1756
    10.2351  10.9016  11.3252  11.7665  13.1138  15.0325  15.1902  15.3511
    15.6263  15.7435  20.4983  24.7712  26.9050  28.0074  28.7170  31.9579

     occupation numbers 
     1.0000   1.0000   1.0000   1.0000   1.0000   1.0000   1.0000   1.0000
     1.0000   1.0000   1.0000   1.0000   1.0000   1.0000   1.0000   1.0000
     1.0000   1.0000   1.0000   1.0000   1.0000   1.0000   1.0000   1.0000
     1.0000   1.0000   1.0000   0.0000   0.0000   0.0000   0.0000   0.0000

          k = 0.1667 0.1667-0.5000 (  3608 PWs)   bands (ev):

   -72.3449 -35.9073 -35.9010 -35.9009  -9.7067  -9.2344  -8.8653   1.2481
     2.9864   3.0327   3.4169   3.7537   6.6938   9.3795   9.8041  10.1255
    10.2015  11.1793  11.5296  11.6364  13.6283  15.1186  15.4971  15.5568
    15.5944  15.7108  21.6356  23.3577  26.9823  28.3502  28.6917  31.1475

     occupation numbers 
     1.0000   1.0000   1.0000   1.0000   1.0000   1.0000   1.0000   1.0000
     1.0000   1.0000   1.0000   1.0000   1.0000   1.0000   1.0000   1.0000
     1.0000   1.0000   1.0000   1.0000   1.0000   1.0000   1.0000   1.0000
     1.0000   1.0000   0.0000   0.0000   0.0000   0.0000   0.0000   0.0000

          k = 0.1667 0.1667-0.3333 (  3623 PWs)   bands (ev):

   -72.3450 -35.9055 -35.9012 -35.9011  -9.7811  -9.2406  -9.0295   2.0020
     3.1167   3.1497   3.4164   3.7514   6.6848   9.5238   9.7414  10.1756
    10.2351  10.9016  11.3252  11.7665  13.1138  15.0325  15.1902  15.3511
    15.6263  15.7435  20.4983  24.7712  26.9050  28.0074  28.7170  31.9582

     occupation numbers 
     1.0000   1.0000   1.0000   1.0000   1.0000   1.0000   1.0000   1.0000
     1.0000   1.0000   1.0000   1.0000   1.0000   1.0000   1.0000   1.0000
     1.0000   1.0000   1.0000   1.0000   1.0000   1.0000   1.0000   1.0000
     1.0000   1.0000   1.0000   0.0000   0.0000   0.0000   0.0000   0.0000

          k = 0.1667 0.1667-0.1667 (  3620 PWs)   bands (ev):

   -72.3451 -35.9015 -35.9015 -35.9015  -9.9859  -9.2528  -9.2528   3.3943
     3.4107   3.4107   3.7398   3.7398   6.8069   9.4931   9.4931  10.0230
    10.5305  10.5305  11.1489  11.8434  11.8434  14.8642  14.8642  15.2247
    15.5013  15.5013  19.1700  25.9642  27.5570  27.5570  28.9975  32.6635

     occupation numbers 
     1.0000   1.0000   1.0000   1.0000   1.0000   1.0000   1.0000   1.0000
     1.0000   1.0000   1.0000   1.0000   1.0000   1.0000   1.0000   1.0000
     1.0000   1.0000   1.0000   1.0000   1.0000   1.0000   1.0000   1.0000
     1.0000   1.0000   1.0000   0.0000   0.0000   0.0000   0.0000   0.0000

          k = 0.1667 0.3333 0.0000 (  3612 PWs)   bands (ev):

   -72.3450 -35.9056 -35.9013 -35.8992  -9.9196  -9.2903  -9.0410   2.0531
     3.1314   3.3123   3.5728   4.4531   7.7931   8.5160   9.3827  10.1802
    10.3776  10.7689  11.1482  11.2029  12.8505  15.0756  15.2333  15.2346
    15.6364  15.6720  20.1029  24.6187  27.2213  28.5733  29.0375  32.1168

     occupation numbers 
     1.0000   1.0000   1.0000   1.0000   1.0000   1.0000   1.0000   1.0000
     1.0000   1.0000   1.0000   1.0000   1.0000   1.0000   1.0000   1.0000
     1.0000   1.0000   1.0000   1.0000   1.0000   1.0000   1.0000   1.0000
     1.0000   1.0000   1.0000   0.0000   0.0000   0.0000   0.0000   0.0000

          k = 0.1667 0.3333 0.1667 (  3623 PWs)   bands (ev):

   -72.3450 -35.9055 -35.9012 -35.9011  -9.7811  -9.2406  -9.0295   2.0020
     3.1167   3.1497   3.4164   3.7514   6.6848   9.5238   9.7414  10.1756
    10.2351  10.9016  11.3252  11.7665  13.1138  15.0325  15.1902  15.3511
    15.6263  15.7435  20.4983  24.7712  26.9050  28.0074  28.7170  31.9583

     occupation numbers 
     1.0000   1.0000   1.0000   1.0000   1.0000   1.0000   1.0000   1.0000
     1.0000   1.0000   1.0000   1.0000   1.0000   1.0000   1.0000   1.0000
     1.0000   1.0000   1.0000   1.0000   1.0000   1.0000   1.0000   1.0000
     1.0000   1.0000   1.0000   0.0000   0.0000   0.0000   0.0000   0.0000

          k = 0.1667 0.3333 0.3333 (  3620 PWs)   bands (ev):

   -72.3449 -35.9051 -35.9051 -35.9008  -9.5721  -9.0589  -8.9811   1.5766
     2.5999   2.8296   3.1330   3.1488   6.3225   9.7274  10.0922  10.2189
    10.5576  10.9410  11.5637  12.1729  14.2712  15.1371  15.2469  15.3635
    15.6986  15.7829  21.3446  24.8878  25.6790  27.7392  28.8875  30.8383

     occupation numbers 
     1.0000   1.0000   1.0000   1.0000   1.0000   1.0000   1.0000   1.0000
     1.0000   1.0000   1.0000   1.0000   1.0000   1.0000   1.0000   1.0000
     1.0000   1.0000   1.0000   1.0000   1.0000   1.0000   1.0000   1.0000
     1.0000   1.0000   0.3201   0.0000   0.0000   0.0000   0.0000   0.0000

          k = 0.1667 0.3333-0.5000 (  3606 PWs)   bands (ev):

   -72.3448 -35.9069 -35.9048 -35.9006  -9.5128  -9.0143  -8.8399   1.0473
     2.4121   2.6740   3.0170   3.1419   6.2767   9.7738  10.1012  10.1724
    10.7117  11.1497  11.7330  12.1382  14.8684  15.2338  15.3060  15.4880
    15.6629  15.7463  21.8766  24.3423  25.5721  27.9125  28.8218  30.3018

     occupation numbers 
     1.0000   1.0000   1.0000   1.0000   1.0000   1.0000   1.0000   1.0000
     1.0000   1.0000   1.0000   1.0000   1.0000   1.0000   1.0000   1.0000
     1.0000   1.0000   1.0000   1.0000   1.0000   1.0000   1.0000   1.0000
     1.0000   1.0000   0.0000   0.0000   0.0000   0.0000   0.0000   0.0000

          k = 0.1667 0.3333-0.3333 (  3620 PWs)   bands (ev):

   -72.3449 -35.9051 -35.9051 -35.9008  -9.5721  -9.0589  -8.9811   1.5766
     2.5999   2.8296   3.1330   3.1488   6.3225   9.7274  10.0922  10.2189
    10.5576  10.9410  11.5637  12.1729  14.2712  15.1371  15.2469  15.3635
    15.6986  15.7829  21.3446  24.8878  25.6790  27.7392  28.8875  30.8384

     occupation numbers 
     1.0000   1.0000   1.0000   1.0000   1.0000   1.0000   1.0000   1.0000
     1.0000   1.0000   1.0000   1.0000   1.0000   1.0000   1.0000   1.0000
     1.0000   1.0000   1.0000   1.0000   1.0000   1.0000   1.0000   1.0000
     1.0000   1.0000   0.3201   0.0000   0.0000   0.0000   0.0000   0.0000

          k = 0.1667 0.3333-0.1667 (  3623 PWs)   bands (ev):

   -72.3450 -35.9055 -35.9012 -35.9011  -9.7811  -9.2406  -9.0295   2.0020
     3.1167   3.1497   3.4164   3.7514   6.6848   9.5238   9.7414  10.1756
    10.2351  10.9016  11.3252  11.7665  13.1138  15.0325  15.1902  15.3511
    15.6263  15.7435  20.4983  24.7712  26.9050  28.0074  28.7170  31.9583

     occupation numbers 
     1.0000   1.0000   1.0000   1.0000   1.0000   1.0000   1.0000   1.0000
     1.0000   1.0000   1.0000   1.0000   1.0000   1.0000   1.0000   1.0000
     1.0000   1.0000   1.0000   1.0000   1.0000   1.0000   1.0000   1.0000
     1.0000   1.0000   1.0000   0.0000   0.0000   0.0000   0.0000   0.0000

          k = 0.1667-0.5000 0.0000 (  3614 PWs)   bands (ev):

   -72.3450 -35.9076 -35.9012 -35.8990  -9.8470  -9.2809  -8.8779   1.2846
     3.0063   3.1960   3.5740   4.4340   7.8688   8.6544   9.1584  10.0417
    10.4035  10.7050  11.2678  11.4298  13.2814  15.2320  15.2621  15.4980
    15.6529  15.8827  21.5280  22.9103  27.7511  28.5048  28.8390  31.5694

     occupation numbers 
     1.0000   1.0000   1.0000   1.0000   1.0000   1.0000   1.0000   1.0000
     1.0000   1.0000   1.0000   1.0000   1.0000   1.0000   1.0000   1.0000
     1.0000   1.0000   1.0000   1.0000   1.0000   1.0000   1.0000   1.0000
     1.0000   1.0000   0.0000   0.0000   0.0000   0.0000   0.0000   0.0000

          k = 0.1667-0.5000 0.1667 (  3608 PWs)   bands (ev):

   -72.3449 -35.9073 -35.9010 -35.9009  -9.7067  -9.2344  -8.8653   1.2481
     2.9864   3.0327   3.4169   3.7536   6.6938   9.3795   9.8041  10.1255
    10.2015  11.1793  11.5297  11.6364  13.6283  15.1186  15.4971  15.5568
    15.5944  15.7108  21.6356  23.3577  26.9823  28.3502  28.6917  31.1476

     occupation numbers 
     1.0000   1.0000   1.0000   1.0000   1.0000   1.0000   1.0000   1.0000
     1.0000   1.0000   1.0000   1.0000   1.0000   1.0000   1.0000   1.0000
     1.0000   1.0000   1.0000   1.0000   1.0000   1.0000   1.0000   1.0000
     1.0000   1.0000   0.0000   0.0000   0.0000   0.0000   0.0000   0.0000

          k = 0.1667-0.5000 0.3333 (  3606 PWs)   bands (ev):

   -72.3448 -35.9069 -35.9048 -35.9006  -9.5128  -9.0143  -8.8399   1.0473
     2.4122   2.6740   3.0170   3.1419   6.2767   9.7738  10.1012  10.1724
    10.7117  11.1497  11.7330  12.1382  14.8684  15.2338  15.3060  15.4880
    15.6629  15.7463  21.8766  24.3423  25.5721  27.9125  28.8218  30.3018

     occupation numbers 
     1.0000   1.0000   1.0000   1.0000   1.0000   1.0000   1.0000   1.0000
     1.0000   1.0000   1.0000   1.0000   1.0000   1.0000   1.0000   1.0000
     1.0000   1.0000   1.0000   1.0000   1.0000   1.0000   1.0000   1.0000
     1.0000   1.0000   0.0000   0.0000   0.0000   0.0000   0.0000   0.0000

          k = 0.1667-0.5000-0.5000 (  3616 PWs)   bands (ev):

   -72.3447 -35.9067 -35.9067 -35.9005  -9.4673  -8.8271  -8.8271   0.7628
     1.9648   2.5234   3.0185   3.0185   6.2201  10.0080  10.0932  10.0932
    11.1303  11.1303  11.9049  12.0888  15.0408  15.4206  15.5709  15.6495
    15.6495  15.6562  22.0107  24.9569  24.9569  27.7600  28.4732  30.1749

     occupation numbers 
     1.0000   1.0000   1.0000   1.0000   1.0000   1.0000   1.0000   1.0000
     1.0000   1.0000   1.0000   1.0000   1.0000   1.0000   1.0000   1.0000
     1.0000   1.0000   1.0000   1.0000   1.0000   1.0000   1.0000   1.0000
     1.0000   1.0000   0.0000   0.0000   0.0000   0.0000   0.0000   0.0000

          k = 0.1667-0.5000-0.3333 (  3606 PWs)   bands (ev):

   -72.3448 -35.9069 -35.9048 -35.9006  -9.5128  -9.0143  -8.8399   1.0473
     2.4122   2.6740   3.0170   3.1419   6.2767   9.7738  10.1012  10.1724
    10.7117  11.1497  11.7330  12.1382  14.8684  15.2338  15.3060  15.4880
    15.6629  15.7463  21.8766  24.3423  25.5721  27.9125  28.8218  30.3018

     occupation numbers 
     1.0000   1.0000   1.0000   1.0000   1.0000   1.0000   1.0000   1.0000
     1.0000   1.0000   1.0000   1.0000   1.0000   1.0000   1.0000   1.0000
     1.0000   1.0000   1.0000   1.0000   1.0000   1.0000   1.0000   1.0000
     1.0000   1.0000   0.0000   0.0000   0.0000   0.0000   0.0000   0.0000

          k = 0.1667-0.5000-0.1667 (  3608 PWs)   bands (ev):

   -72.3449 -35.9073 -35.9010 -35.9009  -9.7067  -9.2344  -8.8653   1.2481
     2.9864   3.0327   3.4169   3.7536   6.6938   9.3795   9.8041  10.1255
    10.2015  11.1793  11.5297  11.6364  13.6283  15.1186  15.4971  15.5568
    15.5944  15.7108  21.6356  23.3577  26.9823  28.3502  28.6917  31.1475

     occupation numbers 
     1.0000   1.0000   1.0000   1.0000   1.0000   1.0000   1.0000   1.0000
     1.0000   1.0000   1.0000   1.0000   1.0000   1.0000   1.0000   1.0000
     1.0000   1.0000   1.0000   1.0000   1.0000   1.0000   1.0000   1.0000
     1.0000   1.0000   0.0000   0.0000   0.0000   0.0000   0.0000   0.0000

          k = 0.1667-0.3333 0.0000 (  3612 PWs)   bands (ev):

   -72.3450 -35.9056 -35.9013 -35.8992  -9.9196  -9.2903  -9.0410   2.0531
     3.1314   3.3123   3.5728   4.4531   7.7931   8.5160   9.3827  10.1802
    10.3776  10.7689  11.1482  11.2029  12.8505  15.0756  15.2333  15.2346
    15.6364  15.6720  20.1029  24.6187  27.2213  28.5733  29.0375  32.1180

     occupation numbers 
     1.0000   1.0000   1.0000   1.0000   1.0000   1.0000   1.0000   1.0000
     1.0000   1.0000   1.0000   1.0000   1.0000   1.0000   1.0000   1.0000
     1.0000   1.0000   1.0000   1.0000   1.0000   1.0000   1.0000   1.0000
     1.0000   1.0000   1.0000   0.0000   0.0000   0.0000   0.0000   0.0000

          k = 0.1667-0.3333 0.1667 (  3623 PWs)   bands (ev):

   -72.3450 -35.9055 -35.9012 -35.9011  -9.7811  -9.2406  -9.0295   2.0020
     3.1167   3.1497   3.4164   3.7514   6.6848   9.5238   9.7414  10.1756
    10.2351  10.9016  11.3252  11.7665  13.1138  15.0325  15.1902  15.3511
    15.6263  15.7435  20.4983  24.7712  26.9050  28.0074  28.7170  31.9583

     occupation numbers 
     1.0000   1.0000   1.0000   1.0000   1.0000   1.0000   1.0000   1.0000
     1.0000   1.0000   1.0000   1.0000   1.0000   1.0000   1.0000   1.0000
     1.0000   1.0000   1.0000   1.0000   1.0000   1.0000   1.0000   1.0000
     1.0000   1.0000   1.0000   0.0000   0.0000   0.0000   0.0000   0.0000

          k = 0.1667-0.3333 0.3333 (  3620 PWs)   bands (ev):

   -72.3449 -35.9051 -35.9051 -35.9008  -9.5721  -9.0589  -8.9811   1.5766
     2.5999   2.8296   3.1330   3.1488   6.3225   9.7274  10.0922  10.2189
    10.5576  10.9410  11.5637  12.1729  14.2712  15.1371  15.2469  15.3635
    15.6986  15.7829  21.3446  24.8878  25.6790  27.7392  28.8875  30.8384

     occupation numbers 
     1.0000   1.0000   1.0000   1.0000   1.0000   1.0000   1.0000   1.0000
     1.0000   1.0000   1.0000   1.0000   1.0000   1.0000   1.0000   1.0000
     1.0000   1.0000   1.0000   1.0000   1.0000   1.0000   1.0000   1.0000
     1.0000   1.0000   0.3201   0.0000   0.0000   0.0000   0.0000   0.0000

          k = 0.1667-0.3333-0.5000 (  3606 PWs)   bands (ev):

   -72.3448 -35.9069 -35.9048 -35.9006  -9.5128  -9.0143  -8.8399   1.0473
     2.4121   2.6740   3.0170   3.1419   6.2767   9.7738  10.1012  10.1724
    10.7117  11.1497  11.7330  12.1382  14.8684  15.2338  15.3060  15.4880
    15.6629  15.7463  21.8766  24.3423  25.5721  27.9125  28.8218  30.3018

     occupation numbers 
     1.0000   1.0000   1.0000   1.0000   1.0000   1.0000   1.0000   1.0000
     1.0000   1.0000   1.0000   1.0000   1.0000   1.0000   1.0000   1.0000
     1.0000   1.0000   1.0000   1.0000   1.0000   1.0000   1.0000   1.0000
     1.0000   1.0000   0.0000   0.0000   0.0000   0.0000   0.0000   0.0000

          k = 0.1667-0.3333-0.3333 (  3620 PWs)   bands (ev):

   -72.3449 -35.9051 -35.9051 -35.9008  -9.5721  -9.0589  -8.9811   1.5766
     2.5999   2.8296   3.1330   3.1488   6.3225   9.7274  10.0922  10.2189
    10.5576  10.9410  11.5637  12.1729  14.2712  15.1371  15.2469  15.3635
    15.6986  15.7829  21.3446  24.8878  25.6790  27.7392  28.8875  30.8384

     occupation numbers 
     1.0000   1.0000   1.0000   1.0000   1.0000   1.0000   1.0000   1.0000
     1.0000   1.0000   1.0000   1.0000   1.0000   1.0000   1.0000   1.0000
     1.0000   1.0000   1.0000   1.0000   1.0000   1.0000   1.0000   1.0000
     1.0000   1.0000   0.3201   0.0000   0.0000   0.0000   0.0000   0.0000

          k = 0.1667-0.3333-0.1667 (  3623 PWs)   bands (ev):

   -72.3450 -35.9055 -35.9012 -35.9011  -9.7811  -9.2406  -9.0295   2.0020
     3.1167   3.1497   3.4164   3.7514   6.6848   9.5238   9.7414  10.1756
    10.2351  10.9016  11.3252  11.7665  13.1138  15.0325  15.1902  15.3511
    15.6263  15.7435  20.4983  24.7712  26.9050  28.0074  28.7170  31.9582

     occupation numbers 
     1.0000   1.0000   1.0000   1.0000   1.0000   1.0000   1.0000   1.0000
     1.0000   1.0000   1.0000   1.0000   1.0000   1.0000   1.0000   1.0000
     1.0000   1.0000   1.0000   1.0000   1.0000   1.0000   1.0000   1.0000
     1.0000   1.0000   1.0000   0.0000   0.0000   0.0000   0.0000   0.0000

          k = 0.1667-0.1667 0.0000 (  3627 PWs)   bands (ev):

   -72.3452 -35.9018 -35.9017 -35.8995 -10.1099  -9.3234  -9.2589   3.4082
     3.5693   3.5712   3.7160   4.7375   7.5980   8.2043   9.3155  10.4028
    10.4755  10.8925  10.9078  10.9579  11.8687  14.8116  14.8230  15.2257
    15.2528  15.4023  18.6043  25.8850  27.3866  28.6063  29.4110  32.1557

     occupation numbers 
     1.0000   1.0000   1.0000   1.0000   1.0000   1.0000   1.0000   1.0000
     1.0000   1.0000   1.0000   1.0000   1.0000   1.0000   1.0000   1.0000
     1.0000   1.0000   1.0000   1.0000   1.0000   1.0000   1.0000   1.0000
     1.0000   1.0000   1.0000   0.0000   0.0000   0.0000   0.0000   0.0000

          k = 0.1667-0.1667 0.1667 (  3620 PWs)   bands (ev):

   -72.3451 -35.9015 -35.9015 -35.9015  -9.9859  -9.2530  -9.2526   3.3943
     3.4105   3.4109   3.7396   3.7400   6.8069   9.4925   9.4938  10.0230
    10.5301  10.5308  11.1489  11.8430  11.8438  14.8641  14.8644  15.2247
    15.5012  15.5015  19.1700  25.9642  27.5561  27.5579  28.9975  32.6636

     occupation numbers 
     1.0000   1.0000   1.0000   1.0000   1.0000   1.0000   1.0000   1.0000
     1.0000   1.0000   1.0000   1.0000   1.0000   1.0000   1.0000   1.0000
     1.0000   1.0000   1.0000   1.0000   1.0000   1.0000   1.0000   1.0000
     1.0000   1.0000   1.0000   0.0000   0.0000   0.0000   0.0000   0.0000

          k = 0.1667-0.1667 0.3333 (  3623 PWs)   bands (ev):

   -72.3450 -35.9055 -35.9012 -35.9011  -9.7811  -9.2406  -9.0295   2.0020
     3.1166   3.1497   3.4164   3.7514   6.6848   9.5238   9.7414  10.1756
    10.2351  10.9016  11.3252  11.7665  13.1138  15.0325  15.1902  15.3511
    15.6263  15.7435  20.4983  24.7712  26.9050  28.0074  28.7170  31.9583

     occupation numbers 
     1.0000   1.0000   1.0000   1.0000   1.0000   1.0000   1.0000   1.0000
     1.0000   1.0000   1.0000   1.0000   1.0000   1.0000   1.0000   1.0000
     1.0000   1.0000   1.0000   1.0000   1.0000   1.0000   1.0000   1.0000
     1.0000   1.0000   1.0000   0.0000   0.0000   0.0000   0.0000   0.0000

          k = 0.1667-0.1667-0.5000 (  3608 PWs)   bands (ev):

   -72.3449 -35.9073 -35.9010 -35.9009  -9.7067  -9.2344  -8.8653   1.2481
     2.9864   3.0327   3.4169   3.7537   6.6938   9.3795   9.8041  10.1255
    10.2015  11.1793  11.5296  11.6364  13.6283  15.1186  15.4971  15.5568
    15.5944  15.7108  21.6356  23.3577  26.9823  28.3502  28.6917  31.1475

     occupation numbers 
     1.0000   1.0000   1.0000   1.0000   1.0000   1.0000   1.0000   1.0000
     1.0000   1.0000   1.0000   1.0000   1.0000   1.0000   1.0000   1.0000
     1.0000   1.0000   1.0000   1.0000   1.0000   1.0000   1.0000   1.0000
     1.0000   1.0000   0.0000   0.0000   0.0000   0.0000   0.0000   0.0000

          k = 0.1667-0.1667-0.3333 (  3623 PWs)   bands (ev):

   -72.3450 -35.9055 -35.9012 -35.9011  -9.7811  -9.2406  -9.0295   2.0020
     3.1167   3.1497   3.4164   3.7514   6.6848   9.5238   9.7414  10.1756
    10.2351  10.9016  11.3252  11.7665  13.1138  15.0325  15.1902  15.3511
    15.6263  15.7435  20.4983  24.7712  26.9050  28.0074  28.7170  31.9583

     occupation numbers 
     1.0000   1.0000   1.0000   1.0000   1.0000   1.0000   1.0000   1.0000
     1.0000   1.0000   1.0000   1.0000   1.0000   1.0000   1.0000   1.0000
     1.0000   1.0000   1.0000   1.0000   1.0000   1.0000   1.0000   1.0000
     1.0000   1.0000   1.0000   0.0000   0.0000   0.0000   0.0000   0.0000

          k = 0.1667-0.1667-0.1667 (  3620 PWs)   bands (ev):

   -72.3451 -35.9015 -35.9015 -35.9015  -9.9859  -9.2531  -9.2525   3.3943
     3.4103   3.4111   3.7394   3.7402   6.8069   9.4918   9.4945  10.0230
    10.5298  10.5312  11.1489  11.8427  11.8441  14.8639  14.8645  15.2247
    15.5010  15.5017  19.1700  25.9642  27.5552  27.5589  28.9975  32.6637

     occupation numbers 
     1.0000   1.0000   1.0000   1.0000   1.0000   1.0000   1.0000   1.0000
     1.0000   1.0000   1.0000   1.0000   1.0000   1.0000   1.0000   1.0000
     1.0000   1.0000   1.0000   1.0000   1.0000   1.0000   1.0000   1.0000
     1.0000   1.0000   1.0000   0.0000   0.0000   0.0000   0.0000   0.0000

          k = 0.3333 0.0000 0.0000 (  3619 PWs)   bands (ev):

   -72.3451 -35.9058 -35.8994 -35.8994 -10.0358  -9.3602  -9.0557   2.1286
     3.3159   3.3159   3.7248   6.0752   7.6261   7.6261   9.0326  10.1658
    10.6889  10.6889  11.2616  11.2616  11.8559  14.9481  15.0027  15.2662
    15.6702  15.6702  19.6587  24.3942  27.6799  29.2973  29.2973  31.8948

     occupation numbers 
     1.0000   1.0000   1.0000   1.0000   1.0000   1.0000   1.0000   1.0000
     1.0000   1.0000   1.0000   1.0000   1.0000   1.0000   1.0000   1.0000
     1.0000   1.0000   1.0000   1.0000   1.0000   1.0000   1.0000   1.0000
     1.0000   1.0000   1.0000   0.0000   0.0000   0.0000   0.0000   0.0000

          k = 0.3333 0.0000 0.1667 (  3612 PWs)   bands (ev):

   -72.3450 -35.9056 -35.9013 -35.8992  -9.9196  -9.2903  -9.0410   2.0531
     3.1314   3.3123   3.5728   4.4531   7.7931   8.5160   9.3827  10.1802
    10.3776  10.7689  11.1482  11.2029  12.8506  15.0756  15.2335  15.2344
    15.6364  15.6720  20.1029  24.6187  27.2213  28.5733  29.0375  32.0450

     occupation numbers 
     1.0000   1.0000   1.0000   1.0000   1.0000   1.0000   1.0000   1.0000
     1.0000   1.0000   1.0000   1.0000   1.0000   1.0000   1.0000   1.0000
     1.0000   1.0000   1.0000   1.0000   1.0000   1.0000   1.0000   1.0000
     1.0000   1.0000   1.0000   0.0000   0.0000   0.0000   0.0000   0.0000

          k = 0.3333 0.0000 0.3333 (  3604 PWs)   bands (ev):

   -72.3449 -35.9052 -35.9052 -35.8988  -9.7489  -9.0748  -8.9856   1.5734
     2.7853   2.9976   3.3043   3.3057   8.0743   9.0459   9.8794   9.9090
    10.1516  10.9329  10.9694  11.4661  14.2851  15.1324  15.4540  15.5556
    15.6623  15.6909  21.1330  25.1375  25.3223  28.5114  28.7134  31.0078

     occupation numbers 
     1.0000   1.0000   1.0000   1.0000   1.0000   1.0000   1.0000   1.0000
     1.0000   1.0000   1.0000   1.0000   1.0000   1.0000   1.0000   1.0000
     1.0000   1.0000   1.0000   1.0000   1.0000   1.0000   1.0000   1.0000
     1.0000   1.0000   1.0016   0.0000   0.0000   0.0000   0.0000   0.0000

          k = 0.3333 0.0000-0.5000 (  3604 PWs)   bands (ev):

   -72.3448 -35.9071 -35.9050 -35.8987  -9.6960  -9.0207  -8.8466   1.0537
     2.6579   2.7010   3.1849   3.3014   8.1927   9.3387   9.5823  10.0439
    10.0990  10.8660  11.0514  11.6722  14.8738  15.2598  15.4134  15.6031
    15.6803  15.8921  21.9958  23.9273  25.6488  28.2452  28.6780  30.5853

     occupation numbers 
     1.0000   1.0000   1.0000   1.0000   1.0000   1.0000   1.0000   1.0000
     1.0000   1.0000   1.0000   1.0000   1.0000   1.0000   1.0000   1.0000
     1.0000   1.0000   1.0000   1.0000   1.0000   1.0000   1.0000   1.0000
     1.0000   1.0000   0.0000   0.0000   0.0000   0.0000   0.0000   0.0000

          k = 0.3333 0.0000-0.3333 (  3604 PWs)   bands (ev):

   -72.3449 -35.9052 -35.9052 -35.8988  -9.7489  -9.0748  -8.9856   1.5734
     2.7853   2.9976   3.3043   3.3058   8.0743   9.0459   9.8794   9.9090
    10.1516  10.9329  10.9694  11.4661  14.2851  15.1324  15.4540  15.5556
    15.6623  15.6909  21.1330  25.1375  25.3223  28.5114  28.7134  31.0078

     occupation numbers 
     1.0000   1.0000   1.0000   1.0000   1.0000   1.0000   1.0000   1.0000
     1.0000   1.0000   1.0000   1.0000   1.0000   1.0000   1.0000   1.0000
     1.0000   1.0000   1.0000   1.0000   1.0000   1.0000   1.0000   1.0000
     1.0000   1.0000   1.0016   0.0000   0.0000   0.0000   0.0000   0.0000

          k = 0.3333 0.0000-0.1667 (  3612 PWs)   bands (ev):

   -72.3450 -35.9056 -35.9013 -35.8992  -9.9196  -9.2903  -9.0410   2.0531
     3.1314   3.3123   3.5728   4.4531   7.7931   8.5160   9.3827  10.1802
    10.3776  10.7689  11.1482  11.2029  12.8506  15.0756  15.2335  15.2344
    15.6364  15.6720  20.1029  24.6187  27.2213  28.5733  29.0375  32.1171

     occupation numbers 
     1.0000   1.0000   1.0000   1.0000   1.0000   1.0000   1.0000   1.0000
     1.0000   1.0000   1.0000   1.0000   1.0000   1.0000   1.0000   1.0000
     1.0000   1.0000   1.0000   1.0000   1.0000   1.0000   1.0000   1.0000
     1.0000   1.0000   1.0000   0.0000   0.0000   0.0000   0.0000   0.0000

          k = 0.3333 0.1667 0.0000 (  3612 PWs)   bands (ev):

   -72.3450 -35.9056 -35.9014 -35.8992  -9.9196  -9.2903  -9.0410   2.0531
     3.1314   3.3123   3.5728   4.4531   7.7931   8.5160   9.3827  10.1802
    10.3776  10.7689  11.1482  11.2029  12.8506  15.0756  15.2336  15.2343
    15.6364  15.6720  20.1029  24.6187  27.2213  28.5733  29.0375  32.1185

     occupation numbers 
     1.0000   1.0000   1.0000   1.0000   1.0000   1.0000   1.0000   1.0000
     1.0000   1.0000   1.0000   1.0000   1.0000   1.0000   1.0000   1.0000
     1.0000   1.0000   1.0000   1.0000   1.0000   1.0000   1.0000   1.0000
     1.0000   1.0000   1.0000   0.0000   0.0000   0.0000   0.0000   0.0000

          k = 0.3333 0.1667 0.1667 (  3623 PWs)   bands (ev):

   -72.3450 -35.9055 -35.9012 -35.9011  -9.7811  -9.2406  -9.0295   2.0020
     3.1167   3.1497   3.4164   3.7514   6.6848   9.5238   9.7414  10.1756
    10.2351  10.9016  11.3252  11.7665  13.1138  15.0325  15.1902  15.3511
    15.6263  15.7435  20.4983  24.7712  26.9050  28.0074  28.7170  31.9577

     occupation numbers 
     1.0000   1.0000   1.0000   1.0000   1.0000   1.0000   1.0000   1.0000
     1.0000   1.0000   1.0000   1.0000   1.0000   1.0000   1.0000   1.0000
     1.0000   1.0000   1.0000   1.0000   1.0000   1.0000   1.0000   1.0000
     1.0000   1.0000   1.0000   0.0000   0.0000   0.0000   0.0000   0.0000

          k = 0.3333 0.1667 0.3333 (  3620 PWs)   bands (ev):

   -72.3449 -35.9051 -35.9051 -35.9008  -9.5721  -9.0589  -8.9811   1.5766
     2.5999   2.8296   3.1330   3.1488   6.3225   9.7274  10.0922  10.2189
    10.5576  10.9410  11.5637  12.1729  14.2712  15.1371  15.2469  15.3635
    15.6986  15.7829  21.3446  24.8878  25.6790  27.7392  28.8875  30.8383

     occupation numbers 
     1.0000   1.0000   1.0000   1.0000   1.0000   1.0000   1.0000   1.0000
     1.0000   1.0000   1.0000   1.0000   1.0000   1.0000   1.0000   1.0000
     1.0000   1.0000   1.0000   1.0000   1.0000   1.0000   1.0000   1.0000
     1.0000   1.0000   0.3201   0.0000   0.0000   0.0000   0.0000   0.0000

          k = 0.3333 0.1667-0.5000 (  3606 PWs)   bands (ev):

   -72.3448 -35.9069 -35.9048 -35.9006  -9.5128  -9.0143  -8.8399   1.0473
     2.4122   2.6740   3.0170   3.1419   6.2767   9.7738  10.1012  10.1724
    10.7117  11.1497  11.7330  12.1382  14.8684  15.2338  15.3060  15.4880
    15.6629  15.7463  21.8766  24.3423  25.5721  27.9125  28.8218  30.3018

     occupation numbers 
     1.0000   1.0000   1.0000   1.0000   1.0000   1.0000   1.0000   1.0000
     1.0000   1.0000   1.0000   1.0000   1.0000   1.0000   1.0000   1.0000
     1.0000   1.0000   1.0000   1.0000   1.0000   1.0000   1.0000   1.0000
     1.0000   1.0000   0.0000   0.0000   0.0000   0.0000   0.0000   0.0000

          k = 0.3333 0.1667-0.3333 (  3620 PWs)   bands (ev):

   -72.3449 -35.9051 -35.9051 -35.9008  -9.5721  -9.0589  -8.9811   1.5766
     2.5999   2.8296   3.1330   3.1488   6.3225   9.7274  10.0922  10.2189
    10.5576  10.9410  11.5637  12.1729  14.2712  15.1371  15.2469  15.3635
    15.6986  15.7829  21.3446  24.8878  25.6790  27.7392  28.8875  30.8384

     occupation numbers 
     1.0000   1.0000   1.0000   1.0000   1.0000   1.0000   1.0000   1.0000
     1.0000   1.0000   1.0000   1.0000   1.0000   1.0000   1.0000   1.0000
     1.0000   1.0000   1.0000   1.0000   1.0000   1.0000   1.0000   1.0000
     1.0000   1.0000   0.3201   0.0000   0.0000   0.0000   0.0000   0.0000

          k = 0.3333 0.1667-0.1667 (  3623 PWs)   bands (ev):

   -72.3450 -35.9055 -35.9012 -35.9011  -9.7811  -9.2406  -9.0295   2.0020
     3.1167   3.1497   3.4164   3.7514   6.6848   9.5238   9.7414  10.1756
    10.2351  10.9016  11.3252  11.7665  13.1138  15.0325  15.1902  15.3511
    15.6263  15.7435  20.4983  24.7712  26.9050  28.0074  28.7170  31.9582

     occupation numbers 
     1.0000   1.0000   1.0000   1.0000   1.0000   1.0000   1.0000   1.0000
     1.0000   1.0000   1.0000   1.0000   1.0000   1.0000   1.0000   1.0000
     1.0000   1.0000   1.0000   1.0000   1.0000   1.0000   1.0000   1.0000
     1.0000   1.0000   1.0000   0.0000   0.0000   0.0000   0.0000   0.0000

          k = 0.3333 0.3333 0.0000 (  3604 PWs)   bands (ev):

   -72.3449 -35.9052 -35.9052 -35.8988  -9.7489  -9.0748  -8.9856   1.5734
     2.7853   2.9976   3.3043   3.3058   8.0743   9.0459   9.8795   9.9089
    10.1516  10.9329  10.9694  11.4662  14.2851  15.1324  15.4540  15.5556
    15.6623  15.6909  21.1330  25.1375  25.3223  28.5114  28.7134  31.0078

     occupation numbers 
     1.0000   1.0000   1.0000   1.0000   1.0000   1.0000   1.0000   1.0000
     1.0000   1.0000   1.0000   1.0000   1.0000   1.0000   1.0000   1.0000
     1.0000   1.0000   1.0000   1.0000   1.0000   1.0000   1.0000   1.0000
     1.0000   1.0000   1.0016   0.0000   0.0000   0.0000   0.0000   0.0000

          k = 0.3333 0.3333 0.1667 (  3620 PWs)   bands (ev):

   -72.3449 -35.9051 -35.9051 -35.9008  -9.5721  -9.0589  -8.9811   1.5766
     2.5999   2.8296   3.1330   3.1488   6.3225   9.7274  10.0922  10.2189
    10.5576  10.9410  11.5637  12.1729  14.2712  15.1371  15.2469  15.3635
    15.6986  15.7829  21.3446  24.8878  25.6790  27.7392  28.8875  30.8384

     occupation numbers 
     1.0000   1.0000   1.0000   1.0000   1.0000   1.0000   1.0000   1.0000
     1.0000   1.0000   1.0000   1.0000   1.0000   1.0000   1.0000   1.0000
     1.0000   1.0000   1.0000   1.0000   1.0000   1.0000   1.0000   1.0000
     1.0000   1.0000   0.3201   0.0000   0.0000   0.0000   0.0000   0.0000

          k = 0.3333 0.3333 0.3333 (  3614 PWs)   bands (ev):

   -72.3447 -35.9047 -35.9046 -35.9046  -9.2327  -8.9727  -8.9716   1.5840
     1.5843   2.8075   2.8623   2.8629   5.2513   9.9782  10.3053  10.3062
    11.1738  11.1746  11.7331  14.2221  14.2240  15.1302  15.1465  15.1473
    15.6770  15.6774  21.5153  24.7997  26.6111  26.6145  29.2537  30.3474

     occupation numbers 
     1.0000   1.0000   1.0000   1.0000   1.0000   1.0000   1.0000   1.0000
     1.0000   1.0000   1.0000   1.0000   1.0000   1.0000   1.0000   1.0000
     1.0000   1.0000   1.0000   1.0000   1.0000   1.0000   1.0000   1.0000
     1.0000   1.0000   0.0000   0.0000   0.0000   0.0000   0.0000   0.0000

          k = 0.3333 0.3333-0.5000 (  3608 PWs)   bands (ev):

   -72.3447 -35.9064 -35.9045 -35.9044  -9.1393  -8.9677  -8.8265   0.9842
     1.5886   2.6894   2.7305   2.8560   5.0200  10.0919  10.2967  10.3341
    11.3197  11.5013  11.8635  14.1845  14.9054  15.1337  15.2290  15.2639
    15.4707  15.6272  21.4372  25.3214  25.7972  27.4472  29.2027  29.2256

     occupation numbers 
     1.0000   1.0000   1.0000   1.0000   1.0000   1.0000   1.0000   1.0000
     1.0000   1.0000   1.0000   1.0000   1.0000   1.0000   1.0000   1.0000
     1.0000   1.0000   1.0000   1.0000   1.0000   1.0000   1.0000   1.0000
     1.0000   1.0000   0.0042   0.0000   0.0000   0.0000   0.0000   0.0000

          k = 0.3333 0.3333-0.3333 (  3614 PWs)   bands (ev):

   -72.3447 -35.9047 -35.9046 -35.9046  -9.2327  -8.9722  -8.9722   1.5842
     1.5842   2.8075   2.8626   2.8626   5.2513   9.9782  10.3057  10.3057
    11.1742  11.1742  11.7331  14.2230  14.2230  15.1302  15.1469  15.1469
    15.6772  15.6772  21.5153  24.7997  26.6128  26.6128  29.2537  30.3499

     occupation numbers 
     1.0000   1.0000   1.0000   1.0000   1.0000   1.0000   1.0000   1.0000
     1.0000   1.0000   1.0000   1.0000   1.0000   1.0000   1.0000   1.0000
     1.0000   1.0000   1.0000   1.0000   1.0000   1.0000   1.0000   1.0000
     1.0000   1.0000   0.0000   0.0000   0.0000   0.0000   0.0000   0.0000

          k = 0.3333 0.3333-0.1667 (  3620 PWs)   bands (ev):

   -72.3449 -35.9051 -35.9051 -35.9008  -9.5721  -9.0589  -8.9811   1.5766
     2.5999   2.8296   3.1330   3.1488   6.3225   9.7274  10.0922  10.2189
    10.5576  10.9410  11.5637  12.1729  14.2712  15.1371  15.2469  15.3635
    15.6986  15.7829  21.3446  24.8878  25.6790  27.7392  28.8875  30.8384

     occupation numbers 
     1.0000   1.0000   1.0000   1.0000   1.0000   1.0000   1.0000   1.0000
     1.0000   1.0000   1.0000   1.0000   1.0000   1.0000   1.0000   1.0000
     1.0000   1.0000   1.0000   1.0000   1.0000   1.0000   1.0000   1.0000
     1.0000   1.0000   0.3201   0.0000   0.0000   0.0000   0.0000   0.0000

          k = 0.3333-0.5000 0.0000 (  3604 PWs)   bands (ev):

   -72.3448 -35.9071 -35.9050 -35.8987  -9.6960  -9.0207  -8.8466   1.0537
     2.6578   2.7010   3.1849   3.3014   8.1927   9.3388   9.5823  10.0440
    10.0989  10.8660  11.0514  11.6723  14.8737  15.2598  15.4134  15.6031
    15.6803  15.8921  21.9958  23.9273  25.6488  28.2452  28.6780  30.5853

     occupation numbers 
     1.0000   1.0000   1.0000   1.0000   1.0000   1.0000   1.0000   1.0000
     1.0000   1.0000   1.0000   1.0000   1.0000   1.0000   1.0000   1.0000
     1.0000   1.0000   1.0000   1.0000   1.0000   1.0000   1.0000   1.0000
     1.0000   1.0000   0.0000   0.0000   0.0000   0.0000   0.0000   0.0000

          k = 0.3333-0.5000 0.1667 (  3606 PWs)   bands (ev):

   -72.3448 -35.9069 -35.9048 -35.9006  -9.5128  -9.0143  -8.8399   1.0473
     2.4122   2.6740   3.0170   3.1419   6.2767   9.7738  10.1012  10.1724
    10.7117  11.1497  11.7330  12.1382  14.8684  15.2338  15.3060  15.4880
    15.6629  15.7463  21.8766  24.3423  25.5721  27.9125  28.8218  30.3019

     occupation numbers 
     1.0000   1.0000   1.0000   1.0000   1.0000   1.0000   1.0000   1.0000
     1.0000   1.0000   1.0000   1.0000   1.0000   1.0000   1.0000   1.0000
     1.0000   1.0000   1.0000   1.0000   1.0000   1.0000   1.0000   1.0000
     1.0000   1.0000   0.0000   0.0000   0.0000   0.0000   0.0000   0.0000

          k = 0.3333-0.5000 0.3333 (  3608 PWs)   bands (ev):

   -72.3447 -35.9064 -35.9045 -35.9044  -9.1393  -8.9677  -8.8265   0.9842
     1.5886   2.6894   2.7305   2.8560   5.0200  10.0919  10.2967  10.3341
    11.3197  11.5013  11.8635  14.1845  14.9054  15.1337  15.2290  15.2639
    15.4707  15.6272  21.4372  25.3214  25.7972  27.4472  29.2023  29.2261

     occupation numbers 
     1.0000   1.0000   1.0000   1.0000   1.0000   1.0000   1.0000   1.0000
     1.0000   1.0000   1.0000   1.0000   1.0000   1.0000   1.0000   1.0000
     1.0000   1.0000   1.0000   1.0000   1.0000   1.0000   1.0000   1.0000
     1.0000   1.0000   0.0042   0.0000   0.0000   0.0000   0.0000   0.0000

          k = 0.3333-0.5000-0.5000 (  3612 PWs)   bands (ev):

   -72.3446 -35.9063 -35.9063 -35.9043  -9.0508  -8.8198  -8.8198   0.7664
     1.2515   2.5703   2.7270   2.7270   4.7319  10.2675  10.3396  10.3396
    11.6770  11.6770  11.9980  14.4544  15.0264  15.1279  15.1280  15.4359
    15.5112  15.5739  21.1511  26.0669  26.0669  27.3627  28.3057  29.5150

     occupation numbers 
     1.0000   1.0000   1.0000   1.0000   1.0000   1.0000   1.0000   1.0000
     1.0000   1.0000   1.0000   1.0000   1.0000   1.0000   1.0000   1.0000
     1.0000   1.0000   1.0000   1.0000   1.0000   1.0000   1.0000   1.0000
     1.0000   1.0000   1.0047   0.0000   0.0000   0.0000   0.0000   0.0000

          k = 0.3333-0.5000-0.3333 (  3608 PWs)   bands (ev):

   -72.3447 -35.9064 -35.9045 -35.9044  -9.1393  -8.9677  -8.8265   0.9842
     1.5886   2.6894   2.7305   2.8560   5.0200  10.0919  10.2967  10.3341
    11.3197  11.5013  11.8635  14.1845  14.9054  15.1337  15.2290  15.2639
    15.4707  15.6272  21.4372  25.3214  25.7972  27.4472  29.2024  29.2259

     occupation numbers 
     1.0000   1.0000   1.0000   1.0000   1.0000   1.0000   1.0000   1.0000
     1.0000   1.0000   1.0000   1.0000   1.0000   1.0000   1.0000   1.0000
     1.0000   1.0000   1.0000   1.0000   1.0000   1.0000   1.0000   1.0000
     1.0000   1.0000   0.0042   0.0000   0.0000   0.0000   0.0000   0.0000

          k = 0.3333-0.5000-0.1667 (  3606 PWs)   bands (ev):

   -72.3448 -35.9069 -35.9048 -35.9006  -9.5128  -9.0143  -8.8399   1.0473
     2.4122   2.6740   3.0170   3.1419   6.2767   9.7738  10.1012  10.1724
    10.7117  11.1497  11.7330  12.1382  14.8684  15.2338  15.3060  15.4880
    15.6629  15.7463  21.8766  24.3423  25.5721  27.9125  28.8218  30.3019

     occupation numbers 
     1.0000   1.0000   1.0000   1.0000   1.0000   1.0000   1.0000   1.0000
     1.0000   1.0000   1.0000   1.0000   1.0000   1.0000   1.0000   1.0000
     1.0000   1.0000   1.0000   1.0000   1.0000   1.0000   1.0000   1.0000
     1.0000   1.0000   0.0000   0.0000   0.0000   0.0000   0.0000   0.0000

          k = 0.3333-0.3333 0.0000 (  3604 PWs)   bands (ev):

   -72.3449 -35.9052 -35.9052 -35.8988  -9.7489  -9.0748  -8.9856   1.5734
     2.7853   2.9976   3.3043   3.3058   8.0743   9.0459   9.8795   9.9089
    10.1516  10.9329  10.9694  11.4662  14.2851  15.1324  15.4540  15.5556
    15.6623  15.6909  21.1330  25.1375  25.3223  28.5114  28.7134  31.0078

     occupation numbers 
     1.0000   1.0000   1.0000   1.0000   1.0000   1.0000   1.0000   1.0000
     1.0000   1.0000   1.0000   1.0000   1.0000   1.0000   1.0000   1.0000
     1.0000   1.0000   1.0000   1.0000   1.0000   1.0000   1.0000   1.0000
     1.0000   1.0000   1.0016   0.0000   0.0000   0.0000   0.0000   0.0000

          k = 0.3333-0.3333 0.1667 (  3620 PWs)   bands (ev):

   -72.3449 -35.9051 -35.9051 -35.9008  -9.5721  -9.0589  -8.9811   1.5766
     2.5999   2.8296   3.1330   3.1488   6.3225   9.7274  10.0922  10.2189
    10.5576  10.9410  11.5637  12.1729  14.2712  15.1371  15.2469  15.3635
    15.6986  15.7829  21.3446  24.8878  25.6790  27.7392  28.8875  30.8384

     occupation numbers 
     1.0000   1.0000   1.0000   1.0000   1.0000   1.0000   1.0000   1.0000
     1.0000   1.0000   1.0000   1.0000   1.0000   1.0000   1.0000   1.0000
     1.0000   1.0000   1.0000   1.0000   1.0000   1.0000   1.0000   1.0000
     1.0000   1.0000   0.3201   0.0000   0.0000   0.0000   0.0000   0.0000

          k = 0.3333-0.3333 0.3333 (  3614 PWs)   bands (ev):

   -72.3447 -35.9047 -35.9046 -35.9046  -9.2327  -8.9723  -8.9720   1.5841
     1.5842   2.8075   2.8625   2.8627   5.2513   9.9782  10.3056  10.3059
    11.1741  11.1743  11.7331  14.2227  14.2233  15.1302  15.1468  15.1471
    15.6771  15.6772  21.5153  24.7997  26.6123  26.6134  29.2537  30.3498

     occupation numbers 
     1.0000   1.0000   1.0000   1.0000   1.0000   1.0000   1.0000   1.0000
     1.0000   1.0000   1.0000   1.0000   1.0000   1.0000   1.0000   1.0000
     1.0000   1.0000   1.0000   1.0000   1.0000   1.0000   1.0000   1.0000
     1.0000   1.0000   0.0000   0.0000   0.0000   0.0000   0.0000   0.0000

          k = 0.3333-0.3333-0.5000 (  3608 PWs)   bands (ev):

   -72.3447 -35.9064 -35.9045 -35.9044  -9.1393  -8.9677  -8.8265   0.9842
     1.5886   2.6894   2.7305   2.8560   5.0200  10.0919  10.2967  10.3341
    11.3197  11.5013  11.8635  14.1845  14.9054  15.1337  15.2290  15.2639
    15.4707  15.6272  21.4372  25.3214  25.7972  27.4472  29.2028  29.2256

     occupation numbers 
     1.0000   1.0000   1.0000   1.0000   1.0000   1.0000   1.0000   1.0000
     1.0000   1.0000   1.0000   1.0000   1.0000   1.0000   1.0000   1.0000
     1.0000   1.0000   1.0000   1.0000   1.0000   1.0000   1.0000   1.0000
     1.0000   1.0000   0.0042   0.0000   0.0000   0.0000   0.0000   0.0000

          k = 0.3333-0.3333-0.3333 (  3614 PWs)   bands (ev):

   -72.3447 -35.9047 -35.9046 -35.9046  -9.2327  -8.9725  -8.9718   1.5841
     1.5842   2.8075   2.8624   2.8628   5.2513   9.9782  10.3054  10.3060
    11.1739  11.1745  11.7331  14.2224  14.2237  15.1302  15.1466  15.1472
    15.6771  15.6773  21.5153  24.7997  26.6117  26.6140  29.2537  30.3515

     occupation numbers 
     1.0000   1.0000   1.0000   1.0000   1.0000   1.0000   1.0000   1.0000
     1.0000   1.0000   1.0000   1.0000   1.0000   1.0000   1.0000   1.0000
     1.0000   1.0000   1.0000   1.0000   1.0000   1.0000   1.0000   1.0000
     1.0000   1.0000   0.0000   0.0000   0.0000   0.0000   0.0000   0.0000

          k = 0.3333-0.3333-0.1667 (  3620 PWs)   bands (ev):

   -72.3449 -35.9051 -35.9051 -35.9008  -9.5721  -9.0589  -8.9811   1.5766
     2.5999   2.8296   3.1330   3.1488   6.3225   9.7274  10.0922  10.2189
    10.5576  10.9410  11.5637  12.1729  14.2712  15.1371  15.2469  15.3635
    15.6986  15.7829  21.3446  24.8878  25.6790  27.7392  28.8875  30.8384

     occupation numbers 
     1.0000   1.0000   1.0000   1.0000   1.0000   1.0000   1.0000   1.0000
     1.0000   1.0000   1.0000   1.0000   1.0000   1.0000   1.0000   1.0000
     1.0000   1.0000   1.0000   1.0000   1.0000   1.0000   1.0000   1.0000
     1.0000   1.0000   0.3201   0.0000   0.0000   0.0000   0.0000   0.0000

          k = 0.3333-0.1667 0.0000 (  3612 PWs)   bands (ev):

   -72.3450 -35.9056 -35.9014 -35.8992  -9.9196  -9.2903  -9.0410   2.0531
     3.1314   3.3123   3.5728   4.4531   7.7931   8.5160   9.3827  10.1802
    10.3776  10.7689  11.1482  11.2029  12.8506  15.0756  15.2336  15.2343
    15.6364  15.6720  20.1029  24.6187  27.2213  28.5733  29.0375  32.0448

     occupation numbers 
     1.0000   1.0000   1.0000   1.0000   1.0000   1.0000   1.0000   1.0000
     1.0000   1.0000   1.0000   1.0000   1.0000   1.0000   1.0000   1.0000
     1.0000   1.0000   1.0000   1.0000   1.0000   1.0000   1.0000   1.0000
     1.0000   1.0000   1.0000   0.0000   0.0000   0.0000   0.0000   0.0000

          k = 0.3333-0.1667 0.1667 (  3623 PWs)   bands (ev):

   -72.3450 -35.9055 -35.9012 -35.9011  -9.7811  -9.2406  -9.0295   2.0020
     3.1167   3.1497   3.4164   3.7514   6.6848   9.5238   9.7414  10.1756
    10.2351  10.9016  11.3252  11.7665  13.1138  15.0325  15.1902  15.3511
    15.6263  15.7435  20.4983  24.7712  26.9050  28.0074  28.7170  31.9579

     occupation numbers 
     1.0000   1.0000   1.0000   1.0000   1.0000   1.0000   1.0000   1.0000
     1.0000   1.0000   1.0000   1.0000   1.0000   1.0000   1.0000   1.0000
     1.0000   1.0000   1.0000   1.0000   1.0000   1.0000   1.0000   1.0000
     1.0000   1.0000   1.0000   0.0000   0.0000   0.0000   0.0000   0.0000

          k = 0.3333-0.1667 0.3333 (  3620 PWs)   bands (ev):

   -72.3449 -35.9051 -35.9051 -35.9008  -9.5721  -9.0589  -8.9811   1.5766
     2.5999   2.8296   3.1330   3.1488   6.3225   9.7274  10.0922  10.2189
    10.5576  10.9410  11.5637  12.1729  14.2712  15.1371  15.2469  15.3635
    15.6986  15.7829  21.3446  24.8878  25.6790  27.7392  28.8875  30.8383

     occupation numbers 
     1.0000   1.0000   1.0000   1.0000   1.0000   1.0000   1.0000   1.0000
     1.0000   1.0000   1.0000   1.0000   1.0000   1.0000   1.0000   1.0000
     1.0000   1.0000   1.0000   1.0000   1.0000   1.0000   1.0000   1.0000
     1.0000   1.0000   0.3201   0.0000   0.0000   0.0000   0.0000   0.0000

          k = 0.3333-0.1667-0.5000 (  3606 PWs)   bands (ev):

   -72.3448 -35.9069 -35.9048 -35.9006  -9.5128  -9.0143  -8.8399   1.0473
     2.4122   2.6740   3.0170   3.1419   6.2767   9.7738  10.1012  10.1724
    10.7117  11.1497  11.7330  12.1382  14.8684  15.2338  15.3060  15.4880
    15.6629  15.7463  21.8766  24.3423  25.5721  27.9125  28.8218  30.3018

     occupation numbers 
     1.0000   1.0000   1.0000   1.0000   1.0000   1.0000   1.0000   1.0000
     1.0000   1.0000   1.0000   1.0000   1.0000   1.0000   1.0000   1.0000
     1.0000   1.0000   1.0000   1.0000   1.0000   1.0000   1.0000   1.0000
     1.0000   1.0000   0.0000   0.0000   0.0000   0.0000   0.0000   0.0000

          k = 0.3333-0.1667-0.3333 (  3620 PWs)   bands (ev):

   -72.3449 -35.9051 -35.9051 -35.9008  -9.5721  -9.0589  -8.9811   1.5766
     2.5999   2.8296   3.1330   3.1488   6.3225   9.7274  10.0922  10.2189
    10.5576  10.9410  11.5637  12.1729  14.2712  15.1371  15.2469  15.3635
    15.6986  15.7829  21.3446  24.8878  25.6790  27.7392  28.8875  30.8383

     occupation numbers 
     1.0000   1.0000   1.0000   1.0000   1.0000   1.0000   1.0000   1.0000
     1.0000   1.0000   1.0000   1.0000   1.0000   1.0000   1.0000   1.0000
     1.0000   1.0000   1.0000   1.0000   1.0000   1.0000   1.0000   1.0000
     1.0000   1.0000   0.3201   0.0000   0.0000   0.0000   0.0000   0.0000

          k = 0.3333-0.1667-0.1667 (  3623 PWs)   bands (ev):

   -72.3450 -35.9055 -35.9012 -35.9011  -9.7811  -9.2406  -9.0295   2.0020
     3.1167   3.1497   3.4164   3.7514   6.6848   9.5238   9.7414  10.1756
    10.2351  10.9016  11.3252  11.7665  13.1138  15.0325  15.1902  15.3511
    15.6263  15.7435  20.4983  24.7712  26.9050  28.0074  28.7170  31.9580

     occupation numbers 
     1.0000   1.0000   1.0000   1.0000   1.0000   1.0000   1.0000   1.0000
     1.0000   1.0000   1.0000   1.0000   1.0000   1.0000   1.0000   1.0000
     1.0000   1.0000   1.0000   1.0000   1.0000   1.0000   1.0000   1.0000
     1.0000   1.0000   1.0000   0.0000   0.0000   0.0000   0.0000   0.0000

          k =-0.5000 0.0000 0.0000 (  3588 PWs)   bands (ev):

   -72.3450 -35.9078 -35.8991 -35.8991  -9.9602  -9.3533  -8.8934   1.3307
     3.2014   3.2014   3.7294   6.0772   7.6812   7.6812   8.9296   9.9752
    10.6332  10.6332  11.3928  11.3929  12.3062  14.9967  15.1267  15.4917
    15.8793  15.8793  21.3853  22.4301  28.3226  29.1404  29.1404  32.2416

     occupation numbers 
     1.0000   1.0000   1.0000   1.0000   1.0000   1.0000   1.0000   1.0000
     1.0000   1.0000   1.0000   1.0000   1.0000   1.0000   1.0000   1.0000
     1.0000   1.0000   1.0000   1.0000   1.0000   1.0000   1.0000   1.0000
     1.0000   1.0000   0.0734   0.0000   0.0000   0.0000   0.0000   0.0000

          k =-0.5000 0.0000 0.1667 (  3614 PWs)   bands (ev):

   -72.3450 -35.9076 -35.9012 -35.8990  -9.8470  -9.2809  -8.8779   1.2846
     3.0063   3.1960   3.5740   4.4340   7.8688   8.6544   9.1584  10.0417
    10.4035  10.7050  11.2678  11.4298  13.2814  15.2320  15.2621  15.4980
    15.6529  15.8827  21.5280  22.9103  27.7511  28.5048  28.8390  31.5694

     occupation numbers 
     1.0000   1.0000   1.0000   1.0000   1.0000   1.0000   1.0000   1.0000
     1.0000   1.0000   1.0000   1.0000   1.0000   1.0000   1.0000   1.0000
     1.0000   1.0000   1.0000   1.0000   1.0000   1.0000   1.0000   1.0000
     1.0000   1.0000   0.0000   0.0000   0.0000   0.0000   0.0000   0.0000

          k =-0.5000 0.0000 0.3333 (  3604 PWs)   bands (ev):

   -72.3448 -35.9071 -35.9050 -35.8987  -9.6960  -9.0207  -8.8466   1.0537
     2.6579   2.7010   3.1849   3.3013   8.1927   9.3388   9.5823  10.0440
    10.0989  10.8660  11.0514  11.6722  14.8738  15.2598  15.4134  15.6031
    15.6803  15.8921  21.9958  23.9273  25.6488  28.2452  28.6780  30.5853

     occupation numbers 
     1.0000   1.0000   1.0000   1.0000   1.0000   1.0000   1.0000   1.0000
     1.0000   1.0000   1.0000   1.0000   1.0000   1.0000   1.0000   1.0000
     1.0000   1.0000   1.0000   1.0000   1.0000   1.0000   1.0000   1.0000
     1.0000   1.0000   0.0000   0.0000   0.0000   0.0000   0.0000   0.0000

          k =-0.5000 0.0000-0.5000 (  3628 PWs)   bands (ev):

   -72.3448 -35.9070 -35.9070 -35.8986  -9.6548  -8.8308  -8.8308   0.7610
     2.1928   2.4998   3.1793   3.1794   8.3333   9.6297   9.8883   9.8892
     9.8894  10.9557  10.9557  11.8608  15.0797  15.4078  15.5695  15.7264
    15.8982  15.8982  22.4835  24.5126  24.5126  27.9519  28.5470  30.1759

     occupation numbers 
     1.0000   1.0000   1.0000   1.0000   1.0000   1.0000   1.0000   1.0000
     1.0000   1.0000   1.0000   1.0000   1.0000   1.0000   1.0000   1.0000
     1.0000   1.0000   1.0000   1.0000   1.0000   1.0000   1.0000   1.0000
     1.0000   1.0000   0.0000   0.0000   0.0000   0.0000   0.0000   0.0000

          k =-0.5000 0.1667 0.0000 (  3614 PWs)   bands (ev):

   -72.3450 -35.9076 -35.9012 -35.8990  -9.8470  -9.2809  -8.8779   1.2846
     3.0063   3.1959   3.5740   4.4340   7.8688   8.6544   9.1584  10.0417
    10.4035  10.7050  11.2678  11.4298  13.2814  15.2320  15.2621  15.4980
    15.6529  15.8827  21.5280  22.9103  27.7511  28.5048  28.8390  31.5693

     occupation numbers 
     1.0000   1.0000   1.0000   1.0000   1.0000   1.0000   1.0000   1.0000
     1.0000   1.0000   1.0000   1.0000   1.0000   1.0000   1.0000   1.0000
     1.0000   1.0000   1.0000   1.0000   1.0000   1.0000   1.0000   1.0000
     1.0000   1.0000   0.0000   0.0000   0.0000   0.0000   0.0000   0.0000

          k =-0.5000 0.1667 0.1667 (  3608 PWs)   bands (ev):

   -72.3449 -35.9073 -35.9010 -35.9009  -9.7067  -9.2344  -8.8653   1.2481
     2.9864   3.0327   3.4169   3.7537   6.6938   9.3795   9.8041  10.1255
    10.2015  11.1793  11.5297  11.6364  13.6283  15.1186  15.4971  15.5568
    15.5944  15.7108  21.6356  23.3577  26.9823  28.3502  28.6917  31.1475

     occupation numbers 
     1.0000   1.0000   1.0000   1.0000   1.0000   1.0000   1.0000   1.0000
     1.0000   1.0000   1.0000   1.0000   1.0000   1.0000   1.0000   1.0000
     1.0000   1.0000   1.0000   1.0000   1.0000   1.0000   1.0000   1.0000
     1.0000   1.0000   0.0000   0.0000   0.0000   0.0000   0.0000   0.0000

          k =-0.5000 0.1667 0.3333 (  3606 PWs)   bands (ev):

   -72.3448 -35.9069 -35.9048 -35.9006  -9.5128  -9.0143  -8.8399   1.0473
     2.4122   2.6740   3.0170   3.1419   6.2767   9.7738  10.1012  10.1724
    10.7117  11.1497  11.7330  12.1382  14.8684  15.2338  15.3059  15.4880
    15.6629  15.7463  21.8766  24.3423  25.5721  27.9125  28.8218  30.3018

     occupation numbers 
     1.0000   1.0000   1.0000   1.0000   1.0000   1.0000   1.0000   1.0000
     1.0000   1.0000   1.0000   1.0000   1.0000   1.0000   1.0000   1.0000
     1.0000   1.0000   1.0000   1.0000   1.0000   1.0000   1.0000   1.0000
     1.0000   1.0000   0.0000   0.0000   0.0000   0.0000   0.0000   0.0000

          k =-0.5000 0.1667-0.5000 (  3616 PWs)   bands (ev):

   -72.3447 -35.9067 -35.9067 -35.9005  -9.4673  -8.8271  -8.8271   0.7628
     1.9648   2.5234   3.0185   3.0185   6.2201  10.0080  10.0932  10.0932
    11.1303  11.1303  11.9049  12.0888  15.0408  15.4206  15.5709  15.6495
    15.6495  15.6562  22.0107  24.9569  24.9569  27.7600  28.4732  30.1749

     occupation numbers 
     1.0000   1.0000   1.0000   1.0000   1.0000   1.0000   1.0000   1.0000
     1.0000   1.0000   1.0000   1.0000   1.0000   1.0000   1.0000   1.0000
     1.0000   1.0000   1.0000   1.0000   1.0000   1.0000   1.0000   1.0000
     1.0000   1.0000   0.0000   0.0000   0.0000   0.0000   0.0000   0.0000

          k =-0.5000 0.1667-0.3333 (  3606 PWs)   bands (ev):

   -72.3448 -35.9069 -35.9048 -35.9006  -9.5128  -9.0143  -8.8399   1.0473
     2.4122   2.6740   3.0170   3.1419   6.2767   9.7738  10.1012  10.1724
    10.7117  11.1497  11.7330  12.1382  14.8684  15.2338  15.3060  15.4880
    15.6629  15.7463  21.8766  24.3423  25.5721  27.9125  28.8218  30.3018

     occupation numbers 
     1.0000   1.0000   1.0000   1.0000   1.0000   1.0000   1.0000   1.0000
     1.0000   1.0000   1.0000   1.0000   1.0000   1.0000   1.0000   1.0000
     1.0000   1.0000   1.0000   1.0000   1.0000   1.0000   1.0000   1.0000
     1.0000   1.0000   0.0000   0.0000   0.0000   0.0000   0.0000   0.0000

          k =-0.5000 0.1667-0.1667 (  3608 PWs)   bands (ev):

   -72.3449 -35.9073 -35.9010 -35.9009  -9.7067  -9.2344  -8.8653   1.2481
     2.9864   3.0327   3.4169   3.7537   6.6938   9.3795   9.8041  10.1255
    10.2015  11.1793  11.5297  11.6364  13.6283  15.1186  15.4971  15.5568
    15.5944  15.7108  21.6356  23.3577  26.9823  28.3502  28.6917  31.1475

     occupation numbers 
     1.0000   1.0000   1.0000   1.0000   1.0000   1.0000   1.0000   1.0000
     1.0000   1.0000   1.0000   1.0000   1.0000   1.0000   1.0000   1.0000
     1.0000   1.0000   1.0000   1.0000   1.0000   1.0000   1.0000   1.0000
     1.0000   1.0000   0.0000   0.0000   0.0000   0.0000   0.0000   0.0000

          k =-0.5000 0.3333 0.0000 (  3604 PWs)   bands (ev):

   -72.3448 -35.9071 -35.9050 -35.8987  -9.6960  -9.0207  -8.8466   1.0537
     2.6579   2.7010   3.1849   3.3014   8.1927   9.3388   9.5823  10.0440
    10.0989  10.8660  11.0514  11.6723  14.8738  15.2598  15.4134  15.6031
    15.6803  15.8921  21.9958  23.9273  25.6488  28.2452  28.6780  30.5853

     occupation numbers 
     1.0000   1.0000   1.0000   1.0000   1.0000   1.0000   1.0000   1.0000
     1.0000   1.0000   1.0000   1.0000   1.0000   1.0000   1.0000   1.0000
     1.0000   1.0000   1.0000   1.0000   1.0000   1.0000   1.0000   1.0000
     1.0000   1.0000   0.0000   0.0000   0.0000   0.0000   0.0000   0.0000

          k =-0.5000 0.3333 0.1667 (  3606 PWs)   bands (ev):

   -72.3448 -35.9069 -35.9048 -35.9006  -9.5128  -9.0143  -8.8399   1.0473
     2.4122   2.6740   3.0170   3.1419   6.2767   9.7738  10.1012  10.1724
    10.7117  11.1497  11.7330  12.1382  14.8684  15.2338  15.3060  15.4880
    15.6629  15.7463  21.8766  24.3423  25.5721  27.9125  28.8218  30.3018

     occupation numbers 
     1.0000   1.0000   1.0000   1.0000   1.0000   1.0000   1.0000   1.0000
     1.0000   1.0000   1.0000   1.0000   1.0000   1.0000   1.0000   1.0000
     1.0000   1.0000   1.0000   1.0000   1.0000   1.0000   1.0000   1.0000
     1.0000   1.0000   0.0000   0.0000   0.0000   0.0000   0.0000   0.0000

          k =-0.5000 0.3333 0.3333 (  3608 PWs)   bands (ev):

   -72.3447 -35.9064 -35.9045 -35.9044  -9.1393  -8.9677  -8.8265   0.9842
     1.5886   2.6894   2.7305   2.8560   5.0200  10.0919  10.2967  10.3341
    11.3197  11.5013  11.8635  14.1845  14.9054  15.1337  15.2290  15.2639
    15.4707  15.6272  21.4372  25.3214  25.7972  27.4472  29.2025  29.2259

     occupation numbers 
     1.0000   1.0000   1.0000   1.0000   1.0000   1.0000   1.0000   1.0000
     1.0000   1.0000   1.0000   1.0000   1.0000   1.0000   1.0000   1.0000
     1.0000   1.0000   1.0000   1.0000   1.0000   1.0000   1.0000   1.0000
     1.0000   1.0000   0.0042   0.0000   0.0000   0.0000   0.0000   0.0000

          k =-0.5000 0.3333-0.5000 (  3612 PWs)   bands (ev):

   -72.3446 -35.9063 -35.9063 -35.9043  -9.0508  -8.8198  -8.8198   0.7664
     1.2515   2.5703   2.7270   2.7270   4.7319  10.2675  10.3396  10.3396
    11.6770  11.6770  11.9980  14.4544  15.0264  15.1279  15.1279  15.4359
    15.5112  15.5739  21.1511  26.0669  26.0669  27.3627  28.3057  29.5150

     occupation numbers 
     1.0000   1.0000   1.0000   1.0000   1.0000   1.0000   1.0000   1.0000
     1.0000   1.0000   1.0000   1.0000   1.0000   1.0000   1.0000   1.0000
     1.0000   1.0000   1.0000   1.0000   1.0000   1.0000   1.0000   1.0000
     1.0000   1.0000   1.0047   0.0000   0.0000   0.0000   0.0000   0.0000

          k =-0.5000 0.3333-0.3333 (  3608 PWs)   bands (ev):

   -72.3447 -35.9064 -35.9045 -35.9044  -9.1393  -8.9677  -8.8265   0.9842
     1.5886   2.6894   2.7305   2.8560   5.0200  10.0919  10.2967  10.3341
    11.3197  11.5013  11.8635  14.1845  14.9054  15.1337  15.2290  15.2639
    15.4707  15.6272  21.4372  25.3214  25.7972  27.4472  29.2027  29.2256

     occupation numbers 
     1.0000   1.0000   1.0000   1.0000   1.0000   1.0000   1.0000   1.0000
     1.0000   1.0000   1.0000   1.0000   1.0000   1.0000   1.0000   1.0000
     1.0000   1.0000   1.0000   1.0000   1.0000   1.0000   1.0000   1.0000
     1.0000   1.0000   0.0042   0.0000   0.0000   0.0000   0.0000   0.0000

          k =-0.5000 0.3333-0.1667 (  3606 PWs)   bands (ev):

   -72.3448 -35.9069 -35.9048 -35.9006  -9.5128  -9.0143  -8.8399   1.0473
     2.4122   2.6740   3.0170   3.1419   6.2767   9.7738  10.1012  10.1724
    10.7117  11.1497  11.7330  12.1382  14.8684  15.2338  15.3060  15.4880
    15.6629  15.7463  21.8766  24.3423  25.5721  27.9125  28.8218  30.3018

     occupation numbers 
     1.0000   1.0000   1.0000   1.0000   1.0000   1.0000   1.0000   1.0000
     1.0000   1.0000   1.0000   1.0000   1.0000   1.0000   1.0000   1.0000
     1.0000   1.0000   1.0000   1.0000   1.0000   1.0000   1.0000   1.0000
     1.0000   1.0000   0.0000   0.0000   0.0000   0.0000   0.0000   0.0000

          k =-0.5000-0.5000 0.0000 (  3628 PWs)   bands (ev):

   -72.3448 -35.9070 -35.9070 -35.8986  -9.6548  -8.8308  -8.8308   0.7610
     2.1928   2.4998   3.1794   3.1794   8.3333   9.6297   9.8883   9.8891
     9.8894  10.9557  10.9557  11.8608  15.0797  15.4078  15.5695  15.7264
    15.8982  15.8982  22.4835  24.5126  24.5126  27.9519  28.5470  30.1760

     occupation numbers 
     1.0000   1.0000   1.0000   1.0000   1.0000   1.0000   1.0000   1.0000
     1.0000   1.0000   1.0000   1.0000   1.0000   1.0000   1.0000   1.0000
     1.0000   1.0000   1.0000   1.0000   1.0000   1.0000   1.0000   1.0000
     1.0000   1.0000   0.0000   0.0000   0.0000   0.0000   0.0000   0.0000

          k =-0.5000-0.5000 0.1667 (  3616 PWs)   bands (ev):

   -72.3447 -35.9067 -35.9067 -35.9005  -9.4673  -8.8271  -8.8271   0.7628
     1.9648   2.5234   3.0185   3.0185   6.2201  10.0080  10.0932  10.0932
    11.1303  11.1303  11.9049  12.0888  15.0408  15.4206  15.5709  15.6495
    15.6495  15.6562  22.0107  24.9569  24.9569  27.7601  28.4732  30.1749

     occupation numbers 
     1.0000   1.0000   1.0000   1.0000   1.0000   1.0000   1.0000   1.0000
     1.0000   1.0000   1.0000   1.0000   1.0000   1.0000   1.0000   1.0000
     1.0000   1.0000   1.0000   1.0000   1.0000   1.0000   1.0000   1.0000
     1.0000   1.0000   0.0000   0.0000   0.0000   0.0000   0.0000   0.0000

          k =-0.5000-0.5000 0.3333 (  3612 PWs)   bands (ev):

   -72.3446 -35.9063 -35.9063 -35.9043  -9.0508  -8.8198  -8.8198   0.7664
     1.2515   2.5703   2.7270   2.7270   4.7319  10.2676  10.3396  10.3396
    11.6770  11.6770  11.9980  14.4544  15.0264  15.1279  15.1279  15.4359
    15.5112  15.5739  21.1511  26.0669  26.0669  27.3627  28.3057  29.5150

     occupation numbers 
     1.0000   1.0000   1.0000   1.0000   1.0000   1.0000   1.0000   1.0000
     1.0000   1.0000   1.0000   1.0000   1.0000   1.0000   1.0000   1.0000
     1.0000   1.0000   1.0000   1.0000   1.0000   1.0000   1.0000   1.0000
     1.0000   1.0000   1.0047   0.0000   0.0000   0.0000   0.0000   0.0000

          k =-0.5000-0.5000-0.5000 (  3544 PWs)   bands (ev):

   -72.3445 -35.9058 -35.9058 -35.9058  -8.8161  -8.8161  -8.8161   0.7683
     0.7683   2.5936   2.5936   2.5936   4.3569  10.4095  10.4095  10.4095
    12.0472  12.0472  12.0472  14.8307  14.8307  14.8307  15.4362  15.4362
    15.5754  15.5754  20.7530  27.1618  27.1618  27.1618  28.2132  28.2132

     occupation numbers 
     1.0000   1.0000   1.0000   1.0000   1.0000   1.0000   1.0000   1.0000
     1.0000   1.0000   1.0000   1.0000   1.0000   1.0000   1.0000   1.0000
     1.0000   1.0000   1.0000   1.0000   1.0000   1.0000   1.0000   1.0000
     1.0000   1.0000   1.0000   0.0000   0.0000   0.0000   0.0000   0.0000

     the Fermi energy is    21.3362 ev

!    total energy              =   -1145.45128607 Ry
     total all-electron energy =    -22994.253426 Ry
     estimated scf accuracy    <          3.9E-11 Ry
     smearing contrib. (-TS)   =      -0.00019228 Ry
     internal energy E=F+TS    =   -1145.45109380 Ry

     The total energy is F=E-TS. E is the sum of the following terms:
     one-electron contribution =    -139.13711421 Ry
     hartree contribution      =     122.06799520 Ry
     xc contribution           =    -125.74901134 Ry
     ewald contribution        =    -449.27732167 Ry
     one-center paw contrib.   =    -553.35564178 Ry
      -> PAW hartree energy AE =     237.50454838 Ry
      -> PAW hartree energy PS =    -234.99762004 Ry
      -> PAW xc energy AE      =    -297.66520406 Ry
      -> PAW xc energy PS      =      48.14528410 Ry
      -> total E_H with PAW    =     124.57492355 Ry
      -> total E_XC with PAW   =    -375.26893130 Ry

     convergence has been achieved in  12 iterations

     Forces acting on atoms (cartesian axes, Ry/au):

     atom    1 type  1   force =     0.00005031    0.00010098    0.00015143
     atom    2 type  2   force =    -0.00019398   -0.00038688   -0.00058283
     atom    3 type  3   force =     0.00010107    0.00001891    0.00009870
     atom    4 type  3   force =     0.00003283    0.00020153    0.00002940
     atom    5 type  3   force =     0.00000977    0.00006547    0.00030330
     The non-local contrib.  to forces
     atom    1 type  1   force =    -0.00007914   -0.00016034   -0.00023832
     atom    2 type  2   force =    -0.00011618   -0.00023051   -0.00034930
     atom    3 type  3   force =    -0.00021981    0.00019390    0.00017137
     atom    4 type  3   force =     0.00005718   -0.00043972    0.00029096
     atom    5 type  3   force =     0.00009704    0.00011450   -0.00065959
     The ionic contribution  to forces
     atom    1 type  1   force =     0.00506585    0.01013170    0.01519754
     atom    2 type  2   force =    -0.00441353   -0.00882706   -0.01324058
     atom    3 type  3   force =    -0.00153785   -0.00196168    0.00559909
     atom    4 type  3   force =     0.00186637   -0.00307569   -0.00294251
     atom    5 type  3   force =    -0.00098084    0.00373273   -0.00461355
     The local contribution  to forces
     atom    1 type  1   force =    -0.00493422   -0.00987194   -0.01480424
     atom    2 type  2   force =     0.00432287    0.00864680    0.01296907
     atom    3 type  3   force =     0.00185830    0.00178876   -0.00567122
     atom    4 type  3   force =    -0.00189032    0.00371754    0.00268210
     atom    5 type  3   force =     0.00089391   -0.00378134    0.00557532
     The core correction contribution to forces
     atom    1 type  1   force =    -0.00000128   -0.00000255   -0.00000384
     atom    2 type  2   force =     0.00001272    0.00002550    0.00003814
     atom    3 type  3   force =     0.00000039   -0.00000073   -0.00000082
     atom    4 type  3   force =    -0.00000027    0.00000079   -0.00000110
     atom    5 type  3   force =    -0.00000037   -0.00000055    0.00000118
     The Hubbard contrib.    to forces
     atom    1 type  1   force =     0.00000000    0.00000000    0.00000000
     atom    2 type  2   force =     0.00000000    0.00000000    0.00000000
     atom    3 type  3   force =     0.00000000    0.00000000    0.00000000
     atom    4 type  3   force =     0.00000000    0.00000000    0.00000000
     atom    5 type  3   force =     0.00000000    0.00000000    0.00000000
     The SCF correction term to forces
     atom    1 type  1   force =    -0.00000085    0.00000455    0.00000021
     atom    2 type  2   force =     0.00000018   -0.00000117   -0.00000023
     atom    3 type  3   force =     0.00000008   -0.00000091    0.00000019
     atom    4 type  3   force =    -0.00000009   -0.00000094   -0.00000013
     atom    5 type  3   force =     0.00000007    0.00000056   -0.00000014

     Total force =     0.000850     Total SCF correction =     0.000005


     Computing stress (Cartesian axis) and pressure

          total   stress  (Ry/bohr**3)                   (kbar)     P=     1936.25
   0.01316239   0.00000000   0.00000000         1936.25        0.00        0.00
   0.00000000   0.01316239   0.00000000            0.00     1936.25        0.00
   0.00000000   0.00000000   0.01316240            0.00        0.00     1936.26

     kinetic stress (kbar)  70117.27      0.00      0.00
                                0.00  70117.27      0.00
                                0.00      0.00  70117.27

     local   stress (kbar) -14283.09     -0.00     -0.00
                               -0.00 -14283.04     -0.01
                               -0.00     -0.01 -14283.08

     nonloc. stress (kbar)  14226.88      0.00      0.00
                                0.00  14226.88      0.00
                                0.00      0.00  14226.88

     hartree stress (kbar)  19994.11      0.00      0.00
                                0.00  19994.09      0.00
                                0.00      0.00  19994.10

     exc-cor stress (kbar)  11027.23      0.00      0.00
                                0.00  11027.23      0.00
                                0.00      0.00  11027.23

     corecor stress (kbar) -25556.88     -0.00     -0.00
                               -0.00 -25556.88     -0.00
                               -0.00     -0.00 -25556.88

     ewald   stress (kbar) -73589.26      0.00      0.00
                                0.00 -73589.29      0.00
                                0.00      0.00 -73589.27

     hubbard stress (kbar)      0.00      0.00      0.00
                                0.00      0.00      0.00
                                0.00      0.00      0.00

     DFT-D   stress (kbar)      0.00      0.00      0.00
                                0.00      0.00      0.00
                                0.00      0.00      0.00

     XDM     stress (kbar)      0.00      0.00      0.00
                                0.00      0.00      0.00
                                0.00      0.00      0.00

     dft-nl  stress (kbar)      0.00      0.00      0.00
                                0.00      0.00      0.00
                                0.00      0.00      0.00

     TS-vdW  stress (kbar)      0.00      0.00      0.00
                                0.00      0.00      0.00
                                0.00      0.00      0.00

     MDB     stress (kbar)      0.00      0.00      0.00
                                0.00      0.00      0.00
                                0.00      0.00      0.00

     3D-RISM stress (kbar)      0.00      0.00      0.00
                                0.00      0.00      0.00
                                0.00      0.00      0.00


     BFGS Geometry Optimization
     Energy error            =      0.0E+00 Ry
     Gradient error          =      5.8E-04 Ry/Bohr
     Cell gradient error     =      1.9E+03 kbar

     number of scf cycles    =   1
     number of bfgs steps    =   0

     enthalpy           new  =   -1145.4512860739 Ry

     new trust radius        =       0.5000000000 bohr
     new conv_thr            =            1.0E-10 Ry

     new unit-cell volume =    448.78873 a.u.^3 (    66.50363 Ang^3 )
     density =      6.98338 g/cm^3

CELL_PARAMETERS (angstrom)
   4.051493163   0.000000004   0.000000013
   0.000000004   4.051492947   0.000000022
   0.000000013   0.000000022   4.051493451

ATOMIC_POSITIONS (crystal)
Ag               0.0000033026        0.0000066281        0.0000099399
In               0.4999872673        0.4999746056        0.4999617440
F                0.5001066343        0.5000012410        0.0000064784
F                0.0000021548        0.5002132283        0.5000019295
F                0.5000006410        0.0000042971        0.5003199083



     Writing config-only to output data dir ./output/aginf3_broken.save/ :
     XML data file
     NEW-OLD atomic charge density approx. for the potential

     Check: negative core charge=   -0.000003

     total cpu time spent up to now is     2075.1 secs

     Self-consistent Calculation

     iteration #  1     ecut=    80.00 Ry     beta= 0.30
     Davidson diagonalization with overlap

---- Real-time Memory Report at c_bands before calling an iterative solver
           111 MiB given to the printing process from OS
             0 MiB allocation reported by mallinfo(arena+hblkhd)
         57095 MiB available memory on the node where the printing process lives
------------------
     c_bands:  1 eigenvalues not converged
     ethr =  1.00E-06,  avg # of iterations = 10.5

     total cpu time spent up to now is     2632.8 secs

     total energy              =   -1146.29866171 Ry
     estimated scf accuracy    <       0.08717143 Ry

     iteration #  2     ecut=    80.00 Ry     beta= 0.30
     Davidson diagonalization with overlap

---- Real-time Memory Report at c_bands before calling an iterative solver
           111 MiB given to the printing process from OS
             0 MiB allocation reported by mallinfo(arena+hblkhd)
         57093 MiB available memory on the node where the printing process lives
------------------
     ethr =  1.64E-04,  avg # of iterations =  3.1

     total cpu time spent up to now is     2827.4 secs

     total energy              =   -1146.27862319 Ry
     estimated scf accuracy    <       0.02860053 Ry

     iteration #  3     ecut=    80.00 Ry     beta= 0.30
     Davidson diagonalization with overlap

---- Real-time Memory Report at c_bands before calling an iterative solver
           111 MiB given to the printing process from OS
             0 MiB allocation reported by mallinfo(arena+hblkhd)
         57092 MiB available memory on the node where the printing process lives
------------------
     ethr =  5.40E-05,  avg # of iterations =  3.5

     total cpu time spent up to now is     3034.5 secs

     total energy              =   -1146.26517442 Ry
     estimated scf accuracy    <       0.00965413 Ry

     iteration #  4     ecut=    80.00 Ry     beta= 0.30
     Davidson diagonalization with overlap

---- Real-time Memory Report at c_bands before calling an iterative solver
           111 MiB given to the printing process from OS
             0 MiB allocation reported by mallinfo(arena+hblkhd)
         57084 MiB available memory on the node where the printing process lives
------------------
     ethr =  1.82E-05,  avg # of iterations =  4.0

     total cpu time spent up to now is     3273.8 secs

     total energy              =   -1146.28155992 Ry
     estimated scf accuracy    <       0.00208050 Ry

     iteration #  5     ecut=    80.00 Ry     beta= 0.30
     Davidson diagonalization with overlap

---- Real-time Memory Report at c_bands before calling an iterative solver
           111 MiB given to the printing process from OS
             0 MiB allocation reported by mallinfo(arena+hblkhd)
         57082 MiB available memory on the node where the printing process lives
------------------
     ethr =  3.93E-06,  avg # of iterations =  4.0

     total cpu time spent up to now is     3511.9 secs

     total energy              =   -1146.29516212 Ry
     estimated scf accuracy    <       0.00114185 Ry

     iteration #  6     ecut=    80.00 Ry     beta= 0.30
     Davidson diagonalization with overlap

---- Real-time Memory Report at c_bands before calling an iterative solver
           111 MiB given to the printing process from OS
             0 MiB allocation reported by mallinfo(arena+hblkhd)
         57084 MiB available memory on the node where the printing process lives
------------------
     ethr =  2.15E-06,  avg # of iterations =  5.0

     total cpu time spent up to now is     3796.2 secs

     total energy              =   -1146.30189334 Ry
     estimated scf accuracy    <       0.00010021 Ry

     iteration #  7     ecut=    80.00 Ry     beta= 0.30
     Davidson diagonalization with overlap

---- Real-time Memory Report at c_bands before calling an iterative solver
           111 MiB given to the printing process from OS
             0 MiB allocation reported by mallinfo(arena+hblkhd)
         57089 MiB available memory on the node where the printing process lives
------------------
     ethr =  1.89E-07,  avg # of iterations =  5.0

     total cpu time spent up to now is     4077.7 secs

     total energy              =   -1146.30242312 Ry
     estimated scf accuracy    <       0.00004915 Ry

     iteration #  8     ecut=    80.00 Ry     beta= 0.30
     Davidson diagonalization with overlap

---- Real-time Memory Report at c_bands before calling an iterative solver
           111 MiB given to the printing process from OS
             0 MiB allocation reported by mallinfo(arena+hblkhd)
         57082 MiB available memory on the node where the printing process lives
------------------
     ethr =  9.27E-08,  avg # of iterations =  4.0

     total cpu time spent up to now is     4303.2 secs

     total energy              =   -1146.30243125 Ry
     estimated scf accuracy    <       0.00002858 Ry

     iteration #  9     ecut=    80.00 Ry     beta= 0.30
     Davidson diagonalization with overlap

---- Real-time Memory Report at c_bands before calling an iterative solver
           111 MiB given to the printing process from OS
             0 MiB allocation reported by mallinfo(arena+hblkhd)
         57089 MiB available memory on the node where the printing process lives
------------------
     ethr =  5.39E-08,  avg # of iterations =  2.6

     total cpu time spent up to now is     4457.9 secs

     total energy              =   -1146.30244012 Ry
     estimated scf accuracy    <       0.00000100 Ry

     iteration # 10     ecut=    80.00 Ry     beta= 0.30
     Davidson diagonalization with overlap

---- Real-time Memory Report at c_bands before calling an iterative solver
           111 MiB given to the printing process from OS
             0 MiB allocation reported by mallinfo(arena+hblkhd)
         57086 MiB available memory on the node where the printing process lives
------------------
     ethr =  1.88E-09,  avg # of iterations =  4.3

     total cpu time spent up to now is     4703.5 secs

     total energy              =   -1146.30244223 Ry
     estimated scf accuracy    <       0.00000064 Ry

     iteration # 11     ecut=    80.00 Ry     beta= 0.30
     Davidson diagonalization with overlap

---- Real-time Memory Report at c_bands before calling an iterative solver
           111 MiB given to the printing process from OS
             0 MiB allocation reported by mallinfo(arena+hblkhd)
         57080 MiB available memory on the node where the printing process lives
------------------
     ethr =  1.21E-09,  avg # of iterations =  1.0

     total cpu time spent up to now is     4795.8 secs

     total energy              =   -1146.30244209 Ry
     estimated scf accuracy    <       0.00000033 Ry

     iteration # 12     ecut=    80.00 Ry     beta= 0.30
     Davidson diagonalization with overlap

---- Real-time Memory Report at c_bands before calling an iterative solver
           111 MiB given to the printing process from OS
             0 MiB allocation reported by mallinfo(arena+hblkhd)
         57082 MiB available memory on the node where the printing process lives
------------------
     ethr =  6.21E-10,  avg # of iterations =  2.0

     total cpu time spent up to now is     4933.5 secs

     total energy              =   -1146.30244211 Ry
     estimated scf accuracy    <       0.00000004 Ry

     iteration # 13     ecut=    80.00 Ry     beta= 0.30
     Davidson diagonalization with overlap

---- Real-time Memory Report at c_bands before calling an iterative solver
           111 MiB given to the printing process from OS
             0 MiB allocation reported by mallinfo(arena+hblkhd)
         57080 MiB available memory on the node where the printing process lives
------------------
     ethr =  7.08E-11,  avg # of iterations =  2.0

     total cpu time spent up to now is     5072.8 secs

     total energy              =   -1146.30244212 Ry
     estimated scf accuracy    <          1.2E-10 Ry

     iteration # 14     ecut=    80.00 Ry     beta= 0.30
     Davidson diagonalization with overlap

---- Real-time Memory Report at c_bands before calling an iterative solver
           111 MiB given to the printing process from OS
             0 MiB allocation reported by mallinfo(arena+hblkhd)
         57083 MiB available memory on the node where the printing process lives
------------------
     ethr =  2.25E-13,  avg # of iterations =  5.2

     total cpu time spent up to now is     5358.7 secs

     total energy              =   -1146.30244212 Ry
     estimated scf accuracy    <          2.2E-10 Ry

     iteration # 15     ecut=    80.00 Ry     beta= 0.30
     Davidson diagonalization with overlap

---- Real-time Memory Report at c_bands before calling an iterative solver
           111 MiB given to the printing process from OS
             0 MiB allocation reported by mallinfo(arena+hblkhd)
         57090 MiB available memory on the node where the printing process lives
------------------
     ethr =  2.25E-13,  avg # of iterations =  3.0

     total cpu time spent up to now is     5529.5 secs

     End of self-consistent calculation

          k = 0.0000 0.0000 0.0000 (  3695 PWs)   bands (ev):

   -79.9264 -43.4540 -43.4540 -43.4540 -14.9097 -14.4284 -14.4284  -4.0890
    -4.0890  -4.0890  -3.3217  -3.3217   2.2659   2.2659   2.2659   4.8617
     4.8617   4.8617   4.9483   4.9483   4.9483   7.3909   7.3909   7.6230
     7.6230   7.6230   8.7129  13.1405  18.8839  18.8839  18.8839  21.0125

     occupation numbers 
     1.0000   1.0000   1.0000   1.0000   1.0000   1.0000   1.0000   1.0000
     1.0000   1.0000   1.0000   1.0000   1.0000   1.0000   1.0000   1.0000
     1.0000   1.0000   1.0000   1.0000   1.0000   1.0000   1.0000   1.0000
     1.0000   1.0000   1.0000   0.0000   0.0000   0.0000   0.0000   0.0000

          k =-0.0000-0.0000 0.1456 (  3635 PWs)   bands (ev):

   -79.9263 -43.4542 -43.4540 -43.4540 -14.8630 -14.4266 -14.4087  -4.1114
    -4.1114  -4.0882  -3.7004  -3.3215   2.3139   2.3139   2.5571   4.5859
     4.8380   4.8460   4.8460   4.9193   4.9193   7.4559   7.5058   7.6244
     7.7140   7.7140   9.3181  13.3914  17.7266  18.9081  18.9081  21.2587

     occupation numbers 
     1.0000   1.0000   1.0000   1.0000   1.0000   1.0000   1.0000   1.0000
     1.0000   1.0000   1.0000   1.0000   1.0000   1.0000   1.0000   1.0000
     1.0000   1.0000   1.0000   1.0000   1.0000   1.0000   1.0000   1.0000
     1.0000   1.0000   1.0000   0.0000   0.0000   0.0000   0.0000   0.0000

          k =-0.0000-0.0000 0.2913 (  3619 PWs)   bands (ev):

   -79.9263 -43.4547 -43.4540 -43.4540 -14.7769 -14.4232 -14.3567  -4.3697
    -4.1558  -4.1558  -4.0868  -3.3213   2.4078   2.4078   3.0929   4.0889
     4.6423   4.7862   4.7862   4.8993   4.8993   7.5885   7.6270   7.7095
     7.8886   7.8886  10.6965  13.5067  16.6553  18.9985  18.9985  21.2967

     occupation numbers 
     1.0000   1.0000   1.0000   1.0000   1.0000   1.0000   1.0000   1.0000
     1.0000   1.0000   1.0000   1.0000   1.0000   1.0000   1.0000   1.0000
     1.0000   1.0000   1.0000   1.0000   1.0000   1.0000   1.0000   1.0000
     1.0000   1.0000   1.0000   0.0000   0.0000   0.0000   0.0000   0.0000

          k = 0.0000 0.0000-0.4369 (  3588 PWs)   bands (ev):

   -79.9262 -43.4549 -43.4539 -43.4539 -14.7389 -14.4215 -14.3226  -4.6742
    -4.1775  -4.1775  -4.0860  -3.3211   2.4539   2.4539   3.4662   3.7322
     4.5541   4.7532   4.7532   4.8972   4.8972   7.6284   7.6563   7.8015
     7.9731   7.9731  12.1160  12.5146  16.7602  19.0868  19.0868  20.7435

     occupation numbers 
     1.0000   1.0000   1.0000   1.0000   1.0000   1.0000   1.0000   1.0000
     1.0000   1.0000   1.0000   1.0000   1.0000   1.0000   1.0000   1.0000
     1.0000   1.0000   1.0000   1.0000   1.0000   1.0000   1.0000   1.0000
     1.0000   1.0000   0.3838   0.0000   0.0000   0.0000   0.0000   0.0000

          k =-0.0000 0.1456-0.0000 (  3635 PWs)   bands (ev):

   -79.9263 -43.4542 -43.4540 -43.4540 -14.8630 -14.4266 -14.4087  -4.1114
    -4.1114  -4.0882  -3.7004  -3.3215   2.3139   2.3139   2.5571   4.5859
     4.8380   4.8460   4.8460   4.9193   4.9193   7.4559   7.5058   7.6244
     7.7140   7.7140   9.3181  13.3914  17.7266  18.9081  18.9081  21.2587

     occupation numbers 
     1.0000   1.0000   1.0000   1.0000   1.0000   1.0000   1.0000   1.0000
     1.0000   1.0000   1.0000   1.0000   1.0000   1.0000   1.0000   1.0000
     1.0000   1.0000   1.0000   1.0000   1.0000   1.0000   1.0000   1.0000
     1.0000   1.0000   1.0000   0.0000   0.0000   0.0000   0.0000   0.0000

          k =-0.0000 0.1456 0.1456 (  3627 PWs)   bands (ev):

   -79.9263 -43.4542 -43.4542 -43.4540 -14.8151 -14.4150 -14.4001  -4.1355
    -4.1110  -4.1107  -3.8539  -3.5249   2.1117   2.3664   3.0688   4.3203
     4.6914   4.8374   4.8785   4.8960   5.0589   7.5274   7.5398   7.7099
     7.7203   7.7769   9.8197  13.6133  17.3677  18.3119  18.9183  21.5954

     occupation numbers 
     1.0000   1.0000   1.0000   1.0000   1.0000   1.0000   1.0000   1.0000
     1.0000   1.0000   1.0000   1.0000   1.0000   1.0000   1.0000   1.0000
     1.0000   1.0000   1.0000   1.0000   1.0000   1.0000   1.0000   1.0000
     1.0000   1.0000   1.0000   0.0000   0.0000   0.0000   0.0000   0.0000

          k =-0.0000 0.1456 0.2913 (  3612 PWs)   bands (ev):

   -79.9263 -43.4547 -43.4542 -43.4539 -14.7276 -14.4075 -14.3535  -4.4272
    -4.1825  -4.1556  -4.1099  -3.5949   2.0542   2.4703   3.6509   4.0160
     4.5105   4.7776   4.8488   4.9052   5.1284   7.6370   7.6990   7.7171
     7.8672   7.8895  11.0349  13.7198  16.5186  18.0913  18.9705  20.6342

     occupation numbers 
     1.0000   1.0000   1.0000   1.0000   1.0000   1.0000   1.0000   1.0000
     1.0000   1.0000   1.0000   1.0000   1.0000   1.0000   1.0000   1.0000
     1.0000   1.0000   1.0000   1.0000   1.0000   1.0000   1.0000   1.0000
     1.0000   1.0000   1.0000   0.0000   0.0000   0.0000   0.0000   0.0000

          k = 0.0000 0.1456-0.4369 (  3614 PWs)   bands (ev):

   -79.9263 -43.4549 -43.4542 -43.4539 -14.6899 -14.4053 -14.3195  -4.7165
    -4.2057  -4.1775  -4.1094  -3.6019   2.0570   2.5215   3.7563   4.0318
     4.4217   4.7417   4.8440   4.9400   5.0976   7.7109   7.7183   7.8049
     7.8707   7.9738  12.2586  12.8679  16.7697  17.6755  19.0286  20.5158

     occupation numbers 
     1.0000   1.0000   1.0000   1.0000   1.0000   1.0000   1.0000   1.0000
     1.0000   1.0000   1.0000   1.0000   1.0000   1.0000   1.0000   1.0000
     1.0000   1.0000   1.0000   1.0000   1.0000   1.0000   1.0000   1.0000
     1.0000   1.0000   0.0002   0.0000   0.0000   0.0000   0.0000   0.0000

          k = 0.0000 0.1456-0.2913 (  3612 PWs)   bands (ev):

   -79.9263 -43.4547 -43.4542 -43.4539 -14.7276 -14.4075 -14.3535  -4.4272
    -4.1825  -4.1556  -4.1099  -3.5949   2.0542   2.4703   3.6509   4.0160
     4.5105   4.7776   4.8488   4.9052   5.1284   7.6370   7.6990   7.7171
     7.8672   7.8895  11.0349  13.7198  16.5186  18.0913  18.9705  20.6342

     occupation numbers 
     1.0000   1.0000   1.0000   1.0000   1.0000   1.0000   1.0000   1.0000
     1.0000   1.0000   1.0000   1.0000   1.0000   1.0000   1.0000   1.0000
     1.0000   1.0000   1.0000   1.0000   1.0000   1.0000   1.0000   1.0000
     1.0000   1.0000   1.0000   0.0000   0.0000   0.0000   0.0000   0.0000

          k = 0.0000 0.1456-0.1456 (  3627 PWs)   bands (ev):

   -79.9263 -43.4542 -43.4542 -43.4540 -14.8151 -14.4150 -14.4001  -4.1355
    -4.1110  -4.1107  -3.8539  -3.5249   2.1117   2.3664   3.0688   4.3203
     4.6914   4.8374   4.8785   4.8960   5.0589   7.5274   7.5398   7.7099
     7.7203   7.7769   9.8197  13.6133  17.3677  18.3119  18.9183  21.5955

     occupation numbers 
     1.0000   1.0000   1.0000   1.0000   1.0000   1.0000   1.0000   1.0000
     1.0000   1.0000   1.0000   1.0000   1.0000   1.0000   1.0000   1.0000
     1.0000   1.0000   1.0000   1.0000   1.0000   1.0000   1.0000   1.0000
     1.0000   1.0000   1.0000   0.0000   0.0000   0.0000   0.0000   0.0000

          k =-0.0000 0.2913-0.0000 (  3619 PWs)   bands (ev):

   -79.9263 -43.4547 -43.4540 -43.4540 -14.7769 -14.4232 -14.3567  -4.3697
    -4.1558  -4.1558  -4.0868  -3.3213   2.4078   2.4078   3.0929   4.0889
     4.6423   4.7862   4.7862   4.8993   4.8993   7.5885   7.6270   7.7095
     7.8886   7.8886  10.6965  13.5067  16.6553  18.9985  18.9985  21.2967

     occupation numbers 
     1.0000   1.0000   1.0000   1.0000   1.0000   1.0000   1.0000   1.0000
     1.0000   1.0000   1.0000   1.0000   1.0000   1.0000   1.0000   1.0000
     1.0000   1.0000   1.0000   1.0000   1.0000   1.0000   1.0000   1.0000
     1.0000   1.0000   1.0000   0.0000   0.0000   0.0000   0.0000   0.0000

          k =-0.0000 0.2913 0.1456 (  3612 PWs)   bands (ev):

   -79.9263 -43.4547 -43.4542 -43.4539 -14.7276 -14.4075 -14.3535  -4.4272
    -4.1824  -4.1556  -4.1099  -3.5949   2.0542   2.4703   3.6509   4.0160
     4.5105   4.7776   4.8488   4.9052   5.1284   7.6370   7.6990   7.7171
     7.8672   7.8895  11.0349  13.7198  16.5186  18.0913  18.9705  20.6342

     occupation numbers 
     1.0000   1.0000   1.0000   1.0000   1.0000   1.0000   1.0000   1.0000
     1.0000   1.0000   1.0000   1.0000   1.0000   1.0000   1.0000   1.0000
     1.0000   1.0000   1.0000   1.0000   1.0000   1.0000   1.0000   1.0000
     1.0000   1.0000   1.0000   0.0000   0.0000   0.0000   0.0000   0.0000

          k =-0.0000 0.2913 0.2913 (  3604 PWs)   bands (ev):

   -79.9262 -43.4546 -43.4546 -43.4539 -14.6414 -14.3639 -14.3411  -4.6795
    -4.2351  -4.1552  -4.1550  -3.9547   1.8063   2.5963   3.8256   4.1846
     4.4040   4.7549   4.7595   5.2001   5.4542   7.6483   7.7976   7.8222
     7.8862   7.8963  11.9012  14.1620  15.7234  17.1749  18.9218  20.3190

     occupation numbers 
     1.0000   1.0000   1.0000   1.0000   1.0000   1.0000   1.0000   1.0000
     1.0000   1.0000   1.0000   1.0000   1.0000   1.0000   1.0000   1.0000
     1.0000   1.0000   1.0000   1.0000   1.0000   1.0000   1.0000   1.0000
     1.0000   1.0000   1.0008   0.0000   0.0000   0.0000   0.0000   0.0000

          k = 0.0000 0.2913-0.4369 (  3604 PWs)   bands (ev):

   -79.9262 -43.4548 -43.4546 -43.4539 -14.6075 -14.3514 -14.3133  -4.8813
    -4.2608  -4.1773  -4.1549  -4.0399   1.7414   2.6600   3.7589   4.3262
     4.3481   4.7152   4.7456   5.3614   5.6046   7.6868   7.7681   7.8587
     7.8923   7.9756  12.6796  13.8449  15.9153  16.3496  18.9047  20.1020

     occupation numbers 
     1.0000   1.0000   1.0000   1.0000   1.0000   1.0000   1.0000   1.0000
     1.0000   1.0000   1.0000   1.0000   1.0000   1.0000   1.0000   1.0000
     1.0000   1.0000   1.0000   1.0000   1.0000   1.0000   1.0000   1.0000
     1.0000   1.0000   0.0000   0.0000   0.0000   0.0000   0.0000   0.0000

          k = 0.0000 0.2913-0.2913 (  3604 PWs)   bands (ev):

   -79.9262 -43.4546 -43.4546 -43.4539 -14.6414 -14.3639 -14.3411  -4.6795
    -4.2351  -4.1552  -4.1550  -3.9547   1.8063   2.5963   3.8256   4.1846
     4.4040   4.7549   4.7594   5.2001   5.4542   7.6483   7.7976   7.8222
     7.8862   7.8963  11.9012  14.1620  15.7234  17.1750  18.9218  20.3190

     occupation numbers 
     1.0000   1.0000   1.0000   1.0000   1.0000   1.0000   1.0000   1.0000
     1.0000   1.0000   1.0000   1.0000   1.0000   1.0000   1.0000   1.0000
     1.0000   1.0000   1.0000   1.0000   1.0000   1.0000   1.0000   1.0000
     1.0000   1.0000   1.0008   0.0000   0.0000   0.0000   0.0000   0.0000

          k = 0.0000 0.2913-0.1456 (  3612 PWs)   bands (ev):

   -79.9263 -43.4547 -43.4542 -43.4539 -14.7276 -14.4075 -14.3535  -4.4272
    -4.1824  -4.1556  -4.1099  -3.5949   2.0542   2.4703   3.6509   4.0160
     4.5105   4.7776   4.8488   4.9052   5.1284   7.6370   7.6990   7.7171
     7.8672   7.8895  11.0349  13.7198  16.5186  18.0913  18.9705  20.6342

     occupation numbers 
     1.0000   1.0000   1.0000   1.0000   1.0000   1.0000   1.0000   1.0000
     1.0000   1.0000   1.0000   1.0000   1.0000   1.0000   1.0000   1.0000
     1.0000   1.0000   1.0000   1.0000   1.0000   1.0000   1.0000   1.0000
     1.0000   1.0000   1.0000   0.0000   0.0000   0.0000   0.0000   0.0000

          k = 0.0000-0.4369 0.0000 (  3588 PWs)   bands (ev):

   -79.9262 -43.4549 -43.4539 -43.4539 -14.7389 -14.4215 -14.3226  -4.6742
    -4.1775  -4.1775  -4.0860  -3.3211   2.4539   2.4539   3.4662   3.7322
     4.5541   4.7532   4.7532   4.8972   4.8972   7.6284   7.6563   7.8015
     7.9731   7.9731  12.1160  12.5146  16.7602  19.0868  19.0868  20.7435

     occupation numbers 
     1.0000   1.0000   1.0000   1.0000   1.0000   1.0000   1.0000   1.0000
     1.0000   1.0000   1.0000   1.0000   1.0000   1.0000   1.0000   1.0000
     1.0000   1.0000   1.0000   1.0000   1.0000   1.0000   1.0000   1.0000
     1.0000   1.0000   0.3838   0.0000   0.0000   0.0000   0.0000   0.0000

          k =-0.0000-0.4369 0.1456 (  3614 PWs)   bands (ev):

   -79.9263 -43.4549 -43.4542 -43.4539 -14.6899 -14.4053 -14.3195  -4.7165
    -4.2057  -4.1775  -4.1094  -3.6019   2.0570   2.5215   3.7563   4.0318
     4.4217   4.7417   4.8440   4.9400   5.0976   7.7109   7.7183   7.8049
     7.8707   7.9738  12.2586  12.8679  16.7697  17.6755  19.0286  20.5158

     occupation numbers 
     1.0000   1.0000   1.0000   1.0000   1.0000   1.0000   1.0000   1.0000
     1.0000   1.0000   1.0000   1.0000   1.0000   1.0000   1.0000   1.0000
     1.0000   1.0000   1.0000   1.0000   1.0000   1.0000   1.0000   1.0000
     1.0000   1.0000   0.0002   0.0000   0.0000   0.0000   0.0000   0.0000

          k =-0.0000-0.4369 0.2913 (  3604 PWs)   bands (ev):

   -79.9262 -43.4548 -43.4546 -43.4539 -14.6075 -14.3514 -14.3133  -4.8813
    -4.2608  -4.1773  -4.1549  -4.0399   1.7414   2.6600   3.7589   4.3262
     4.3482   4.7151   4.7457   5.3614   5.6046   7.6868   7.7681   7.8587
     7.8923   7.9756  12.6796  13.8449  15.9153  16.3496  18.9047  20.1020

     occupation numbers 
     1.0000   1.0000   1.0000   1.0000   1.0000   1.0000   1.0000   1.0000
     1.0000   1.0000   1.0000   1.0000   1.0000   1.0000   1.0000   1.0000
     1.0000   1.0000   1.0000   1.0000   1.0000   1.0000   1.0000   1.0000
     1.0000   1.0000   0.0000   0.0000   0.0000   0.0000   0.0000   0.0000

          k = 0.0000-0.4369-0.4369 (  3628 PWs)   bands (ev):

   -79.9263 -43.4548 -43.4548 -43.4539 -14.5776 -14.3102 -14.3102  -5.0244
    -4.2881  -4.1811  -4.1773  -4.1773   1.6525   2.7310   3.7374   4.3590
     4.3591   4.6999   4.6999   5.4719   5.9498   7.6039   7.7687   7.9113
     7.9767   7.9767  13.0610  15.0406  15.0407  15.3354  18.8389  19.9114

     occupation numbers 
     1.0000   1.0000   1.0000   1.0000   1.0000   1.0000   1.0000   1.0000
     1.0000   1.0000   1.0000   1.0000   1.0000   1.0000   1.0000   1.0000
     1.0000   1.0000   1.0000   1.0000   1.0000   1.0000   1.0000   1.0000
     1.0000   1.0000   0.0000   0.0000   0.0000   0.0000   0.0000   0.0000

          k = 0.1456-0.0000-0.0000 (  3635 PWs)   bands (ev):

   -79.9263 -43.4542 -43.4540 -43.4540 -14.8630 -14.4266 -14.4087  -4.1114
    -4.1114  -4.0882  -3.7004  -3.3215   2.3139   2.3139   2.5571   4.5859
     4.8380   4.8460   4.8460   4.9193   4.9193   7.4559   7.5058   7.6244
     7.7140   7.7140   9.3181  13.3914  17.7266  18.9081  18.9081  21.2587

     occupation numbers 
     1.0000   1.0000   1.0000   1.0000   1.0000   1.0000   1.0000   1.0000
     1.0000   1.0000   1.0000   1.0000   1.0000   1.0000   1.0000   1.0000
     1.0000   1.0000   1.0000   1.0000   1.0000   1.0000   1.0000   1.0000
     1.0000   1.0000   1.0000   0.0000   0.0000   0.0000   0.0000   0.0000

          k = 0.1456-0.0000 0.1456 (  3627 PWs)   bands (ev):

   -79.9263 -43.4542 -43.4542 -43.4540 -14.8151 -14.4150 -14.4001  -4.1355
    -4.1110  -4.1107  -3.8539  -3.5249   2.1117   2.3664   3.0688   4.3203
     4.6914   4.8374   4.8785   4.8960   5.0589   7.5274   7.5398   7.7099
     7.7203   7.7769   9.8197  13.6133  17.3677  18.3119  18.9183  21.5955

     occupation numbers 
     1.0000   1.0000   1.0000   1.0000   1.0000   1.0000   1.0000   1.0000
     1.0000   1.0000   1.0000   1.0000   1.0000   1.0000   1.0000   1.0000
     1.0000   1.0000   1.0000   1.0000   1.0000   1.0000   1.0000   1.0000
     1.0000   1.0000   1.0000   0.0000   0.0000   0.0000   0.0000   0.0000

          k = 0.1456-0.0000 0.2913 (  3612 PWs)   bands (ev):

   -79.9263 -43.4547 -43.4542 -43.4539 -14.7276 -14.4075 -14.3535  -4.4272
    -4.1824  -4.1556  -4.1099  -3.5949   2.0542   2.4703   3.6509   4.0160
     4.5105   4.7776   4.8488   4.9052   5.1284   7.6370   7.6990   7.7171
     7.8672   7.8895  11.0349  13.7198  16.5186  18.0913  18.9705  20.6342

     occupation numbers 
     1.0000   1.0000   1.0000   1.0000   1.0000   1.0000   1.0000   1.0000
     1.0000   1.0000   1.0000   1.0000   1.0000   1.0000   1.0000   1.0000
     1.0000   1.0000   1.0000   1.0000   1.0000   1.0000   1.0000   1.0000
     1.0000   1.0000   1.0000   0.0000   0.0000   0.0000   0.0000   0.0000

          k = 0.1456 0.0000-0.4369 (  3614 PWs)   bands (ev):

   -79.9263 -43.4549 -43.4542 -43.4539 -14.6899 -14.4053 -14.3195  -4.7165
    -4.2057  -4.1775  -4.1094  -3.6019   2.0570   2.5215   3.7563   4.0318
     4.4217   4.7417   4.8439   4.9400   5.0976   7.7109   7.7183   7.8049
     7.8707   7.9738  12.2586  12.8679  16.7697  17.6755  19.0286  20.5157

     occupation numbers 
     1.0000   1.0000   1.0000   1.0000   1.0000   1.0000   1.0000   1.0000
     1.0000   1.0000   1.0000   1.0000   1.0000   1.0000   1.0000   1.0000
     1.0000   1.0000   1.0000   1.0000   1.0000   1.0000   1.0000   1.0000
     1.0000   1.0000   0.0002   0.0000   0.0000   0.0000   0.0000   0.0000

          k = 0.1456 0.0000-0.2913 (  3612 PWs)   bands (ev):

   -79.9263 -43.4547 -43.4542 -43.4539 -14.7276 -14.4075 -14.3535  -4.4272
    -4.1824  -4.1556  -4.1099  -3.5949   2.0542   2.4703   3.6509   4.0160
     4.5105   4.7776   4.8488   4.9052   5.1284   7.6370   7.6990   7.7171
     7.8672   7.8895  11.0349  13.7198  16.5186  18.0913  18.9705  20.6342

     occupation numbers 
     1.0000   1.0000   1.0000   1.0000   1.0000   1.0000   1.0000   1.0000
     1.0000   1.0000   1.0000   1.0000   1.0000   1.0000   1.0000   1.0000
     1.0000   1.0000   1.0000   1.0000   1.0000   1.0000   1.0000   1.0000
     1.0000   1.0000   1.0000   0.0000   0.0000   0.0000   0.0000   0.0000

          k = 0.1456 0.0000-0.1456 (  3627 PWs)   bands (ev):

   -79.9263 -43.4542 -43.4542 -43.4540 -14.8151 -14.4150 -14.4001  -4.1355
    -4.1110  -4.1107  -3.8539  -3.5249   2.1117   2.3664   3.0688   4.3203
     4.6914   4.8374   4.8785   4.8960   5.0589   7.5274   7.5398   7.7099
     7.7203   7.7769   9.8197  13.6133  17.3677  18.3119  18.9183  21.5955

     occupation numbers 
     1.0000   1.0000   1.0000   1.0000   1.0000   1.0000   1.0000   1.0000
     1.0000   1.0000   1.0000   1.0000   1.0000   1.0000   1.0000   1.0000
     1.0000   1.0000   1.0000   1.0000   1.0000   1.0000   1.0000   1.0000
     1.0000   1.0000   1.0000   0.0000   0.0000   0.0000   0.0000   0.0000

          k = 0.1456 0.1456-0.0000 (  3627 PWs)   bands (ev):

   -79.9263 -43.4542 -43.4542 -43.4540 -14.8151 -14.4150 -14.4001  -4.1355
    -4.1110  -4.1107  -3.8539  -3.5249   2.1117   2.3664   3.0688   4.3203
     4.6914   4.8374   4.8785   4.8960   5.0589   7.5274   7.5398   7.7099
     7.7203   7.7769   9.8197  13.6133  17.3677  18.3119  18.9183  21.5954

     occupation numbers 
     1.0000   1.0000   1.0000   1.0000   1.0000   1.0000   1.0000   1.0000
     1.0000   1.0000   1.0000   1.0000   1.0000   1.0000   1.0000   1.0000
     1.0000   1.0000   1.0000   1.0000   1.0000   1.0000   1.0000   1.0000
     1.0000   1.0000   1.0000   0.0000   0.0000   0.0000   0.0000   0.0000

          k = 0.1456 0.1456 0.1456 (  3620 PWs)   bands (ev):

   -79.9263 -43.4542 -43.4542 -43.4542 -14.7651 -14.3987 -14.3982  -4.1356
    -4.1345  -4.1345  -3.8532  -3.8531   1.6316   3.1293   3.1319   4.1623
     4.6300   4.6312   5.0127   5.0135   5.0933   7.5503   7.5507   7.7069
     7.8195   7.8199  10.2536  13.8020  17.5272  17.5305  18.6234  21.1496

     occupation numbers 
     1.0000   1.0000   1.0000   1.0000   1.0000   1.0000   1.0000   1.0000
     1.0000   1.0000   1.0000   1.0000   1.0000   1.0000   1.0000   1.0000
     1.0000   1.0000   1.0000   1.0000   1.0000   1.0000   1.0000   1.0000
     1.0000   1.0000   1.0000   0.0000   0.0000   0.0000   0.0000   0.0000

          k = 0.1456 0.1456 0.2913 (  3623 PWs)   bands (ev):

   -79.9263 -43.4546 -43.4542 -43.4542 -14.6743 -14.3952 -14.3508  -4.4616
    -4.1832  -4.1806  -4.1338  -3.8520   1.3911   3.2565   3.7927   4.0037
     4.4050   4.6758   4.9794   5.1063   5.1570   7.6225   7.6770   7.7575
     7.8655   7.9129  11.3387  13.8906  16.5471  17.9754  17.9889  20.5387

     occupation numbers 
     1.0000   1.0000   1.0000   1.0000   1.0000   1.0000   1.0000   1.0000
     1.0000   1.0000   1.0000   1.0000   1.0000   1.0000   1.0000   1.0000
     1.0000   1.0000   1.0000   1.0000   1.0000   1.0000   1.0000   1.0000
     1.0000   1.0000   1.0000   0.0000   0.0000   0.0000   0.0000   0.0000

          k = 0.1456 0.1456-0.4369 (  3608 PWs)   bands (ev):

   -79.9262 -43.4549 -43.4541 -43.4541 -14.6359 -14.3936 -14.3168  -4.7466
    -4.2068  -4.2032  -4.1332  -3.8514   1.3356   3.3214   3.7860   4.1437
     4.3148   4.9334   4.9391   4.9556   5.1724   7.6590   7.8042   7.8421
     7.8440   7.8942  12.3792  13.1932  16.8584  17.2266  18.3783  19.7825

     occupation numbers 
     1.0000   1.0000   1.0000   1.0000   1.0000   1.0000   1.0000   1.0000
     1.0000   1.0000   1.0000   1.0000   1.0000   1.0000   1.0000   1.0000
     1.0000   1.0000   1.0000   1.0000   1.0000   1.0000   1.0000   1.0000
     1.0000   1.0000   0.0000   0.0000   0.0000   0.0000   0.0000   0.0000

          k = 0.1456 0.1456-0.2913 (  3623 PWs)   bands (ev):

   -79.9263 -43.4546 -43.4542 -43.4542 -14.6743 -14.3952 -14.3508  -4.4616
    -4.1832  -4.1806  -4.1338  -3.8520   1.3911   3.2565   3.7927   4.0037
     4.4050   4.6758   4.9794   5.1063   5.1570   7.6225   7.6770   7.7575
     7.8655   7.9129  11.3387  13.8906  16.5471  17.9754  17.9889  20.5387

     occupation numbers 
     1.0000   1.0000   1.0000   1.0000   1.0000   1.0000   1.0000   1.0000
     1.0000   1.0000   1.0000   1.0000   1.0000   1.0000   1.0000   1.0000
     1.0000   1.0000   1.0000   1.0000   1.0000   1.0000   1.0000   1.0000
     1.0000   1.0000   1.0000   0.0000   0.0000   0.0000   0.0000   0.0000

          k = 0.1456 0.1456-0.1456 (  3620 PWs)   bands (ev):

   -79.9263 -43.4542 -43.4542 -43.4542 -14.7651 -14.3985 -14.3985  -4.1356
    -4.1345  -4.1345  -3.8532  -3.8532   1.6316   3.1306   3.1306   4.1623
     4.6306   4.6306   5.0131   5.0131   5.0933   7.5505   7.5505   7.7069
     7.8197   7.8197  10.2536  13.8020  17.5288  17.5288  18.6234  21.1496

     occupation numbers 
     1.0000   1.0000   1.0000   1.0000   1.0000   1.0000   1.0000   1.0000
     1.0000   1.0000   1.0000   1.0000   1.0000   1.0000   1.0000   1.0000
     1.0000   1.0000   1.0000   1.0000   1.0000   1.0000   1.0000   1.0000
     1.0000   1.0000   1.0000   0.0000   0.0000   0.0000   0.0000   0.0000

          k = 0.1456 0.2913-0.0000 (  3612 PWs)   bands (ev):

   -79.9263 -43.4547 -43.4542 -43.4539 -14.7276 -14.4075 -14.3535  -4.4272
    -4.1825  -4.1555  -4.1099  -3.5949   2.0542   2.4703   3.6509   4.0160
     4.5105   4.7776   4.8488   4.9052   5.1284   7.6370   7.6990   7.7171
     7.8672   7.8895  11.0349  13.7198  16.5186  18.0913  18.9705  20.6342

     occupation numbers 
     1.0000   1.0000   1.0000   1.0000   1.0000   1.0000   1.0000   1.0000
     1.0000   1.0000   1.0000   1.0000   1.0000   1.0000   1.0000   1.0000
     1.0000   1.0000   1.0000   1.0000   1.0000   1.0000   1.0000   1.0000
     1.0000   1.0000   1.0000   0.0000   0.0000   0.0000   0.0000   0.0000

          k = 0.1456 0.2913 0.1456 (  3623 PWs)   bands (ev):

   -79.9263 -43.4546 -43.4542 -43.4542 -14.6743 -14.3952 -14.3508  -4.4616
    -4.1832  -4.1806  -4.1338  -3.8520   1.3911   3.2565   3.7927   4.0037
     4.4050   4.6758   4.9794   5.1063   5.1570   7.6225   7.6770   7.7575
     7.8655   7.9129  11.3387  13.8906  16.5471  17.9754  17.9889  20.5387

     occupation numbers 
     1.0000   1.0000   1.0000   1.0000   1.0000   1.0000   1.0000   1.0000
     1.0000   1.0000   1.0000   1.0000   1.0000   1.0000   1.0000   1.0000
     1.0000   1.0000   1.0000   1.0000   1.0000   1.0000   1.0000   1.0000
     1.0000   1.0000   1.0000   0.0000   0.0000   0.0000   0.0000   0.0000

          k = 0.1456 0.2913 0.2913 (  3620 PWs)   bands (ev):

   -79.9263 -43.4546 -43.4546 -43.4541 -14.5800 -14.3586 -14.3396  -4.6790
    -4.2343  -4.1939  -4.1807  -4.1803   0.9768   3.6802   3.8626   4.1700
     4.2943   4.7812   5.0229   5.2749   5.4505   7.6496   7.7081   7.7482
     7.8913   7.9293  12.0978  14.2377  15.9818  17.2255  17.9253  19.8352

     occupation numbers 
     1.0000   1.0000   1.0000   1.0000   1.0000   1.0000   1.0000   1.0000
     1.0000   1.0000   1.0000   1.0000   1.0000   1.0000   1.0000   1.0000
     1.0000   1.0000   1.0000   1.0000   1.0000   1.0000   1.0000   1.0000
     1.0000   1.0000   0.5765   0.0000   0.0000   0.0000   0.0000   0.0000

          k = 0.1456 0.2913-0.4369 (  3606 PWs)   bands (ev):

   -79.9262 -43.4548 -43.4546 -43.4541 -14.5440 -14.3485 -14.3114  -4.8851
    -4.2594  -4.2568  -4.2037  -4.1801   0.8639   3.8131   3.8162   4.2216
     4.2230   4.9629   4.9645   5.3851   5.6016   7.6706   7.7283   7.8058
     7.8695   7.9168  12.6919  14.1145  15.9709  16.5818  18.2541  19.2968

     occupation numbers 
     1.0000   1.0000   1.0000   1.0000   1.0000   1.0000   1.0000   1.0000
     1.0000   1.0000   1.0000   1.0000   1.0000   1.0000   1.0000   1.0000
     1.0000   1.0000   1.0000   1.0000   1.0000   1.0000   1.0000   1.0000
     1.0000   1.0000   0.0000   0.0000   0.0000   0.0000   0.0000   0.0000

          k = 0.1456 0.2913-0.2913 (  3620 PWs)   bands (ev):

   -79.9263 -43.4546 -43.4546 -43.4541 -14.5800 -14.3586 -14.3396  -4.6790
    -4.2343  -4.1939  -4.1807  -4.1803   0.9768   3.6802   3.8626   4.1700
     4.2943   4.7812   5.0229   5.2749   5.4505   7.6496   7.7081   7.7482
     7.8913   7.9293  12.0978  14.2377  15.9818  17.2255  17.9253  19.8352

     occupation numbers 
     1.0000   1.0000   1.0000   1.0000   1.0000   1.0000   1.0000   1.0000
     1.0000   1.0000   1.0000   1.0000   1.0000   1.0000   1.0000   1.0000
     1.0000   1.0000   1.0000   1.0000   1.0000   1.0000   1.0000   1.0000
     1.0000   1.0000   0.5765   0.0000   0.0000   0.0000   0.0000   0.0000

          k = 0.1456 0.2913-0.1456 (  3623 PWs)   bands (ev):

   -79.9263 -43.4546 -43.4542 -43.4542 -14.6743 -14.3952 -14.3508  -4.4616
    -4.1832  -4.1806  -4.1338  -3.8520   1.3911   3.2565   3.7927   4.0037
     4.4050   4.6758   4.9794   5.1063   5.1570   7.6225   7.6770   7.7575
     7.8655   7.9129  11.3387  13.8906  16.5471  17.9754  17.9889  20.5387

     occupation numbers 
     1.0000   1.0000   1.0000   1.0000   1.0000   1.0000   1.0000   1.0000
     1.0000   1.0000   1.0000   1.0000   1.0000   1.0000   1.0000   1.0000
     1.0000   1.0000   1.0000   1.0000   1.0000   1.0000   1.0000   1.0000
     1.0000   1.0000   1.0000   0.0000   0.0000   0.0000   0.0000   0.0000

          k = 0.1456-0.4369 0.0000 (  3614 PWs)   bands (ev):

   -79.9263 -43.4549 -43.4542 -43.4539 -14.6899 -14.4053 -14.3195  -4.7165
    -4.2057  -4.1775  -4.1094  -3.6019   2.0570   2.5215   3.7563   4.0318
     4.4217   4.7417   4.8440   4.9400   5.0976   7.7109   7.7183   7.8049
     7.8707   7.9738  12.2586  12.8679  16.7697  17.6755  19.0286  20.5158

     occupation numbers 
     1.0000   1.0000   1.0000   1.0000   1.0000   1.0000   1.0000   1.0000
     1.0000   1.0000   1.0000   1.0000   1.0000   1.0000   1.0000   1.0000
     1.0000   1.0000   1.0000   1.0000   1.0000   1.0000   1.0000   1.0000
     1.0000   1.0000   0.0002   0.0000   0.0000   0.0000   0.0000   0.0000

          k = 0.1456-0.4369 0.1456 (  3608 PWs)   bands (ev):

   -79.9262 -43.4549 -43.4541 -43.4541 -14.6359 -14.3936 -14.3168  -4.7466
    -4.2068  -4.2032  -4.1332  -3.8514   1.3356   3.3214   3.7860   4.1437
     4.3148   4.9335   4.9391   4.9556   5.1724   7.6590   7.8042   7.8421
     7.8440   7.8942  12.3792  13.1932  16.8584  17.2266  18.3783  19.7825

     occupation numbers 
     1.0000   1.0000   1.0000   1.0000   1.0000   1.0000   1.0000   1.0000
     1.0000   1.0000   1.0000   1.0000   1.0000   1.0000   1.0000   1.0000
     1.0000   1.0000   1.0000   1.0000   1.0000   1.0000   1.0000   1.0000
     1.0000   1.0000   0.0000   0.0000   0.0000   0.0000   0.0000   0.0000

          k = 0.1456-0.4369 0.2913 (  3606 PWs)   bands (ev):

   -79.9262 -43.4548 -43.4546 -43.4541 -14.5440 -14.3485 -14.3114  -4.8851
    -4.2592  -4.2569  -4.2037  -4.1801   0.8639   3.8130   3.8163   4.2217
     4.2230   4.9628   4.9645   5.3851   5.6016   7.6706   7.7283   7.8058
     7.8695   7.9168  12.6919  14.1145  15.9709  16.5818  18.2541  19.2968

     occupation numbers 
     1.0000   1.0000   1.0000   1.0000   1.0000   1.0000   1.0000   1.0000
     1.0000   1.0000   1.0000   1.0000   1.0000   1.0000   1.0000   1.0000
     1.0000   1.0000   1.0000   1.0000   1.0000   1.0000   1.0000   1.0000
     1.0000   1.0000   0.0000   0.0000   0.0000   0.0000   0.0000   0.0000

          k = 0.1456-0.4369-0.4369 (  3616 PWs)   bands (ev):

   -79.9262 -43.4548 -43.4548 -43.4541 -14.5122 -14.3087 -14.3087  -5.0239
    -4.3821  -4.2858  -4.2032  -4.2032   0.7320   3.8068   3.9727   4.2104
     4.2104   4.9665   4.9665   5.4915   5.9510   7.5842   7.7774   7.8642
     7.8642   7.8838  12.9197  15.3319  15.3319  15.5197  18.3319  19.4190

     occupation numbers 
     1.0000   1.0000   1.0000   1.0000   1.0000   1.0000   1.0000   1.0000
     1.0000   1.0000   1.0000   1.0000   1.0000   1.0000   1.0000   1.0000
     1.0000   1.0000   1.0000   1.0000   1.0000   1.0000   1.0000   1.0000
     1.0000   1.0000   0.0000   0.0000   0.0000   0.0000   0.0000   0.0000

          k = 0.1456-0.4369-0.2913 (  3606 PWs)   bands (ev):

   -79.9262 -43.4548 -43.4546 -43.4541 -14.5440 -14.3485 -14.3114  -4.8851
    -4.2592  -4.2569  -4.2037  -4.1801   0.8639   3.8130   3.8163   4.2217
     4.2230   4.9628   4.9645   5.3851   5.6016   7.6706   7.7283   7.8058
     7.8695   7.9168  12.6919  14.1145  15.9709  16.5818  18.2541  19.2968

     occupation numbers 
     1.0000   1.0000   1.0000   1.0000   1.0000   1.0000   1.0000   1.0000
     1.0000   1.0000   1.0000   1.0000   1.0000   1.0000   1.0000   1.0000
     1.0000   1.0000   1.0000   1.0000   1.0000   1.0000   1.0000   1.0000
     1.0000   1.0000   0.0000   0.0000   0.0000   0.0000   0.0000   0.0000

          k = 0.1456-0.4369-0.1456 (  3608 PWs)   bands (ev):

   -79.9262 -43.4549 -43.4541 -43.4541 -14.6359 -14.3936 -14.3168  -4.7466
    -4.2068  -4.2032  -4.1332  -3.8514   1.3356   3.3214   3.7860   4.1437
     4.3148   4.9335   4.9391   4.9556   5.1724   7.6590   7.8042   7.8421
     7.8440   7.8942  12.3792  13.1932  16.8584  17.2266  18.3783  19.7825

     occupation numbers 
     1.0000   1.0000   1.0000   1.0000   1.0000   1.0000   1.0000   1.0000
     1.0000   1.0000   1.0000   1.0000   1.0000   1.0000   1.0000   1.0000
     1.0000   1.0000   1.0000   1.0000   1.0000   1.0000   1.0000   1.0000
     1.0000   1.0000   0.0000   0.0000   0.0000   0.0000   0.0000   0.0000

          k = 0.1456-0.2913 0.0000 (  3612 PWs)   bands (ev):

   -79.9263 -43.4547 -43.4542 -43.4539 -14.7276 -14.4075 -14.3535  -4.4272
    -4.1825  -4.1555  -4.1099  -3.5949   2.0542   2.4703   3.6509   4.0160
     4.5105   4.7776   4.8488   4.9052   5.1284   7.6370   7.6990   7.7171
     7.8672   7.8895  11.0349  13.7198  16.5186  18.0913  18.9705  20.6342

     occupation numbers 
     1.0000   1.0000   1.0000   1.0000   1.0000   1.0000   1.0000   1.0000
     1.0000   1.0000   1.0000   1.0000   1.0000   1.0000   1.0000   1.0000
     1.0000   1.0000   1.0000   1.0000   1.0000   1.0000   1.0000   1.0000
     1.0000   1.0000   1.0000   0.0000   0.0000   0.0000   0.0000   0.0000

          k = 0.1456-0.2913 0.1456 (  3623 PWs)   bands (ev):

   -79.9263 -43.4546 -43.4542 -43.4542 -14.6743 -14.3952 -14.3508  -4.4616
    -4.1832  -4.1806  -4.1338  -3.8520   1.3911   3.2565   3.7927   4.0037
     4.4050   4.6758   4.9794   5.1063   5.1570   7.6225   7.6770   7.7575
     7.8655   7.9129  11.3387  13.8906  16.5471  17.9754  17.9889  20.5387

     occupation numbers 
     1.0000   1.0000   1.0000   1.0000   1.0000   1.0000   1.0000   1.0000
     1.0000   1.0000   1.0000   1.0000   1.0000   1.0000   1.0000   1.0000
     1.0000   1.0000   1.0000   1.0000   1.0000   1.0000   1.0000   1.0000
     1.0000   1.0000   1.0000   0.0000   0.0000   0.0000   0.0000   0.0000

          k = 0.1456-0.2913 0.2913 (  3620 PWs)   bands (ev):

   -79.9263 -43.4546 -43.4546 -43.4541 -14.5800 -14.3586 -14.3396  -4.6790
    -4.2343  -4.1939  -4.1807  -4.1803   0.9768   3.6802   3.8626   4.1700
     4.2943   4.7812   5.0229   5.2749   5.4505   7.6496   7.7081   7.7482
     7.8913   7.9293  12.0978  14.2377  15.9818  17.2255  17.9253  19.8352

     occupation numbers 
     1.0000   1.0000   1.0000   1.0000   1.0000   1.0000   1.0000   1.0000
     1.0000   1.0000   1.0000   1.0000   1.0000   1.0000   1.0000   1.0000
     1.0000   1.0000   1.0000   1.0000   1.0000   1.0000   1.0000   1.0000
     1.0000   1.0000   0.5765   0.0000   0.0000   0.0000   0.0000   0.0000

          k = 0.1456-0.2913-0.4369 (  3606 PWs)   bands (ev):

   -79.9262 -43.4548 -43.4546 -43.4541 -14.5440 -14.3485 -14.3114  -4.8851
    -4.2594  -4.2568  -4.2037  -4.1801   0.8639   3.8131   3.8162   4.2216
     4.2230   4.9629   4.9645   5.3851   5.6016   7.6706   7.7283   7.8058
     7.8695   7.9168  12.6919  14.1145  15.9709  16.5818  18.2541  19.2968

     occupation numbers 
     1.0000   1.0000   1.0000   1.0000   1.0000   1.0000   1.0000   1.0000
     1.0000   1.0000   1.0000   1.0000   1.0000   1.0000   1.0000   1.0000
     1.0000   1.0000   1.0000   1.0000   1.0000   1.0000   1.0000   1.0000
     1.0000   1.0000   0.0000   0.0000   0.0000   0.0000   0.0000   0.0000

          k = 0.1456-0.2913-0.2913 (  3620 PWs)   bands (ev):

   -79.9263 -43.4546 -43.4546 -43.4541 -14.5800 -14.3586 -14.3396  -4.6790
    -4.2343  -4.1939  -4.1807  -4.1803   0.9768   3.6802   3.8626   4.1700
     4.2943   4.7812   5.0229   5.2749   5.4505   7.6496   7.7081   7.7482
     7.8913   7.9293  12.0978  14.2377  15.9818  17.2255  17.9253  19.8352

     occupation numbers 
     1.0000   1.0000   1.0000   1.0000   1.0000   1.0000   1.0000   1.0000
     1.0000   1.0000   1.0000   1.0000   1.0000   1.0000   1.0000   1.0000
     1.0000   1.0000   1.0000   1.0000   1.0000   1.0000   1.0000   1.0000
     1.0000   1.0000   0.5765   0.0000   0.0000   0.0000   0.0000   0.0000

          k = 0.1456-0.2913-0.1456 (  3623 PWs)   bands (ev):

   -79.9263 -43.4546 -43.4542 -43.4542 -14.6743 -14.3952 -14.3508  -4.4616
    -4.1832  -4.1806  -4.1338  -3.8520   1.3911   3.2565   3.7927   4.0037
     4.4050   4.6758   4.9794   5.1063   5.1570   7.6225   7.6770   7.7575
     7.8655   7.9129  11.3387  13.8906  16.5471  17.9754  17.9889  20.5387

     occupation numbers 
     1.0000   1.0000   1.0000   1.0000   1.0000   1.0000   1.0000   1.0000
     1.0000   1.0000   1.0000   1.0000   1.0000   1.0000   1.0000   1.0000
     1.0000   1.0000   1.0000   1.0000   1.0000   1.0000   1.0000   1.0000
     1.0000   1.0000   1.0000   0.0000   0.0000   0.0000   0.0000   0.0000

          k = 0.1456-0.1456 0.0000 (  3627 PWs)   bands (ev):

   -79.9263 -43.4542 -43.4542 -43.4540 -14.8151 -14.4150 -14.4001  -4.1355
    -4.1110  -4.1107  -3.8539  -3.5249   2.1117   2.3664   3.0688   4.3203
     4.6914   4.8374   4.8785   4.8960   5.0589   7.5274   7.5398   7.7099
     7.7203   7.7769   9.8197  13.6133  17.3677  18.3119  18.9183  21.5954

     occupation numbers 
     1.0000   1.0000   1.0000   1.0000   1.0000   1.0000   1.0000   1.0000
     1.0000   1.0000   1.0000   1.0000   1.0000   1.0000   1.0000   1.0000
     1.0000   1.0000   1.0000   1.0000   1.0000   1.0000   1.0000   1.0000
     1.0000   1.0000   1.0000   0.0000   0.0000   0.0000   0.0000   0.0000

          k = 0.1456-0.1456 0.1456 (  3620 PWs)   bands (ev):

   -79.9263 -43.4542 -43.4542 -43.4542 -14.7651 -14.3986 -14.3984  -4.1356
    -4.1345  -4.1345  -3.8532  -3.8532   1.6316   3.1302   3.1310   4.1623
     4.6304   4.6308   5.0130   5.0133   5.0933   7.5505   7.5506   7.7069
     7.8196   7.8197  10.2536  13.8020  17.5283  17.5294  18.6234  21.1496

     occupation numbers 
     1.0000   1.0000   1.0000   1.0000   1.0000   1.0000   1.0000   1.0000
     1.0000   1.0000   1.0000   1.0000   1.0000   1.0000   1.0000   1.0000
     1.0000   1.0000   1.0000   1.0000   1.0000   1.0000   1.0000   1.0000
     1.0000   1.0000   1.0000   0.0000   0.0000   0.0000   0.0000   0.0000

          k = 0.1456-0.1456 0.2913 (  3623 PWs)   bands (ev):

   -79.9263 -43.4546 -43.4542 -43.4542 -14.6743 -14.3952 -14.3508  -4.4616
    -4.1832  -4.1806  -4.1338  -3.8520   1.3911   3.2565   3.7927   4.0037
     4.4050   4.6758   4.9794   5.1063   5.1570   7.6225   7.6770   7.7575
     7.8655   7.9129  11.3387  13.8906  16.5471  17.9754  17.9889  20.5387

     occupation numbers 
     1.0000   1.0000   1.0000   1.0000   1.0000   1.0000   1.0000   1.0000
     1.0000   1.0000   1.0000   1.0000   1.0000   1.0000   1.0000   1.0000
     1.0000   1.0000   1.0000   1.0000   1.0000   1.0000   1.0000   1.0000
     1.0000   1.0000   1.0000   0.0000   0.0000   0.0000   0.0000   0.0000

          k = 0.1456-0.1456-0.4369 (  3608 PWs)   bands (ev):

   -79.9262 -43.4549 -43.4541 -43.4541 -14.6359 -14.3936 -14.3168  -4.7466
    -4.2068  -4.2032  -4.1332  -3.8514   1.3356   3.3214   3.7860   4.1437
     4.3148   4.9334   4.9391   4.9556   5.1724   7.6590   7.8042   7.8421
     7.8440   7.8942  12.3792  13.1932  16.8584  17.2266  18.3783  19.7825

     occupation numbers 
     1.0000   1.0000   1.0000   1.0000   1.0000   1.0000   1.0000   1.0000
     1.0000   1.0000   1.0000   1.0000   1.0000   1.0000   1.0000   1.0000
     1.0000   1.0000   1.0000   1.0000   1.0000   1.0000   1.0000   1.0000
     1.0000   1.0000   0.0000   0.0000   0.0000   0.0000   0.0000   0.0000

          k = 0.1456-0.1456-0.2913 (  3623 PWs)   bands (ev):

   -79.9263 -43.4546 -43.4542 -43.4542 -14.6743 -14.3952 -14.3508  -4.4616
    -4.1832  -4.1806  -4.1338  -3.8520   1.3911   3.2565   3.7927   4.0037
     4.4050   4.6758   4.9794   5.1063   5.1570   7.6225   7.6770   7.7575
     7.8655   7.9129  11.3387  13.8906  16.5471  17.9755  17.9889  20.5387

     occupation numbers 
     1.0000   1.0000   1.0000   1.0000   1.0000   1.0000   1.0000   1.0000
     1.0000   1.0000   1.0000   1.0000   1.0000   1.0000   1.0000   1.0000
     1.0000   1.0000   1.0000   1.0000   1.0000   1.0000   1.0000   1.0000
     1.0000   1.0000   1.0000   0.0000   0.0000   0.0000   0.0000   0.0000

          k = 0.1456-0.1456-0.1456 (  3620 PWs)   bands (ev):

   -79.9263 -43.4542 -43.4542 -43.4542 -14.7651 -14.3987 -14.3983  -4.1356
    -4.1345  -4.1345  -3.8532  -3.8532   1.6316   3.1297   3.1315   4.1623
     4.6302   4.6310   5.0129   5.0134   5.0933   7.5504   7.5506   7.7069
     7.8195   7.8198  10.2536  13.8020  17.5277  17.5299  18.6234  21.1496

     occupation numbers 
     1.0000   1.0000   1.0000   1.0000   1.0000   1.0000   1.0000   1.0000
     1.0000   1.0000   1.0000   1.0000   1.0000   1.0000   1.0000   1.0000
     1.0000   1.0000   1.0000   1.0000   1.0000   1.0000   1.0000   1.0000
     1.0000   1.0000   1.0000   0.0000   0.0000   0.0000   0.0000   0.0000

          k = 0.2913-0.0000-0.0000 (  3619 PWs)   bands (ev):

   -79.9263 -43.4547 -43.4540 -43.4540 -14.7769 -14.4232 -14.3567  -4.3697
    -4.1558  -4.1558  -4.0868  -3.3213   2.4078   2.4078   3.0929   4.0889
     4.6423   4.7862   4.7862   4.8993   4.8993   7.5885   7.6270   7.7095
     7.8886   7.8886  10.6965  13.5067  16.6553  18.9985  18.9985  21.2967

     occupation numbers 
     1.0000   1.0000   1.0000   1.0000   1.0000   1.0000   1.0000   1.0000
     1.0000   1.0000   1.0000   1.0000   1.0000   1.0000   1.0000   1.0000
     1.0000   1.0000   1.0000   1.0000   1.0000   1.0000   1.0000   1.0000
     1.0000   1.0000   1.0000   0.0000   0.0000   0.0000   0.0000   0.0000

          k = 0.2913-0.0000 0.1456 (  3612 PWs)   bands (ev):

   -79.9263 -43.4547 -43.4542 -43.4539 -14.7276 -14.4075 -14.3535  -4.4272
    -4.1824  -4.1555  -4.1099  -3.5949   2.0542   2.4703   3.6509   4.0160
     4.5105   4.7776   4.8488   4.9052   5.1284   7.6370   7.6990   7.7171
     7.8672   7.8895  11.0349  13.7198  16.5186  18.0913  18.9705  20.6342

     occupation numbers 
     1.0000   1.0000   1.0000   1.0000   1.0000   1.0000   1.0000   1.0000
     1.0000   1.0000   1.0000   1.0000   1.0000   1.0000   1.0000   1.0000
     1.0000   1.0000   1.0000   1.0000   1.0000   1.0000   1.0000   1.0000
     1.0000   1.0000   1.0000   0.0000   0.0000   0.0000   0.0000   0.0000

          k = 0.2913-0.0000 0.2913 (  3604 PWs)   bands (ev):

   -79.9262 -43.4546 -43.4546 -43.4539 -14.6414 -14.3639 -14.3411  -4.6795
    -4.2351  -4.1552  -4.1550  -3.9547   1.8063   2.5963   3.8256   4.1846
     4.4040   4.7549   4.7595   5.2001   5.4541   7.6483   7.7976   7.8222
     7.8862   7.8963  11.9012  14.1620  15.7234  17.1749  18.9218  20.3190

     occupation numbers 
     1.0000   1.0000   1.0000   1.0000   1.0000   1.0000   1.0000   1.0000
     1.0000   1.0000   1.0000   1.0000   1.0000   1.0000   1.0000   1.0000
     1.0000   1.0000   1.0000   1.0000   1.0000   1.0000   1.0000   1.0000
     1.0000   1.0000   1.0008   0.0000   0.0000   0.0000   0.0000   0.0000

          k = 0.2913 0.0000-0.4369 (  3604 PWs)   bands (ev):

   -79.9262 -43.4548 -43.4546 -43.4539 -14.6075 -14.3514 -14.3133  -4.8813
    -4.2608  -4.1773  -4.1549  -4.0399   1.7414   2.6601   3.7589   4.3262
     4.3482   4.7152   4.7456   5.3614   5.6046   7.6868   7.7681   7.8587
     7.8923   7.9756  12.6796  13.8449  15.9153  16.3496  18.9047  20.1020

     occupation numbers 
     1.0000   1.0000   1.0000   1.0000   1.0000   1.0000   1.0000   1.0000
     1.0000   1.0000   1.0000   1.0000   1.0000   1.0000   1.0000   1.0000
     1.0000   1.0000   1.0000   1.0000   1.0000   1.0000   1.0000   1.0000
     1.0000   1.0000   0.0000   0.0000   0.0000   0.0000   0.0000   0.0000

          k = 0.2913 0.0000-0.2913 (  3604 PWs)   bands (ev):

   -79.9262 -43.4546 -43.4546 -43.4539 -14.6414 -14.3639 -14.3411  -4.6795
    -4.2351  -4.1552  -4.1550  -3.9547   1.8063   2.5963   3.8256   4.1846
     4.4040   4.7549   4.7595   5.2001   5.4541   7.6483   7.7976   7.8222
     7.8862   7.8963  11.9012  14.1620  15.7234  17.1749  18.9218  20.3190

     occupation numbers 
     1.0000   1.0000   1.0000   1.0000   1.0000   1.0000   1.0000   1.0000
     1.0000   1.0000   1.0000   1.0000   1.0000   1.0000   1.0000   1.0000
     1.0000   1.0000   1.0000   1.0000   1.0000   1.0000   1.0000   1.0000
     1.0000   1.0000   1.0008   0.0000   0.0000   0.0000   0.0000   0.0000

          k = 0.2913 0.0000-0.1456 (  3612 PWs)   bands (ev):

   -79.9263 -43.4547 -43.4542 -43.4539 -14.7276 -14.4075 -14.3535  -4.4272
    -4.1824  -4.1555  -4.1099  -3.5949   2.0542   2.4703   3.6509   4.0160
     4.5105   4.7776   4.8488   4.9052   5.1284   7.6370   7.6990   7.7171
     7.8672   7.8895  11.0349  13.7198  16.5186  18.0913  18.9705  20.6342

     occupation numbers 
     1.0000   1.0000   1.0000   1.0000   1.0000   1.0000   1.0000   1.0000
     1.0000   1.0000   1.0000   1.0000   1.0000   1.0000   1.0000   1.0000
     1.0000   1.0000   1.0000   1.0000   1.0000   1.0000   1.0000   1.0000
     1.0000   1.0000   1.0000   0.0000   0.0000   0.0000   0.0000   0.0000

          k = 0.2913 0.1456-0.0000 (  3612 PWs)   bands (ev):

   -79.9263 -43.4547 -43.4542 -43.4539 -14.7276 -14.4075 -14.3535  -4.4272
    -4.1824  -4.1556  -4.1099  -3.5949   2.0542   2.4703   3.6509   4.0160
     4.5105   4.7775   4.8488   4.9052   5.1284   7.6370   7.6990   7.7171
     7.8672   7.8895  11.0349  13.7198  16.5186  18.0913  18.9705  20.6342

     occupation numbers 
     1.0000   1.0000   1.0000   1.0000   1.0000   1.0000   1.0000   1.0000
     1.0000   1.0000   1.0000   1.0000   1.0000   1.0000   1.0000   1.0000
     1.0000   1.0000   1.0000   1.0000   1.0000   1.0000   1.0000   1.0000
     1.0000   1.0000   1.0000   0.0000   0.0000   0.0000   0.0000   0.0000

          k = 0.2913 0.1456 0.1456 (  3623 PWs)   bands (ev):

   -79.9263 -43.4546 -43.4542 -43.4542 -14.6743 -14.3952 -14.3508  -4.4616
    -4.1832  -4.1806  -4.1338  -3.8520   1.3911   3.2565   3.7927   4.0037
     4.4050   4.6758   4.9794   5.1063   5.1570   7.6225   7.6770   7.7575
     7.8655   7.9129  11.3387  13.8906  16.5471  17.9754  17.9889  20.5387

     occupation numbers 
     1.0000   1.0000   1.0000   1.0000   1.0000   1.0000   1.0000   1.0000
     1.0000   1.0000   1.0000   1.0000   1.0000   1.0000   1.0000   1.0000
     1.0000   1.0000   1.0000   1.0000   1.0000   1.0000   1.0000   1.0000
     1.0000   1.0000   1.0000   0.0000   0.0000   0.0000   0.0000   0.0000

          k = 0.2913 0.1456 0.2913 (  3620 PWs)   bands (ev):

   -79.9263 -43.4546 -43.4546 -43.4541 -14.5800 -14.3586 -14.3396  -4.6790
    -4.2343  -4.1939  -4.1807  -4.1802   0.9768   3.6802   3.8626   4.1700
     4.2943   4.7812   5.0229   5.2749   5.4505   7.6496   7.7081   7.7482
     7.8913   7.9293  12.0978  14.2377  15.9818  17.2255  17.9253  19.8352

     occupation numbers 
     1.0000   1.0000   1.0000   1.0000   1.0000   1.0000   1.0000   1.0000
     1.0000   1.0000   1.0000   1.0000   1.0000   1.0000   1.0000   1.0000
     1.0000   1.0000   1.0000   1.0000   1.0000   1.0000   1.0000   1.0000
     1.0000   1.0000   0.5765   0.0000   0.0000   0.0000   0.0000   0.0000

          k = 0.2913 0.1456-0.4369 (  3606 PWs)   bands (ev):

   -79.9262 -43.4548 -43.4546 -43.4541 -14.5440 -14.3485 -14.3114  -4.8851
    -4.2592  -4.2569  -4.2037  -4.1801   0.8639   3.8130   3.8164   4.2216
     4.2230   4.9628   4.9646   5.3851   5.6016   7.6706   7.7283   7.8058
     7.8695   7.9168  12.6919  14.1145  15.9709  16.5818  18.2541  19.2968

     occupation numbers 
     1.0000   1.0000   1.0000   1.0000   1.0000   1.0000   1.0000   1.0000
     1.0000   1.0000   1.0000   1.0000   1.0000   1.0000   1.0000   1.0000
     1.0000   1.0000   1.0000   1.0000   1.0000   1.0000   1.0000   1.0000
     1.0000   1.0000   0.0000   0.0000   0.0000   0.0000   0.0000   0.0000

          k = 0.2913 0.1456-0.2913 (  3620 PWs)   bands (ev):

   -79.9263 -43.4546 -43.4546 -43.4541 -14.5800 -14.3586 -14.3396  -4.6790
    -4.2343  -4.1939  -4.1807  -4.1803   0.9768   3.6802   3.8626   4.1700
     4.2943   4.7812   5.0229   5.2749   5.4505   7.6496   7.7081   7.7482
     7.8913   7.9293  12.0978  14.2377  15.9818  17.2255  17.9253  19.8352

     occupation numbers 
     1.0000   1.0000   1.0000   1.0000   1.0000   1.0000   1.0000   1.0000
     1.0000   1.0000   1.0000   1.0000   1.0000   1.0000   1.0000   1.0000
     1.0000   1.0000   1.0000   1.0000   1.0000   1.0000   1.0000   1.0000
     1.0000   1.0000   0.5765   0.0000   0.0000   0.0000   0.0000   0.0000

          k = 0.2913 0.1456-0.1456 (  3623 PWs)   bands (ev):

   -79.9263 -43.4546 -43.4542 -43.4542 -14.6743 -14.3952 -14.3508  -4.4616
    -4.1832  -4.1806  -4.1338  -3.8520   1.3911   3.2565   3.7927   4.0037
     4.4050   4.6758   4.9794   5.1063   5.1570   7.6225   7.6770   7.7575
     7.8655   7.9129  11.3387  13.8906  16.5471  17.9755  17.9889  20.5387

     occupation numbers 
     1.0000   1.0000   1.0000   1.0000   1.0000   1.0000   1.0000   1.0000
     1.0000   1.0000   1.0000   1.0000   1.0000   1.0000   1.0000   1.0000
     1.0000   1.0000   1.0000   1.0000   1.0000   1.0000   1.0000   1.0000
     1.0000   1.0000   1.0000   0.0000   0.0000   0.0000   0.0000   0.0000

          k = 0.2913 0.2913-0.0000 (  3604 PWs)   bands (ev):

   -79.9262 -43.4546 -43.4546 -43.4539 -14.6414 -14.3639 -14.3411  -4.6795
    -4.2351  -4.1552  -4.1550  -3.9547   1.8063   2.5963   3.8256   4.1846
     4.4040   4.7549   4.7594   5.2001   5.4542   7.6483   7.7976   7.8222
     7.8862   7.8963  11.9012  14.1620  15.7234  17.1749  18.9218  20.3190

     occupation numbers 
     1.0000   1.0000   1.0000   1.0000   1.0000   1.0000   1.0000   1.0000
     1.0000   1.0000   1.0000   1.0000   1.0000   1.0000   1.0000   1.0000
     1.0000   1.0000   1.0000   1.0000   1.0000   1.0000   1.0000   1.0000
     1.0000   1.0000   1.0008   0.0000   0.0000   0.0000   0.0000   0.0000

          k = 0.2913 0.2913 0.1456 (  3620 PWs)   bands (ev):

   -79.9263 -43.4546 -43.4546 -43.4541 -14.5800 -14.3586 -14.3396  -4.6790
    -4.2343  -4.1939  -4.1807  -4.1803   0.9768   3.6802   3.8626   4.1700
     4.2943   4.7812   5.0229   5.2749   5.4505   7.6496   7.7081   7.7482
     7.8913   7.9293  12.0978  14.2377  15.9818  17.2255  17.9253  19.8352

     occupation numbers 
     1.0000   1.0000   1.0000   1.0000   1.0000   1.0000   1.0000   1.0000
     1.0000   1.0000   1.0000   1.0000   1.0000   1.0000   1.0000   1.0000
     1.0000   1.0000   1.0000   1.0000   1.0000   1.0000   1.0000   1.0000
     1.0000   1.0000   0.5765   0.0000   0.0000   0.0000   0.0000   0.0000

          k = 0.2913 0.2913 0.2913 (  3614 PWs)   bands (ev):

   -79.9262 -43.4546 -43.4546 -43.4546 -14.4628 -14.3367 -14.3362  -4.6779
    -4.6778  -4.2336  -4.2297  -4.2296   0.3753   3.9005   4.1241   4.1251
     4.8746   4.8769   5.3952   5.4433   5.4437   7.6407   7.6503   7.6507
     7.8804   7.8806  12.4895  14.5303  16.6984  16.7007  17.2167  19.2253

     occupation numbers 
     1.0000   1.0000   1.0000   1.0000   1.0000   1.0000   1.0000   1.0000
     1.0000   1.0000   1.0000   1.0000   1.0000   1.0000   1.0000   1.0000
     1.0000   1.0000   1.0000   1.0000   1.0000   1.0000   1.0000   1.0000
     1.0000   1.0000   0.0000   0.0000   0.0000   0.0000   0.0000   0.0000

          k = 0.2913 0.2913-0.4369 (  3608 PWs)   bands (ev):

   -79.9262 -43.4548 -43.4545 -43.4545 -14.4189 -14.3349 -14.3076  -4.9195
    -4.6772  -4.2575  -4.2540  -4.2296   0.2007   3.9163   4.0987   4.1096
     4.9341   5.2681   5.4315   5.4538   5.6543   7.6122   7.6448   7.6784
     7.8032   7.8671  12.6663  14.9025  16.0963  17.0383  17.5734  18.0716

     occupation numbers 
     1.0000   1.0000   1.0000   1.0000   1.0000   1.0000   1.0000   1.0000
     1.0000   1.0000   1.0000   1.0000   1.0000   1.0000   1.0000   1.0000
     1.0000   1.0000   1.0000   1.0000   1.0000   1.0000   1.0000   1.0000
     1.0000   1.0000   0.0000   0.0000   0.0000   0.0000   0.0000   0.0000

          k = 0.2913 0.2913-0.2913 (  3614 PWs)   bands (ev):

   -79.9262 -43.4546 -43.4546 -43.4546 -14.4628 -14.3365 -14.3365  -4.6778
    -4.6778  -4.2336  -4.2296  -4.2296   0.3753   3.9005   4.1246   4.1246
     4.8757   4.8757   5.3952   5.4435   5.4435   7.6407   7.6505   7.6505
     7.8805   7.8805  12.4895  14.5303  16.6995  16.6995  17.2167  19.2286

     occupation numbers 
     1.0000   1.0000   1.0000   1.0000   1.0000   1.0000   1.0000   1.0000
     1.0000   1.0000   1.0000   1.0000   1.0000   1.0000   1.0000   1.0000
     1.0000   1.0000   1.0000   1.0000   1.0000   1.0000   1.0000   1.0000
     1.0000   1.0000   0.0000   0.0000   0.0000   0.0000   0.0000   0.0000

          k = 0.2913 0.2913-0.1456 (  3620 PWs)   bands (ev):

   -79.9263 -43.4546 -43.4546 -43.4541 -14.5800 -14.3586 -14.3396  -4.6790
    -4.2343  -4.1939  -4.1807  -4.1803   0.9768   3.6802   3.8626   4.1700
     4.2943   4.7812   5.0229   5.2749   5.4505   7.6496   7.7081   7.7482
     7.8913   7.9293  12.0978  14.2377  15.9818  17.2255  17.9253  19.8352

     occupation numbers 
     1.0000   1.0000   1.0000   1.0000   1.0000   1.0000   1.0000   1.0000
     1.0000   1.0000   1.0000   1.0000   1.0000   1.0000   1.0000   1.0000
     1.0000   1.0000   1.0000   1.0000   1.0000   1.0000   1.0000   1.0000
     1.0000   1.0000   0.5765   0.0000   0.0000   0.0000   0.0000   0.0000

          k = 0.2913-0.4369 0.0000 (  3604 PWs)   bands (ev):

   -79.9262 -43.4548 -43.4546 -43.4539 -14.6075 -14.3514 -14.3133  -4.8813
    -4.2608  -4.1773  -4.1549  -4.0399   1.7414   2.6601   3.7589   4.3262
     4.3481   4.7151   4.7457   5.3614   5.6046   7.6868   7.7681   7.8587
     7.8923   7.9756  12.6796  13.8449  15.9153  16.3496  18.9047  20.1020

     occupation numbers 
     1.0000   1.0000   1.0000   1.0000   1.0000   1.0000   1.0000   1.0000
     1.0000   1.0000   1.0000   1.0000   1.0000   1.0000   1.0000   1.0000
     1.0000   1.0000   1.0000   1.0000   1.0000   1.0000   1.0000   1.0000
     1.0000   1.0000   0.0000   0.0000   0.0000   0.0000   0.0000   0.0000

          k = 0.2913-0.4369 0.1456 (  3606 PWs)   bands (ev):

   -79.9262 -43.4548 -43.4546 -43.4541 -14.5440 -14.3485 -14.3114  -4.8851
    -4.2593  -4.2568  -4.2037  -4.1801   0.8639   3.8131   3.8162   4.2216
     4.2230   4.9629   4.9645   5.3851   5.6016   7.6706   7.7283   7.8058
     7.8695   7.9168  12.6919  14.1145  15.9709  16.5818  18.2541  19.2968

     occupation numbers 
     1.0000   1.0000   1.0000   1.0000   1.0000   1.0000   1.0000   1.0000
     1.0000   1.0000   1.0000   1.0000   1.0000   1.0000   1.0000   1.0000
     1.0000   1.0000   1.0000   1.0000   1.0000   1.0000   1.0000   1.0000
     1.0000   1.0000   0.0000   0.0000   0.0000   0.0000   0.0000   0.0000

          k = 0.2913-0.4369 0.2913 (  3608 PWs)   bands (ev):

   -79.9262 -43.4548 -43.4545 -43.4545 -14.4189 -14.3349 -14.3076  -4.9195
    -4.6772  -4.2575  -4.2540  -4.2296   0.2007   3.9163   4.0987   4.1095
     4.9341   5.2681   5.4315   5.4538   5.6543   7.6122   7.6448   7.6784
     7.8032   7.8671  12.6663  14.9025  16.0963  17.0383  17.5734  18.0716

     occupation numbers 
     1.0000   1.0000   1.0000   1.0000   1.0000   1.0000   1.0000   1.0000
     1.0000   1.0000   1.0000   1.0000   1.0000   1.0000   1.0000   1.0000
     1.0000   1.0000   1.0000   1.0000   1.0000   1.0000   1.0000   1.0000
     1.0000   1.0000   0.0000   0.0000   0.0000   0.0000   0.0000   0.0000

          k = 0.2913-0.4369-0.4369 (  3612 PWs)   bands (ev):

   -79.9262 -43.4548 -43.4548 -43.4545 -14.3757 -14.3056 -14.3056  -5.0230
    -4.8044  -4.2813  -4.2540  -4.2540   0.0048   3.9525   4.0741   4.0741
     5.3615   5.3616   5.3766   5.5320   5.9532   7.5337   7.6267   7.6267
     7.7924   7.8274  12.6271  16.1060  16.1181  16.1187  17.5902  18.3269

     occupation numbers 
     1.0000   1.0000   1.0000   1.0000   1.0000   1.0000   1.0000   1.0000
     1.0000   1.0000   1.0000   1.0000   1.0000   1.0000   1.0000   1.0000
     1.0000   1.0000   1.0000   1.0000   1.0000   1.0000   1.0000   1.0000
     1.0000   1.0000   0.0000   0.0000   0.0000   0.0000   0.0000   0.0000

          k = 0.2913-0.4369-0.2913 (  3608 PWs)   bands (ev):

   -79.9262 -43.4548 -43.4545 -43.4545 -14.4189 -14.3349 -14.3076  -4.9195
    -4.6772  -4.2575  -4.2540  -4.2296   0.2007   3.9163   4.0987   4.1095
     4.9341   5.2681   5.4315   5.4538   5.6543   7.6122   7.6448   7.6784
     7.8032   7.8671  12.6663  14.9025  16.0963  17.0383  17.5734  18.0716

     occupation numbers 
     1.0000   1.0000   1.0000   1.0000   1.0000   1.0000   1.0000   1.0000
     1.0000   1.0000   1.0000   1.0000   1.0000   1.0000   1.0000   1.0000
     1.0000   1.0000   1.0000   1.0000   1.0000   1.0000   1.0000   1.0000
     1.0000   1.0000   0.0000   0.0000   0.0000   0.0000   0.0000   0.0000

          k = 0.2913-0.4369-0.1456 (  3606 PWs)   bands (ev):

   -79.9262 -43.4548 -43.4546 -43.4541 -14.5440 -14.3485 -14.3114  -4.8851
    -4.2593  -4.2568  -4.2037  -4.1801   0.8639   3.8131   3.8162   4.2216
     4.2230   4.9629   4.9645   5.3851   5.6016   7.6706   7.7283   7.8058
     7.8695   7.9168  12.6919  14.1145  15.9709  16.5818  18.2541  19.2968

     occupation numbers 
     1.0000   1.0000   1.0000   1.0000   1.0000   1.0000   1.0000   1.0000
     1.0000   1.0000   1.0000   1.0000   1.0000   1.0000   1.0000   1.0000
     1.0000   1.0000   1.0000   1.0000   1.0000   1.0000   1.0000   1.0000
     1.0000   1.0000   0.0000   0.0000   0.0000   0.0000   0.0000   0.0000

          k = 0.2913-0.2913 0.0000 (  3604 PWs)   bands (ev):

   -79.9262 -43.4546 -43.4546 -43.4539 -14.6414 -14.3639 -14.3411  -4.6795
    -4.2351  -4.1552  -4.1550  -3.9547   1.8063   2.5963   3.8256   4.1846
     4.4040   4.7549   4.7594   5.2001   5.4542   7.6483   7.7976   7.8222
     7.8862   7.8963  11.9012  14.1620  15.7234  17.1749  18.9218  20.3190

     occupation numbers 
     1.0000   1.0000   1.0000   1.0000   1.0000   1.0000   1.0000   1.0000
     1.0000   1.0000   1.0000   1.0000   1.0000   1.0000   1.0000   1.0000
     1.0000   1.0000   1.0000   1.0000   1.0000   1.0000   1.0000   1.0000
     1.0000   1.0000   1.0008   0.0000   0.0000   0.0000   0.0000   0.0000

          k = 0.2913-0.2913 0.1456 (  3620 PWs)   bands (ev):

   -79.9263 -43.4546 -43.4546 -43.4541 -14.5800 -14.3586 -14.3396  -4.6790
    -4.2343  -4.1939  -4.1807  -4.1803   0.9768   3.6802   3.8626   4.1700
     4.2943   4.7812   5.0229   5.2749   5.4505   7.6496   7.7081   7.7482
     7.8913   7.9293  12.0978  14.2377  15.9818  17.2255  17.9253  19.8352

     occupation numbers 
     1.0000   1.0000   1.0000   1.0000   1.0000   1.0000   1.0000   1.0000
     1.0000   1.0000   1.0000   1.0000   1.0000   1.0000   1.0000   1.0000
     1.0000   1.0000   1.0000   1.0000   1.0000   1.0000   1.0000   1.0000
     1.0000   1.0000   0.5765   0.0000   0.0000   0.0000   0.0000   0.0000

          k = 0.2913-0.2913 0.2913 (  3614 PWs)   bands (ev):

   -79.9262 -43.4546 -43.4546 -43.4546 -14.4628 -14.3366 -14.3364  -4.6778
    -4.6778  -4.2336  -4.2296  -4.2296   0.3753   3.9005   4.1244   4.1248
     4.8753   4.8761   5.3952   5.4434   5.4435   7.6407   7.6505   7.6506
     7.8805   7.8805  12.4895  14.5303  16.6992  16.6999  17.2167  19.2284

     occupation numbers 
     1.0000   1.0000   1.0000   1.0000   1.0000   1.0000   1.0000   1.0000
     1.0000   1.0000   1.0000   1.0000   1.0000   1.0000   1.0000   1.0000
     1.0000   1.0000   1.0000   1.0000   1.0000   1.0000   1.0000   1.0000
     1.0000   1.0000   0.0000   0.0000   0.0000   0.0000   0.0000   0.0000

          k = 0.2913-0.2913-0.4369 (  3608 PWs)   bands (ev):

   -79.9262 -43.4548 -43.4545 -43.4545 -14.4189 -14.3349 -14.3076  -4.9195
    -4.6772  -4.2575  -4.2540  -4.2296   0.2007   3.9163   4.0987   4.1096
     4.9341   5.2681   5.4315   5.4538   5.6543   7.6122   7.6448   7.6784
     7.8032   7.8671  12.6663  14.9025  16.0963  17.0383  17.5734  18.0716

     occupation numbers 
     1.0000   1.0000   1.0000   1.0000   1.0000   1.0000   1.0000   1.0000
     1.0000   1.0000   1.0000   1.0000   1.0000   1.0000   1.0000   1.0000
     1.0000   1.0000   1.0000   1.0000   1.0000   1.0000   1.0000   1.0000
     1.0000   1.0000   0.0000   0.0000   0.0000   0.0000   0.0000   0.0000

          k = 0.2913-0.2913-0.2913 (  3614 PWs)   bands (ev):

   -79.9262 -43.4546 -43.4546 -43.4546 -14.4628 -14.3366 -14.3363  -4.6778
    -4.6778  -4.2336  -4.2297  -4.2296   0.3753   3.9005   4.1243   4.1249
     4.8749   4.8765   5.3952   5.4433   5.4436   7.6407   7.6504   7.6507
     7.8804   7.8805  12.4895  14.5303  16.6988  16.7003  17.2167  19.2264

     occupation numbers 
     1.0000   1.0000   1.0000   1.0000   1.0000   1.0000   1.0000   1.0000
     1.0000   1.0000   1.0000   1.0000   1.0000   1.0000   1.0000   1.0000
     1.0000   1.0000   1.0000   1.0000   1.0000   1.0000   1.0000   1.0000
     1.0000   1.0000   0.0000   0.0000   0.0000   0.0000   0.0000   0.0000

          k = 0.2913-0.2913-0.1456 (  3620 PWs)   bands (ev):

   -79.9263 -43.4546 -43.4546 -43.4541 -14.5800 -14.3586 -14.3396  -4.6790
    -4.2343  -4.1939  -4.1807  -4.1803   0.9768   3.6802   3.8626   4.1700
     4.2943   4.7812   5.0229   5.2749   5.4505   7.6496   7.7081   7.7482
     7.8913   7.9293  12.0978  14.2377  15.9818  17.2255  17.9253  19.8352

     occupation numbers 
     1.0000   1.0000   1.0000   1.0000   1.0000   1.0000   1.0000   1.0000
     1.0000   1.0000   1.0000   1.0000   1.0000   1.0000   1.0000   1.0000
     1.0000   1.0000   1.0000   1.0000   1.0000   1.0000   1.0000   1.0000
     1.0000   1.0000   0.5765   0.0000   0.0000   0.0000   0.0000   0.0000

          k = 0.2913-0.1456-0.0000 (  3612 PWs)   bands (ev):

   -79.9263 -43.4547 -43.4542 -43.4539 -14.7276 -14.4075 -14.3535  -4.4272
    -4.1824  -4.1556  -4.1099  -3.5949   2.0542   2.4703   3.6509   4.0160
     4.5105   4.7775   4.8488   4.9052   5.1284   7.6370   7.6990   7.7171
     7.8672   7.8895  11.0349  13.7198  16.5186  18.0913  18.9705  20.6342

     occupation numbers 
     1.0000   1.0000   1.0000   1.0000   1.0000   1.0000   1.0000   1.0000
     1.0000   1.0000   1.0000   1.0000   1.0000   1.0000   1.0000   1.0000
     1.0000   1.0000   1.0000   1.0000   1.0000   1.0000   1.0000   1.0000
     1.0000   1.0000   1.0000   0.0000   0.0000   0.0000   0.0000   0.0000

          k = 0.2913-0.1456 0.1456 (  3623 PWs)   bands (ev):

   -79.9263 -43.4546 -43.4542 -43.4542 -14.6743 -14.3952 -14.3508  -4.4616
    -4.1832  -4.1806  -4.1338  -3.8520   1.3911   3.2565   3.7927   4.0037
     4.4050   4.6758   4.9794   5.1063   5.1570   7.6225   7.6770   7.7575
     7.8655   7.9129  11.3387  13.8906  16.5471  17.9755  17.9889  20.5387

     occupation numbers 
     1.0000   1.0000   1.0000   1.0000   1.0000   1.0000   1.0000   1.0000
     1.0000   1.0000   1.0000   1.0000   1.0000   1.0000   1.0000   1.0000
     1.0000   1.0000   1.0000   1.0000   1.0000   1.0000   1.0000   1.0000
     1.0000   1.0000   1.0000   0.0000   0.0000   0.0000   0.0000   0.0000

          k = 0.2913-0.1456 0.2913 (  3620 PWs)   bands (ev):

   -79.9263 -43.4546 -43.4546 -43.4541 -14.5800 -14.3586 -14.3396  -4.6790
    -4.2343  -4.1939  -4.1807  -4.1803   0.9768   3.6802   3.8626   4.1700
     4.2943   4.7812   5.0229   5.2749   5.4505   7.6496   7.7081   7.7482
     7.8913   7.9293  12.0978  14.2377  15.9818  17.2255  17.9253  19.8352

     occupation numbers 
     1.0000   1.0000   1.0000   1.0000   1.0000   1.0000   1.0000   1.0000
     1.0000   1.0000   1.0000   1.0000   1.0000   1.0000   1.0000   1.0000
     1.0000   1.0000   1.0000   1.0000   1.0000   1.0000   1.0000   1.0000
     1.0000   1.0000   0.5765   0.0000   0.0000   0.0000   0.0000   0.0000

          k = 0.2913-0.1456-0.4369 (  3606 PWs)   bands (ev):

   -79.9262 -43.4548 -43.4546 -43.4541 -14.5440 -14.3485 -14.3114  -4.8851
    -4.2592  -4.2569  -4.2037  -4.1801   0.8639   3.8130   3.8164   4.2216
     4.2230   4.9628   4.9646   5.3851   5.6016   7.6706   7.7283   7.8058
     7.8695   7.9168  12.6919  14.1145  15.9709  16.5818  18.2541  19.2968

     occupation numbers 
     1.0000   1.0000   1.0000   1.0000   1.0000   1.0000   1.0000   1.0000
     1.0000   1.0000   1.0000   1.0000   1.0000   1.0000   1.0000   1.0000
     1.0000   1.0000   1.0000   1.0000   1.0000   1.0000   1.0000   1.0000
     1.0000   1.0000   0.0000   0.0000   0.0000   0.0000   0.0000   0.0000

          k = 0.2913-0.1456-0.2913 (  3620 PWs)   bands (ev):

   -79.9263 -43.4546 -43.4546 -43.4541 -14.5800 -14.3586 -14.3396  -4.6790
    -4.2343  -4.1939  -4.1807  -4.1802   0.9768   3.6802   3.8626   4.1700
     4.2943   4.7812   5.0229   5.2749   5.4505   7.6496   7.7081   7.7482
     7.8913   7.9293  12.0978  14.2377  15.9818  17.2255  17.9253  19.8352

     occupation numbers 
     1.0000   1.0000   1.0000   1.0000   1.0000   1.0000   1.0000   1.0000
     1.0000   1.0000   1.0000   1.0000   1.0000   1.0000   1.0000   1.0000
     1.0000   1.0000   1.0000   1.0000   1.0000   1.0000   1.0000   1.0000
     1.0000   1.0000   0.5765   0.0000   0.0000   0.0000   0.0000   0.0000

          k = 0.2913-0.1456-0.1456 (  3623 PWs)   bands (ev):

   -79.9263 -43.4546 -43.4542 -43.4542 -14.6743 -14.3952 -14.3508  -4.4616
    -4.1832  -4.1806  -4.1338  -3.8520   1.3911   3.2565   3.7927   4.0037
     4.4050   4.6758   4.9794   5.1063   5.1570   7.6225   7.6770   7.7575
     7.8655   7.9129  11.3387  13.8906  16.5471  17.9754  17.9889  20.5387

     occupation numbers 
     1.0000   1.0000   1.0000   1.0000   1.0000   1.0000   1.0000   1.0000
     1.0000   1.0000   1.0000   1.0000   1.0000   1.0000   1.0000   1.0000
     1.0000   1.0000   1.0000   1.0000   1.0000   1.0000   1.0000   1.0000
     1.0000   1.0000   1.0000   0.0000   0.0000   0.0000   0.0000   0.0000

          k =-0.4369 0.0000 0.0000 (  3588 PWs)   bands (ev):

   -79.9262 -43.4549 -43.4539 -43.4539 -14.7389 -14.4215 -14.3226  -4.6742
    -4.1775  -4.1775  -4.0860  -3.3211   2.4539   2.4539   3.4662   3.7322
     4.5541   4.7532   4.7532   4.8972   4.8972   7.6284   7.6563   7.8015
     7.9731   7.9731  12.1160  12.5146  16.7602  19.0868  19.0868  20.7435

     occupation numbers 
     1.0000   1.0000   1.0000   1.0000   1.0000   1.0000   1.0000   1.0000
     1.0000   1.0000   1.0000   1.0000   1.0000   1.0000   1.0000   1.0000
     1.0000   1.0000   1.0000   1.0000   1.0000   1.0000   1.0000   1.0000
     1.0000   1.0000   0.3838   0.0000   0.0000   0.0000   0.0000   0.0000

          k =-0.4369-0.0000 0.1456 (  3614 PWs)   bands (ev):

   -79.9263 -43.4549 -43.4542 -43.4539 -14.6899 -14.4053 -14.3195  -4.7165
    -4.2057  -4.1775  -4.1094  -3.6019   2.0570   2.5215   3.7563   4.0318
     4.4217   4.7417   4.8440   4.9400   5.0976   7.7109   7.7183   7.8049
     7.8707   7.9738  12.2586  12.8679  16.7697  17.6755  19.0287  20.5158

     occupation numbers 
     1.0000   1.0000   1.0000   1.0000   1.0000   1.0000   1.0000   1.0000
     1.0000   1.0000   1.0000   1.0000   1.0000   1.0000   1.0000   1.0000
     1.0000   1.0000   1.0000   1.0000   1.0000   1.0000   1.0000   1.0000
     1.0000   1.0000   0.0002   0.0000   0.0000   0.0000   0.0000   0.0000

          k =-0.4369-0.0000 0.2913 (  3604 PWs)   bands (ev):

   -79.9262 -43.4548 -43.4546 -43.4539 -14.6075 -14.3514 -14.3133  -4.8813
    -4.2608  -4.1773  -4.1549  -4.0399   1.7414   2.6600   3.7589   4.3262
     4.3482   4.7151   4.7457   5.3614   5.6046   7.6868   7.7681   7.8587
     7.8923   7.9756  12.6796  13.8449  15.9153  16.3496  18.9047  20.1020

     occupation numbers 
     1.0000   1.0000   1.0000   1.0000   1.0000   1.0000   1.0000   1.0000
     1.0000   1.0000   1.0000   1.0000   1.0000   1.0000   1.0000   1.0000
     1.0000   1.0000   1.0000   1.0000   1.0000   1.0000   1.0000   1.0000
     1.0000   1.0000   0.0000   0.0000   0.0000   0.0000   0.0000   0.0000

          k =-0.4369 0.0000-0.4369 (  3628 PWs)   bands (ev):

   -79.9263 -43.4548 -43.4548 -43.4539 -14.5775 -14.3102 -14.3102  -5.0244
    -4.2881  -4.1811  -4.1773  -4.1773   1.6525   2.7310   3.7374   4.3590
     4.3591   4.6999   4.6999   5.4719   5.9498   7.6039   7.7687   7.9113
     7.9767   7.9767  13.0610  15.0407  15.0407  15.3354  18.8389  19.9114

     occupation numbers 
     1.0000   1.0000   1.0000   1.0000   1.0000   1.0000   1.0000   1.0000
     1.0000   1.0000   1.0000   1.0000   1.0000   1.0000   1.0000   1.0000
     1.0000   1.0000   1.0000   1.0000   1.0000   1.0000   1.0000   1.0000
     1.0000   1.0000   0.0000   0.0000   0.0000   0.0000   0.0000   0.0000

          k =-0.4369 0.1456 0.0000 (  3614 PWs)   bands (ev):

   -79.9263 -43.4549 -43.4542 -43.4539 -14.6899 -14.4053 -14.3195  -4.7165
    -4.2057  -4.1775  -4.1094  -3.6019   2.0570   2.5215   3.7563   4.0317
     4.4217   4.7417   4.8439   4.9400   5.0976   7.7109   7.7183   7.8049
     7.8707   7.9738  12.2586  12.8679  16.7697  17.6755  19.0286  20.5157

     occupation numbers 
     1.0000   1.0000   1.0000   1.0000   1.0000   1.0000   1.0000   1.0000
     1.0000   1.0000   1.0000   1.0000   1.0000   1.0000   1.0000   1.0000
     1.0000   1.0000   1.0000   1.0000   1.0000   1.0000   1.0000   1.0000
     1.0000   1.0000   0.0002   0.0000   0.0000   0.0000   0.0000   0.0000

          k =-0.4369 0.1456 0.1456 (  3608 PWs)   bands (ev):

   -79.9262 -43.4549 -43.4541 -43.4541 -14.6359 -14.3936 -14.3168  -4.7466
    -4.2068  -4.2032  -4.1332  -3.8514   1.3356   3.3214   3.7860   4.1437
     4.3148   4.9335   4.9390   4.9556   5.1724   7.6590   7.8042   7.8421
     7.8440   7.8942  12.3792  13.1932  16.8584  17.2266  18.3783  19.7825

     occupation numbers 
     1.0000   1.0000   1.0000   1.0000   1.0000   1.0000   1.0000   1.0000
     1.0000   1.0000   1.0000   1.0000   1.0000   1.0000   1.0000   1.0000
     1.0000   1.0000   1.0000   1.0000   1.0000   1.0000   1.0000   1.0000
     1.0000   1.0000   0.0000   0.0000   0.0000   0.0000   0.0000   0.0000

          k =-0.4369 0.1456 0.2913 (  3606 PWs)   bands (ev):

   -79.9262 -43.4548 -43.4546 -43.4541 -14.5440 -14.3485 -14.3114  -4.8851
    -4.2592  -4.2569  -4.2037  -4.1801   0.8639   3.8131   3.8162   4.2217
     4.2230   4.9629   4.9645   5.3851   5.6016   7.6706   7.7283   7.8058
     7.8695   7.9168  12.6919  14.1145  15.9709  16.5818  18.2541  19.2968

     occupation numbers 
     1.0000   1.0000   1.0000   1.0000   1.0000   1.0000   1.0000   1.0000
     1.0000   1.0000   1.0000   1.0000   1.0000   1.0000   1.0000   1.0000
     1.0000   1.0000   1.0000   1.0000   1.0000   1.0000   1.0000   1.0000
     1.0000   1.0000   0.0000   0.0000   0.0000   0.0000   0.0000   0.0000

          k =-0.4369 0.1456-0.4369 (  3616 PWs)   bands (ev):

   -79.9262 -43.4548 -43.4548 -43.4541 -14.5122 -14.3087 -14.3087  -5.0239
    -4.3821  -4.2858  -4.2032  -4.2032   0.7320   3.8068   3.9727   4.2104
     4.2104   4.9665   4.9665   5.4915   5.9510   7.5842   7.7774   7.8642
     7.8642   7.8838  12.9197  15.3319  15.3319  15.5197  18.3319  19.4190

     occupation numbers 
     1.0000   1.0000   1.0000   1.0000   1.0000   1.0000   1.0000   1.0000
     1.0000   1.0000   1.0000   1.0000   1.0000   1.0000   1.0000   1.0000
     1.0000   1.0000   1.0000   1.0000   1.0000   1.0000   1.0000   1.0000
     1.0000   1.0000   0.0000   0.0000   0.0000   0.0000   0.0000   0.0000

          k =-0.4369 0.1456-0.2913 (  3606 PWs)   bands (ev):

   -79.9262 -43.4548 -43.4546 -43.4541 -14.5440 -14.3485 -14.3114  -4.8851
    -4.2592  -4.2569  -4.2037  -4.1801   0.8639   3.8131   3.8162   4.2217
     4.2230   4.9629   4.9645   5.3851   5.6016   7.6706   7.7283   7.8058
     7.8695   7.9168  12.6919  14.1145  15.9709  16.5818  18.2541  19.2968

     occupation numbers 
     1.0000   1.0000   1.0000   1.0000   1.0000   1.0000   1.0000   1.0000
     1.0000   1.0000   1.0000   1.0000   1.0000   1.0000   1.0000   1.0000
     1.0000   1.0000   1.0000   1.0000   1.0000   1.0000   1.0000   1.0000
     1.0000   1.0000   0.0000   0.0000   0.0000   0.0000   0.0000   0.0000

          k =-0.4369 0.1456-0.1456 (  3608 PWs)   bands (ev):

   -79.9262 -43.4549 -43.4541 -43.4541 -14.6359 -14.3936 -14.3168  -4.7466
    -4.2068  -4.2032  -4.1332  -3.8514   1.3356   3.3214   3.7860   4.1437
     4.3148   4.9335   4.9390   4.9557   5.1724   7.6590   7.8042   7.8421
     7.8440   7.8942  12.3792  13.1932  16.8584  17.2266  18.3783  19.7825

     occupation numbers 
     1.0000   1.0000   1.0000   1.0000   1.0000   1.0000   1.0000   1.0000
     1.0000   1.0000   1.0000   1.0000   1.0000   1.0000   1.0000   1.0000
     1.0000   1.0000   1.0000   1.0000   1.0000   1.0000   1.0000   1.0000
     1.0000   1.0000   0.0000   0.0000   0.0000   0.0000   0.0000   0.0000

          k =-0.4369 0.2913-0.0000 (  3604 PWs)   bands (ev):

   -79.9262 -43.4548 -43.4546 -43.4539 -14.6075 -14.3514 -14.3133  -4.8813
    -4.2608  -4.1773  -4.1549  -4.0399   1.7414   2.6601   3.7589   4.3262
     4.3481   4.7151   4.7456   5.3614   5.6046   7.6868   7.7681   7.8587
     7.8923   7.9756  12.6796  13.8449  15.9153  16.3496  18.9047  20.1020

     occupation numbers 
     1.0000   1.0000   1.0000   1.0000   1.0000   1.0000   1.0000   1.0000
     1.0000   1.0000   1.0000   1.0000   1.0000   1.0000   1.0000   1.0000
     1.0000   1.0000   1.0000   1.0000   1.0000   1.0000   1.0000   1.0000
     1.0000   1.0000   0.0000   0.0000   0.0000   0.0000   0.0000   0.0000

          k =-0.4369 0.2913 0.1456 (  3606 PWs)   bands (ev):

   -79.9262 -43.4548 -43.4546 -43.4541 -14.5440 -14.3485 -14.3114  -4.8851
    -4.2592  -4.2569  -4.2037  -4.1801   0.8639   3.8131   3.8162   4.2216
     4.2230   4.9629   4.9645   5.3851   5.6016   7.6706   7.7283   7.8058
     7.8695   7.9168  12.6919  14.1145  15.9709  16.5818  18.2541  19.2968

     occupation numbers 
     1.0000   1.0000   1.0000   1.0000   1.0000   1.0000   1.0000   1.0000
     1.0000   1.0000   1.0000   1.0000   1.0000   1.0000   1.0000   1.0000
     1.0000   1.0000   1.0000   1.0000   1.0000   1.0000   1.0000   1.0000
     1.0000   1.0000   0.0000   0.0000   0.0000   0.0000   0.0000   0.0000

          k =-0.4369 0.2913 0.2913 (  3608 PWs)   bands (ev):

   -79.9262 -43.4548 -43.4545 -43.4545 -14.4189 -14.3349 -14.3076  -4.9195
    -4.6772  -4.2575  -4.2540  -4.2296   0.2007   3.9163   4.0987   4.1095
     4.9341   5.2681   5.4315   5.4538   5.6543   7.6122   7.6448   7.6784
     7.8032   7.8671  12.6663  14.9025  16.0963  17.0383  17.5734  18.0716

     occupation numbers 
     1.0000   1.0000   1.0000   1.0000   1.0000   1.0000   1.0000   1.0000
     1.0000   1.0000   1.0000   1.0000   1.0000   1.0000   1.0000   1.0000
     1.0000   1.0000   1.0000   1.0000   1.0000   1.0000   1.0000   1.0000
     1.0000   1.0000   0.0000   0.0000   0.0000   0.0000   0.0000   0.0000

          k =-0.4369 0.2913-0.4369 (  3612 PWs)   bands (ev):

   -79.9262 -43.4548 -43.4548 -43.4545 -14.3757 -14.3056 -14.3056  -5.0230
    -4.8044  -4.2813  -4.2540  -4.2540   0.0048   3.9525   4.0740   4.0741
     5.3615   5.3616   5.3766   5.5320   5.9532   7.5337   7.6267   7.6267
     7.7924   7.8274  12.6271  16.1061  16.1181  16.1186  17.5902  18.3269

     occupation numbers 
     1.0000   1.0000   1.0000   1.0000   1.0000   1.0000   1.0000   1.0000
     1.0000   1.0000   1.0000   1.0000   1.0000   1.0000   1.0000   1.0000
     1.0000   1.0000   1.0000   1.0000   1.0000   1.0000   1.0000   1.0000
     1.0000   1.0000   0.0000   0.0000   0.0000   0.0000   0.0000   0.0000

          k =-0.4369 0.2913-0.2913 (  3608 PWs)   bands (ev):

   -79.9262 -43.4548 -43.4545 -43.4545 -14.4189 -14.3349 -14.3076  -4.9195
    -4.6772  -4.2575  -4.2540  -4.2296   0.2007   3.9163   4.0987   4.1095
     4.9341   5.2681   5.4315   5.4538   5.6543   7.6122   7.6448   7.6784
     7.8032   7.8671  12.6663  14.9025  16.0963  17.0383  17.5734  18.0716

     occupation numbers 
     1.0000   1.0000   1.0000   1.0000   1.0000   1.0000   1.0000   1.0000
     1.0000   1.0000   1.0000   1.0000   1.0000   1.0000   1.0000   1.0000
     1.0000   1.0000   1.0000   1.0000   1.0000   1.0000   1.0000   1.0000
     1.0000   1.0000   0.0000   0.0000   0.0000   0.0000   0.0000   0.0000

          k =-0.4369 0.2913-0.1456 (  3606 PWs)   bands (ev):

   -79.9262 -43.4548 -43.4546 -43.4541 -14.5440 -14.3485 -14.3114  -4.8851
    -4.2592  -4.2569  -4.2037  -4.1801   0.8639   3.8131   3.8162   4.2216
     4.2230   4.9629   4.9645   5.3851   5.6016   7.6706   7.7283   7.8058
     7.8695   7.9168  12.6919  14.1145  15.9709  16.5818  18.2541  19.2968

     occupation numbers 
     1.0000   1.0000   1.0000   1.0000   1.0000   1.0000   1.0000   1.0000
     1.0000   1.0000   1.0000   1.0000   1.0000   1.0000   1.0000   1.0000
     1.0000   1.0000   1.0000   1.0000   1.0000   1.0000   1.0000   1.0000
     1.0000   1.0000   0.0000   0.0000   0.0000   0.0000   0.0000   0.0000

          k =-0.4369-0.4369 0.0000 (  3628 PWs)   bands (ev):

   -79.9263 -43.4548 -43.4548 -43.4539 -14.5776 -14.3102 -14.3102  -5.0244
    -4.2881  -4.1811  -4.1773  -4.1773   1.6525   2.7310   3.7374   4.3590
     4.3590   4.6999   4.6999   5.4719   5.9498   7.6039   7.7687   7.9113
     7.9767   7.9767  13.0610  15.0406  15.0407  15.3354  18.8389  19.9114

     occupation numbers 
     1.0000   1.0000   1.0000   1.0000   1.0000   1.0000   1.0000   1.0000
     1.0000   1.0000   1.0000   1.0000   1.0000   1.0000   1.0000   1.0000
     1.0000   1.0000   1.0000   1.0000   1.0000   1.0000   1.0000   1.0000
     1.0000   1.0000   0.0000   0.0000   0.0000   0.0000   0.0000   0.0000

          k =-0.4369-0.4369 0.1456 (  3616 PWs)   bands (ev):

   -79.9262 -43.4548 -43.4548 -43.4541 -14.5122 -14.3087 -14.3087  -5.0239
    -4.3821  -4.2858  -4.2032  -4.2032   0.7320   3.8068   3.9728   4.2104
     4.2104   4.9665   4.9665   5.4915   5.9510   7.5842   7.7774   7.8642
     7.8642   7.8838  12.9197  15.3319  15.3319  15.5197  18.3319  19.4191

     occupation numbers 
     1.0000   1.0000   1.0000   1.0000   1.0000   1.0000   1.0000   1.0000
     1.0000   1.0000   1.0000   1.0000   1.0000   1.0000   1.0000   1.0000
     1.0000   1.0000   1.0000   1.0000   1.0000   1.0000   1.0000   1.0000
     1.0000   1.0000   0.0000   0.0000   0.0000   0.0000   0.0000   0.0000

          k =-0.4369-0.4369 0.2913 (  3612 PWs)   bands (ev):

   -79.9262 -43.4548 -43.4548 -43.4545 -14.3757 -14.3056 -14.3056  -5.0230
    -4.8044  -4.2813  -4.2540  -4.2540   0.0048   3.9525   4.0740   4.0741
     5.3616   5.3616   5.3766   5.5320   5.9532   7.5337   7.6267   7.6267
     7.7924   7.8274  12.6271  16.1064  16.1181  16.1183  17.5902  18.3269

     occupation numbers 
     1.0000   1.0000   1.0000   1.0000   1.0000   1.0000   1.0000   1.0000
     1.0000   1.0000   1.0000   1.0000   1.0000   1.0000   1.0000   1.0000
     1.0000   1.0000   1.0000   1.0000   1.0000   1.0000   1.0000   1.0000
     1.0000   1.0000   0.0000   0.0000   0.0000   0.0000   0.0000   0.0000

          k =-0.4369-0.4369-0.4369 (  3544 PWs)   bands (ev):

   -79.9261 -43.4547 -43.4547 -43.4547 -14.3041 -14.3041 -14.3041  -5.0224
    -5.0224  -4.2789  -4.2789  -4.2789  -0.2141   4.0294   4.0294   4.0294
     5.5531   5.5531   5.5532   5.9544   5.9545   7.4957   7.4957   7.4957
     7.7987   7.7987  12.4762  17.0057  17.2119  17.2120  17.2974  17.2977

     occupation numbers 
     1.0000   1.0000   1.0000   1.0000   1.0000   1.0000   1.0000   1.0000
     1.0000   1.0000   1.0000   1.0000   1.0000   1.0000   1.0000   1.0000
     1.0000   1.0000   1.0000   1.0000   1.0000   1.0000   1.0000   1.0000
     1.0000   1.0000   0.0000   0.0000   0.0000   0.0000   0.0000   0.0000

     the Fermi energy is    12.1143 ev

!    total energy              =   -1146.30244212 Ry
     total all-electron energy =    -22995.104582 Ry
     estimated scf accuracy    <          6.7E-12 Ry
     smearing contrib. (-TS)   =      -0.00018855 Ry
     internal energy E=F+TS    =   -1146.30225358 Ry

     The total energy is F=E-TS. E is the sum of the following terms:
     one-electron contribution =    -228.64957025 Ry
     hartree contribution      =     152.42573658 Ry
     xc contribution           =    -124.30544642 Ry
     ewald contribution        =    -392.55693252 Ry
     one-center paw contrib.   =    -553.21604097 Ry
      -> PAW hartree energy AE =     236.44570823 Ry
      -> PAW hartree energy PS =    -233.94679699 Ry
      -> PAW xc energy AE      =    -297.61948966 Ry
      -> PAW xc energy PS      =      48.10958014 Ry
      -> total E_H with PAW    =     154.92464782 Ry
      -> total E_XC with PAW   =    -373.81535594 Ry

     convergence has been achieved in  15 iterations

     Forces acting on atoms (cartesian axes, Ry/au):

     atom    1 type  1   force =     0.00000875    0.00001750    0.00002624
     atom    2 type  2   force =     0.00000766    0.00001508    0.00002322
     atom    3 type  3   force =     0.00002073    0.00001417   -0.00013300
     atom    4 type  3   force =    -0.00004424    0.00004142    0.00002133
     atom    5 type  3   force =     0.00000710   -0.00008817    0.00006221
     The non-local contrib.  to forces
     atom    1 type  1   force =     0.00000925    0.00001848    0.00002777
     atom    2 type  2   force =     0.00004712    0.00009380    0.00014176
     atom    3 type  3   force =    -0.00037709    0.00003312    0.00062932
     atom    4 type  3   force =     0.00020943   -0.00075388    0.00004904
     atom    5 type  3   force =     0.00001636    0.00041789   -0.00113146
     The ionic contribution  to forces
     atom    1 type  1   force =     0.00335067    0.00669883    0.01004716
     atom    2 type  2   force =    -0.00232248   -0.00464802   -0.00696090
     atom    3 type  3   force =    -0.00066929   -0.00043803   -0.00042926
     atom    4 type  3   force =    -0.00014033   -0.00133949   -0.00065241
     atom    5 type  3   force =    -0.00021856   -0.00027330   -0.00200460
     The local contribution  to forces
     atom    1 type  1   force =    -0.00334854   -0.00669455   -0.01004080
     atom    2 type  2   force =     0.00228759    0.00457838    0.00685611
     atom    3 type  3   force =     0.00106602    0.00041943   -0.00033131
     atom    4 type  3   force =    -0.00011276    0.00213262    0.00062523
     atom    5 type  3   force =     0.00020948   -0.00023160    0.00319501
     The core correction contribution to forces
     atom    1 type  1   force =    -0.00000258   -0.00000516   -0.00000775
     atom    2 type  2   force =    -0.00000452   -0.00000900   -0.00001361
     atom    3 type  3   force =     0.00000113   -0.00000027   -0.00000160
     atom    4 type  3   force =    -0.00000053    0.00000226   -0.00000041
     atom    5 type  3   force =    -0.00000014   -0.00000106    0.00000339
     The Hubbard contrib.    to forces
     atom    1 type  1   force =     0.00000000    0.00000000    0.00000000
     atom    2 type  2   force =     0.00000000    0.00000000    0.00000000
     atom    3 type  3   force =     0.00000000    0.00000000    0.00000000
     atom    4 type  3   force =     0.00000000    0.00000000    0.00000000
     atom    5 type  3   force =     0.00000000    0.00000000    0.00000000
     The SCF correction term to forces
     atom    1 type  1   force =    -0.00000000   -0.00000001   -0.00000001
     atom    2 type  2   force =     0.00000000    0.00000000    0.00000000
     atom    3 type  3   force =     0.00000000    0.00000000   -0.00000001
     atom    4 type  3   force =    -0.00000000    0.00000001    0.00000001
     atom    5 type  3   force =     0.00000000   -0.00000000    0.00000001

     Total force =     0.000190     Total SCF correction =     0.000000


     Computing stress (Cartesian axis) and pressure

          total   stress  (Ry/bohr**3)                   (kbar)     P=      246.39
   0.00167492  -0.00000000  -0.00000000          246.39       -0.00       -0.00
  -0.00000000   0.00167492  -0.00000000           -0.00      246.39       -0.00
  -0.00000000  -0.00000000   0.00167492           -0.00       -0.00      246.39

     kinetic stress (kbar)  45926.63      0.00      0.00
                                0.00  45926.63      0.00
                                0.00      0.00  45926.63

     local   stress (kbar) -19118.29     -0.00     -0.00
                               -0.00 -19118.27     -0.00
                               -0.00     -0.00 -19118.29

     nonloc. stress (kbar)   9221.24     -0.00     -0.00
                               -0.00   9221.24     -0.00
                               -0.00     -0.00   9221.24

     hartree stress (kbar)  16654.17      0.00      0.00
                                0.00  16654.16      0.00
                                0.00      0.00  16654.16

     exc-cor stress (kbar)   7469.33     -0.00     -0.00
                               -0.00   7469.33     -0.00
                               -0.00     -0.00   7469.33

     corecor stress (kbar) -17015.59      0.00      0.00
                                0.00 -17015.59      0.00
                                0.00      0.00 -17015.59

     ewald   stress (kbar) -42891.09     -0.00     -0.00
                               -0.00 -42891.10     -0.00
                               -0.00     -0.00 -42891.09

     hubbard stress (kbar)      0.00      0.00      0.00
                                0.00      0.00      0.00
                                0.00      0.00      0.00

     DFT-D   stress (kbar)      0.00      0.00      0.00
                                0.00      0.00      0.00
                                0.00      0.00      0.00

     XDM     stress (kbar)      0.00      0.00      0.00
                                0.00      0.00      0.00
                                0.00      0.00      0.00

     dft-nl  stress (kbar)      0.00      0.00      0.00
                                0.00      0.00      0.00
                                0.00      0.00      0.00

     TS-vdW  stress (kbar)      0.00      0.00      0.00
                                0.00      0.00      0.00
                                0.00      0.00      0.00

     MDB     stress (kbar)      0.00      0.00      0.00
                                0.00      0.00      0.00
                                0.00      0.00      0.00

     3D-RISM stress (kbar)      0.00      0.00      0.00
                                0.00      0.00      0.00
                                0.00      0.00      0.00

     Energy error            =      8.5E-01 Ry
     Gradient error          =      1.3E-04 Ry/Bohr
     Cell gradient error     =      2.5E+02 kbar

     number of scf cycles    =   2
     number of bfgs steps    =   1

     enthalpy           old  =   -1145.4512860739 Ry
     enthalpy           new  =   -1146.3024421224 Ry

     CASE: enthalpy          _new < enthalpy          _old

     new trust radius        =       0.1069912734 bohr
     new conv_thr            =            1.3E-11 Ry

     new unit-cell volume =    483.65304 a.u.^3 (    71.66999 Ang^3 )
     density =      6.47998 g/cm^3

CELL_PARAMETERS (angstrom)
   4.153801785  -0.000000033  -0.000000043
  -0.000000033   4.153801543  -0.000000087
  -0.000000043  -0.000000087   4.153802142

ATOMIC_POSITIONS (crystal)
Ag               0.0000042554        0.0000085270        0.0000127864
In               0.4999920934        0.4999841902        0.4999762862
F                0.5001091948        0.5000038325       -0.0000224820
F               -0.0000074784        0.5002183524        0.5000058156
F                0.5000019348       -0.0000149021        0.5003275938



     Writing config-only to output data dir ./output/aginf3_broken.save/ :
     XML data file
     NEW-OLD atomic charge density approx. for the potential

     Check: negative core charge=   -0.000007

     total cpu time spent up to now is     5543.1 secs

     Self-consistent Calculation

     iteration #  1     ecut=    80.00 Ry     beta= 0.30
     Davidson diagonalization with overlap

---- Real-time Memory Report at c_bands before calling an iterative solver
           112 MiB given to the printing process from OS
             0 MiB allocation reported by mallinfo(arena+hblkhd)
         57092 MiB available memory on the node where the printing process lives
------------------
     ethr =  1.00E-06,  avg # of iterations =  7.3

     total cpu time spent up to now is     5952.9 secs

     total energy              =   -1146.34333998 Ry
     estimated scf accuracy    <       0.00434482 Ry

     iteration #  2     ecut=    80.00 Ry     beta= 0.30
     Davidson diagonalization with overlap

---- Real-time Memory Report at c_bands before calling an iterative solver
           112 MiB given to the printing process from OS
             0 MiB allocation reported by mallinfo(arena+hblkhd)
         57391 MiB available memory on the node where the printing process lives
------------------
     ethr =  8.20E-06,  avg # of iterations =  4.0

     total cpu time spent up to now is     6194.1 secs

     total energy              =   -1146.34245451 Ry
     estimated scf accuracy    <       0.00055150 Ry

     iteration #  3     ecut=    80.00 Ry     beta= 0.30
     Davidson diagonalization with overlap

---- Real-time Memory Report at c_bands before calling an iterative solver
           112 MiB given to the printing process from OS
             0 MiB allocation reported by mallinfo(arena+hblkhd)
         57382 MiB available memory on the node where the printing process lives
------------------
     ethr =  1.04E-06,  avg # of iterations =  4.7

     total cpu time spent up to now is     6459.8 secs

     total energy              =   -1146.34408881 Ry
     estimated scf accuracy    <       0.00013224 Ry

     iteration #  4     ecut=    80.00 Ry     beta= 0.30
     Davidson diagonalization with overlap

---- Real-time Memory Report at c_bands before calling an iterative solver
           112 MiB given to the printing process from OS
             0 MiB allocation reported by mallinfo(arena+hblkhd)
         57389 MiB available memory on the node where the printing process lives
------------------
     ethr =  2.50E-07,  avg # of iterations =  4.4

     total cpu time spent up to now is     6713.7 secs

     total energy              =   -1146.34565041 Ry
     estimated scf accuracy    <       0.00006905 Ry

     iteration #  5     ecut=    80.00 Ry     beta= 0.30
     Davidson diagonalization with overlap

---- Real-time Memory Report at c_bands before calling an iterative solver
           112 MiB given to the printing process from OS
             0 MiB allocation reported by mallinfo(arena+hblkhd)
         57386 MiB available memory on the node where the printing process lives
------------------
     ethr =  1.30E-07,  avg # of iterations =  5.0

     total cpu time spent up to now is     6985.9 secs

     total energy              =   -1146.34621554 Ry
     estimated scf accuracy    <       0.00001925 Ry

     iteration #  6     ecut=    80.00 Ry     beta= 0.30
     Davidson diagonalization with overlap

---- Real-time Memory Report at c_bands before calling an iterative solver
           112 MiB given to the printing process from OS
             0 MiB allocation reported by mallinfo(arena+hblkhd)
         57393 MiB available memory on the node where the printing process lives
------------------
     ethr =  3.63E-08,  avg # of iterations =  4.9

     total cpu time spent up to now is     7252.9 secs

     total energy              =   -1146.34631653 Ry
     estimated scf accuracy    <       0.00000131 Ry

     iteration #  7     ecut=    80.00 Ry     beta= 0.30
     Davidson diagonalization with overlap

---- Real-time Memory Report at c_bands before calling an iterative solver
           112 MiB given to the printing process from OS
             0 MiB allocation reported by mallinfo(arena+hblkhd)
         57384 MiB available memory on the node where the printing process lives
------------------
     ethr =  2.47E-09,  avg # of iterations =  3.4

     total cpu time spent up to now is     7444.3 secs

     total energy              =   -1146.34631512 Ry
     estimated scf accuracy    <       0.00000022 Ry

     iteration #  8     ecut=    80.00 Ry     beta= 0.30
     Davidson diagonalization with overlap

---- Real-time Memory Report at c_bands before calling an iterative solver
           112 MiB given to the printing process from OS
             0 MiB allocation reported by mallinfo(arena+hblkhd)
         57389 MiB available memory on the node where the printing process lives
------------------
     ethr =  4.23E-10,  avg # of iterations =  4.0

     total cpu time spent up to now is     7676.3 secs

     total energy              =   -1146.34631573 Ry
     estimated scf accuracy    <       0.00000002 Ry

     iteration #  9     ecut=    80.00 Ry     beta= 0.30
     Davidson diagonalization with overlap

---- Real-time Memory Report at c_bands before calling an iterative solver
           112 MiB given to the printing process from OS
             0 MiB allocation reported by mallinfo(arena+hblkhd)
         57386 MiB available memory on the node where the printing process lives
------------------
     ethr =  2.90E-11,  avg # of iterations =  3.9

     total cpu time spent up to now is     7871.8 secs

     total energy              =   -1146.34631576 Ry
     estimated scf accuracy    <          2.7E-09 Ry

     iteration # 10     ecut=    80.00 Ry     beta= 0.30
     Davidson diagonalization with overlap

---- Real-time Memory Report at c_bands before calling an iterative solver
           112 MiB given to the printing process from OS
             0 MiB allocation reported by mallinfo(arena+hblkhd)
         57380 MiB available memory on the node where the printing process lives
------------------
     ethr =  5.08E-12,  avg # of iterations =  4.2

     total cpu time spent up to now is     8110.0 secs

     total energy              =   -1146.34631576 Ry
     estimated scf accuracy    <          7.8E-10 Ry

     iteration # 11     ecut=    80.00 Ry     beta= 0.30
     Davidson diagonalization with overlap

---- Real-time Memory Report at c_bands before calling an iterative solver
           112 MiB given to the printing process from OS
             0 MiB allocation reported by mallinfo(arena+hblkhd)
         57386 MiB available memory on the node where the printing process lives
------------------
     ethr =  1.48E-12,  avg # of iterations =  2.0

     total cpu time spent up to now is     8253.5 secs

     total energy              =   -1146.34631576 Ry
     estimated scf accuracy    <          1.6E-10 Ry

     iteration # 12     ecut=    80.00 Ry     beta= 0.30
     Davidson diagonalization with overlap

---- Real-time Memory Report at c_bands before calling an iterative solver
           112 MiB given to the printing process from OS
             0 MiB allocation reported by mallinfo(arena+hblkhd)
         57379 MiB available memory on the node where the printing process lives
------------------
     ethr =  2.93E-13,  avg # of iterations =  3.4

     total cpu time spent up to now is     8440.7 secs

     total energy              =   -1146.34631576 Ry
     estimated scf accuracy    <          3.6E-11 Ry

     iteration # 13     ecut=    80.00 Ry     beta= 0.30
     Davidson diagonalization with overlap

---- Real-time Memory Report at c_bands before calling an iterative solver
           112 MiB given to the printing process from OS
             0 MiB allocation reported by mallinfo(arena+hblkhd)
         57382 MiB available memory on the node where the printing process lives
------------------
     ethr =  1.00E-13,  avg # of iterations =  2.0

     total cpu time spent up to now is     8580.1 secs

     End of self-consistent calculation

          k = 0.0000 0.0000 0.0000 (  3695 PWs)   bands (ev):

   -81.1060 -44.6341 -44.6341 -44.6341 -15.5608 -15.1480 -15.1480  -5.2126
    -5.2126  -5.2126  -4.6001  -4.6001   1.6010   1.6010   1.6010   4.0258
     4.0258   4.0258   4.1164   4.1164   4.1164   6.2692   6.2692   6.4619
     6.4619   6.4619   7.4388  11.5260  17.3112  17.3112  17.3112  19.5754

     occupation numbers 
     1.0000   1.0000   1.0000   1.0000   1.0000   1.0000   1.0000   1.0000
     1.0000   1.0000   1.0000   1.0000   1.0000   1.0000   1.0000   1.0000
     1.0000   1.0000   1.0000   1.0000   1.0000   1.0000   1.0000   1.0000
     1.0000   1.0000   1.0000   0.0000   0.0000   0.0000   0.0000   0.0000

          k = 0.0000 0.0000 0.1420 (  3635 PWs)   bands (ev):

   -81.1059 -44.6342 -44.6341 -44.6341 -15.5218 -15.1466 -15.1341  -5.2281
    -5.2281  -5.2119  -4.8801  -4.5999   1.6433   1.6433   1.8008   3.7527
     4.0114   4.0114   4.0200   4.0840   4.0840   6.3231   6.3674   6.4634
     6.5409   6.5409   8.0323  11.7547  16.2544  17.3511  17.3511  19.8094

     occupation numbers 
     1.0000   1.0000   1.0000   1.0000   1.0000   1.0000   1.0000   1.0000
     1.0000   1.0000   1.0000   1.0000   1.0000   1.0000   1.0000   1.0000
     1.0000   1.0000   1.0000   1.0000   1.0000   1.0000   1.0000   1.0000
     1.0000   1.0000   1.0000   0.0000   0.0000   0.0000   0.0000   0.0000

          k = 0.0000 0.0000 0.2841 (  3619 PWs)   bands (ev):

   -81.1059 -44.6345 -44.6340 -44.6340 -15.4486 -15.1441 -15.0980  -5.3943
    -5.2597  -5.2597  -5.2108  -4.5997   1.7272   1.7272   2.1889   3.2806
     3.8483   3.9615   3.9615   4.0481   4.0481   6.4326   6.4662   6.5414
     6.6915   6.6915   9.3641  11.8914  15.2173  17.4845  17.4845  19.5959

     occupation numbers 
     1.0000   1.0000   1.0000   1.0000   1.0000   1.0000   1.0000   1.0000
     1.0000   1.0000   1.0000   1.0000   1.0000   1.0000   1.0000   1.0000
     1.0000   1.0000   1.0000   1.0000   1.0000   1.0000   1.0000   1.0000
     1.0000   1.0000   1.0000   0.0000   0.0000   0.0000   0.0000   0.0000

          k =-0.0000-0.0000-0.4261 (  3588 PWs)   bands (ev):

   -81.1059 -44.6346 -44.6340 -44.6340 -15.4157 -15.1427 -15.0743  -5.6340
    -5.2752  -5.2752  -5.2101  -4.5995   1.7690   1.7690   2.4275   3.0133
     3.7707   3.9320   3.9320   4.0385   4.0385   6.4677   6.4884   6.6200
     6.7642   6.7642  10.7859  10.9565  15.2550  17.6124  17.6124  19.0344

     occupation numbers 
     1.0000   1.0000   1.0000   1.0000   1.0000   1.0000   1.0000   1.0000
     1.0000   1.0000   1.0000   1.0000   1.0000   1.0000   1.0000   1.0000
     1.0000   1.0000   1.0000   1.0000   1.0000   1.0000   1.0000   1.0000
     1.0000   1.0000   0.1768   0.0000   0.0000   0.0000   0.0000   0.0000

          k = 0.0000 0.1420 0.0000 (  3635 PWs)   bands (ev):

   -81.1059 -44.6342 -44.6341 -44.6341 -15.5218 -15.1466 -15.1341  -5.2281
    -5.2281  -5.2119  -4.8801  -4.5999   1.6433   1.6433   1.8008   3.7527
     4.0114   4.0114   4.0200   4.0840   4.0840   6.3231   6.3674   6.4634
     6.5409   6.5409   8.0323  11.7547  16.2544  17.3511  17.3511  19.8094

     occupation numbers 
     1.0000   1.0000   1.0000   1.0000   1.0000   1.0000   1.0000   1.0000
     1.0000   1.0000   1.0000   1.0000   1.0000   1.0000   1.0000   1.0000
     1.0000   1.0000   1.0000   1.0000   1.0000   1.0000   1.0000   1.0000
     1.0000   1.0000   1.0000   0.0000   0.0000   0.0000   0.0000   0.0000

          k = 0.0000 0.1420 0.1420 (  3627 PWs)   bands (ev):

   -81.1059 -44.6342 -44.6342 -44.6340 -15.4819 -15.1385 -15.1280  -5.2451
    -5.2279  -5.2276  -4.9991  -4.7478   1.3903   1.6893   2.2800   3.5160
     3.8818   3.9996   4.0452   4.0482   4.2012   6.3834   6.3942   6.5374
     6.5466   6.5960   8.5178  11.9590  15.9052  16.8287  17.3790  19.8165

     occupation numbers 
     1.0000   1.0000   1.0000   1.0000   1.0000   1.0000   1.0000   1.0000
     1.0000   1.0000   1.0000   1.0000   1.0000   1.0000   1.0000   1.0000
     1.0000   1.0000   1.0000   1.0000   1.0000   1.0000   1.0000   1.0000
     1.0000   1.0000   1.0000   0.0000   0.0000   0.0000   0.0000   0.0000

          k = 0.0000 0.1420 0.2841 (  3612 PWs)   bands (ev):

   -81.1059 -44.6344 -44.6342 -44.6340 -15.4077 -15.1330 -15.0956  -5.4438
    -5.2782  -5.2595  -5.2271  -4.7994   1.2850   1.7813   2.8090   3.2134
     3.7161   3.9486   4.0023   4.0340   4.2529   6.4740   6.5294   6.5440
     6.6734   6.6925   9.6927  12.0888  15.0724  16.6136  17.4787  18.8804

     occupation numbers 
     1.0000   1.0000   1.0000   1.0000   1.0000   1.0000   1.0000   1.0000
     1.0000   1.0000   1.0000   1.0000   1.0000   1.0000   1.0000   1.0000
     1.0000   1.0000   1.0000   1.0000   1.0000   1.0000   1.0000   1.0000
     1.0000   1.0000   1.0000   0.0000   0.0000   0.0000   0.0000   0.0000

          k =-0.0000 0.1420-0.4261 (  3614 PWs)   bands (ev):

   -81.1059 -44.6346 -44.6342 -44.6340 -15.3749 -15.1314 -15.0721  -5.6719
    -5.2948  -5.2751  -5.2267  -4.8047   1.2681   1.8273   3.0233   3.1033
     3.6361   3.9163   3.9907   4.0315   4.2377   6.5349   6.5453   6.6212
     6.6751   6.7649  10.9251  11.2944  15.2344  16.1838  17.5773  18.8505

     occupation numbers 
     1.0000   1.0000   1.0000   1.0000   1.0000   1.0000   1.0000   1.0000
     1.0000   1.0000   1.0000   1.0000   1.0000   1.0000   1.0000   1.0000
     1.0000   1.0000   1.0000   1.0000   1.0000   1.0000   1.0000   1.0000
     1.0000   1.0000   0.0000   0.0000   0.0000   0.0000   0.0000   0.0000

          k =-0.0000 0.1420-0.2841 (  3612 PWs)   bands (ev):

   -81.1059 -44.6344 -44.6342 -44.6340 -15.4077 -15.1330 -15.0956  -5.4438
    -5.2782  -5.2595  -5.2271  -4.7994   1.2850   1.7813   2.8090   3.2134
     3.7161   3.9486   4.0023   4.0340   4.2529   6.4740   6.5294   6.5440
     6.6734   6.6925   9.6927  12.0888  15.0724  16.6136  17.4787  18.8804

     occupation numbers 
     1.0000   1.0000   1.0000   1.0000   1.0000   1.0000   1.0000   1.0000
     1.0000   1.0000   1.0000   1.0000   1.0000   1.0000   1.0000   1.0000
     1.0000   1.0000   1.0000   1.0000   1.0000   1.0000   1.0000   1.0000
     1.0000   1.0000   1.0000   0.0000   0.0000   0.0000   0.0000   0.0000

          k =-0.0000 0.1420-0.1420 (  3627 PWs)   bands (ev):

   -81.1059 -44.6342 -44.6342 -44.6340 -15.4819 -15.1385 -15.1280  -5.2451
    -5.2279  -5.2276  -4.9991  -4.7478   1.3903   1.6893   2.2800   3.5160
     3.8818   3.9996   4.0452   4.0482   4.2012   6.3834   6.3942   6.5374
     6.5466   6.5960   8.5178  11.9590  15.9052  16.8287  17.3790  19.8165

     occupation numbers 
     1.0000   1.0000   1.0000   1.0000   1.0000   1.0000   1.0000   1.0000
     1.0000   1.0000   1.0000   1.0000   1.0000   1.0000   1.0000   1.0000
     1.0000   1.0000   1.0000   1.0000   1.0000   1.0000   1.0000   1.0000
     1.0000   1.0000   1.0000   0.0000   0.0000   0.0000   0.0000   0.0000

          k = 0.0000 0.2841 0.0000 (  3619 PWs)   bands (ev):

   -81.1059 -44.6345 -44.6340 -44.6340 -15.4486 -15.1441 -15.0980  -5.3943
    -5.2597  -5.2597  -5.2108  -4.5997   1.7272   1.7272   2.1889   3.2806
     3.8483   3.9615   3.9615   4.0481   4.0481   6.4326   6.4662   6.5414
     6.6915   6.6915   9.3641  11.8914  15.2173  17.4845  17.4845  19.5959

     occupation numbers 
     1.0000   1.0000   1.0000   1.0000   1.0000   1.0000   1.0000   1.0000
     1.0000   1.0000   1.0000   1.0000   1.0000   1.0000   1.0000   1.0000
     1.0000   1.0000   1.0000   1.0000   1.0000   1.0000   1.0000   1.0000
     1.0000   1.0000   1.0000   0.0000   0.0000   0.0000   0.0000   0.0000

          k = 0.0000 0.2841 0.1420 (  3612 PWs)   bands (ev):

   -81.1059 -44.6344 -44.6342 -44.6340 -15.4077 -15.1330 -15.0956  -5.4438
    -5.2782  -5.2595  -5.2271  -4.7994   1.2850   1.7813   2.8090   3.2134
     3.7161   3.9486   4.0023   4.0340   4.2529   6.4740   6.5294   6.5440
     6.6734   6.6925   9.6927  12.0888  15.0724  16.6136  17.4787  18.8804

     occupation numbers 
     1.0000   1.0000   1.0000   1.0000   1.0000   1.0000   1.0000   1.0000
     1.0000   1.0000   1.0000   1.0000   1.0000   1.0000   1.0000   1.0000
     1.0000   1.0000   1.0000   1.0000   1.0000   1.0000   1.0000   1.0000
     1.0000   1.0000   1.0000   0.0000   0.0000   0.0000   0.0000   0.0000

          k = 0.0000 0.2841 0.2841 (  3604 PWs)   bands (ev):

   -81.1059 -44.6344 -44.6344 -44.6340 -15.3342 -15.1030 -15.0867  -5.6529
    -5.3151  -5.2592  -5.2590  -5.0622   0.9801   1.8915   3.0626   3.3684
     3.6212   3.9182   3.9199   4.2567   4.4734   6.4827   6.6102   6.6332
     6.6897   6.6986  10.5439  12.4914  14.3339  15.6505  17.4832  18.6240

     occupation numbers 
     1.0000   1.0000   1.0000   1.0000   1.0000   1.0000   1.0000   1.0000
     1.0000   1.0000   1.0000   1.0000   1.0000   1.0000   1.0000   1.0000
     1.0000   1.0000   1.0000   1.0000   1.0000   1.0000   1.0000   1.0000
     1.0000   1.0000   1.0007   0.0000   0.0000   0.0000   0.0000   0.0000

          k =-0.0000 0.2841-0.4261 (  3604 PWs)   bands (ev):

   -81.1059 -44.6345 -44.6344 -44.6340 -15.3041 -15.0941 -15.0675  -5.8150
    -5.3331  -5.2749  -5.2589  -5.1253   0.8939   1.9478   2.9997   3.5304
     3.5743   3.8811   3.9024   4.4791   4.4825   6.5142   6.5858   6.6618
     6.6952   6.7666  11.3289  12.2438  14.4988  14.7488  17.5015  18.5073

     occupation numbers 
     1.0000   1.0000   1.0000   1.0000   1.0000   1.0000   1.0000   1.0000
     1.0000   1.0000   1.0000   1.0000   1.0000   1.0000   1.0000   1.0000
     1.0000   1.0000   1.0000   1.0000   1.0000   1.0000   1.0000   1.0000
     1.0000   1.0000   0.0000   0.0000   0.0000   0.0000   0.0000   0.0000

          k =-0.0000 0.2841-0.2841 (  3604 PWs)   bands (ev):

   -81.1059 -44.6344 -44.6344 -44.6340 -15.3342 -15.1030 -15.0867  -5.6529
    -5.3151  -5.2592  -5.2590  -5.0622   0.9801   1.8915   3.0626   3.3684
     3.6212   3.9183   3.9199   4.2567   4.4734   6.4827   6.6102   6.6332
     6.6897   6.6986  10.5439  12.4914  14.3339  15.6505  17.4832  18.6240

     occupation numbers 
     1.0000   1.0000   1.0000   1.0000   1.0000   1.0000   1.0000   1.0000
     1.0000   1.0000   1.0000   1.0000   1.0000   1.0000   1.0000   1.0000
     1.0000   1.0000   1.0000   1.0000   1.0000   1.0000   1.0000   1.0000
     1.0000   1.0000   1.0007   0.0000   0.0000   0.0000   0.0000   0.0000

          k = 0.0000 0.2841-0.1420 (  3612 PWs)   bands (ev):

   -81.1059 -44.6344 -44.6342 -44.6340 -15.4077 -15.1330 -15.0956  -5.4438
    -5.2782  -5.2595  -5.2271  -4.7994   1.2850   1.7813   2.8090   3.2134
     3.7161   3.9486   4.0023   4.0340   4.2529   6.4740   6.5294   6.5440
     6.6734   6.6925   9.6927  12.0888  15.0724  16.6136  17.4787  18.8804

     occupation numbers 
     1.0000   1.0000   1.0000   1.0000   1.0000   1.0000   1.0000   1.0000
     1.0000   1.0000   1.0000   1.0000   1.0000   1.0000   1.0000   1.0000
     1.0000   1.0000   1.0000   1.0000   1.0000   1.0000   1.0000   1.0000
     1.0000   1.0000   1.0000   0.0000   0.0000   0.0000   0.0000   0.0000

          k =-0.0000-0.4261-0.0000 (  3588 PWs)   bands (ev):

   -81.1059 -44.6346 -44.6340 -44.6340 -15.4157 -15.1427 -15.0743  -5.6340
    -5.2752  -5.2752  -5.2101  -4.5995   1.7690   1.7690   2.4275   3.0133
     3.7707   3.9320   3.9320   4.0385   4.0385   6.4677   6.4884   6.6200
     6.7642   6.7642  10.7859  10.9565  15.2550  17.6124  17.6124  19.0344

     occupation numbers 
     1.0000   1.0000   1.0000   1.0000   1.0000   1.0000   1.0000   1.0000
     1.0000   1.0000   1.0000   1.0000   1.0000   1.0000   1.0000   1.0000
     1.0000   1.0000   1.0000   1.0000   1.0000   1.0000   1.0000   1.0000
     1.0000   1.0000   0.1768   0.0000   0.0000   0.0000   0.0000   0.0000

          k =-0.0000-0.4261 0.1420 (  3614 PWs)   bands (ev):

   -81.1059 -44.6346 -44.6342 -44.6340 -15.3749 -15.1314 -15.0721  -5.6719
    -5.2948  -5.2751  -5.2267  -4.8047   1.2681   1.8273   3.0233   3.1033
     3.6362   3.9163   3.9907   4.0315   4.2377   6.5349   6.5453   6.6212
     6.6751   6.7649  10.9251  11.2944  15.2344  16.1838  17.5773  18.8505

     occupation numbers 
     1.0000   1.0000   1.0000   1.0000   1.0000   1.0000   1.0000   1.0000
     1.0000   1.0000   1.0000   1.0000   1.0000   1.0000   1.0000   1.0000
     1.0000   1.0000   1.0000   1.0000   1.0000   1.0000   1.0000   1.0000
     1.0000   1.0000   0.0000   0.0000   0.0000   0.0000   0.0000   0.0000

          k =-0.0000-0.4261 0.2841 (  3604 PWs)   bands (ev):

   -81.1059 -44.6345 -44.6344 -44.6340 -15.3041 -15.0941 -15.0675  -5.8150
    -5.3331  -5.2749  -5.2589  -5.1253   0.8939   1.9478   2.9997   3.5304
     3.5744   3.8811   3.9024   4.4792   4.4824   6.5142   6.5858   6.6618
     6.6952   6.7666  11.3289  12.2438  14.4989  14.7488  17.5015  18.5073

     occupation numbers 
     1.0000   1.0000   1.0000   1.0000   1.0000   1.0000   1.0000   1.0000
     1.0000   1.0000   1.0000   1.0000   1.0000   1.0000   1.0000   1.0000
     1.0000   1.0000   1.0000   1.0000   1.0000   1.0000   1.0000   1.0000
     1.0000   1.0000   0.0000   0.0000   0.0000   0.0000   0.0000   0.0000

          k =-0.0000-0.4261-0.4261 (  3628 PWs)   bands (ev):

   -81.1059 -44.6346 -44.6346 -44.6340 -15.2770 -15.0653 -15.0653  -5.9338
    -5.3524  -5.2749  -5.2749  -5.2289   0.7844   2.0101   2.9696   3.5874
     3.5874   3.8612   3.8612   4.5770   4.7631   6.4412   6.5859   6.7055
     6.7676   6.7676  11.6837  13.4565  13.6775  13.6776  17.4606  18.3461

     occupation numbers 
     1.0000   1.0000   1.0000   1.0000   1.0000   1.0000   1.0000   1.0000
     1.0000   1.0000   1.0000   1.0000   1.0000   1.0000   1.0000   1.0000
     1.0000   1.0000   1.0000   1.0000   1.0000   1.0000   1.0000   1.0000
     1.0000   1.0000   0.0000   0.0000   0.0000   0.0000   0.0000   0.0000

          k = 0.1420 0.0000 0.0000 (  3635 PWs)   bands (ev):

   -81.1059 -44.6342 -44.6341 -44.6341 -15.5218 -15.1466 -15.1341  -5.2281
    -5.2281  -5.2119  -4.8801  -4.5999   1.6433   1.6433   1.8008   3.7527
     4.0114   4.0114   4.0200   4.0840   4.0840   6.3231   6.3674   6.4634
     6.5409   6.5409   8.0323  11.7547  16.2544  17.3511  17.3511  19.8094

     occupation numbers 
     1.0000   1.0000   1.0000   1.0000   1.0000   1.0000   1.0000   1.0000
     1.0000   1.0000   1.0000   1.0000   1.0000   1.0000   1.0000   1.0000
     1.0000   1.0000   1.0000   1.0000   1.0000   1.0000   1.0000   1.0000
     1.0000   1.0000   1.0000   0.0000   0.0000   0.0000   0.0000   0.0000

          k = 0.1420 0.0000 0.1420 (  3627 PWs)   bands (ev):

   -81.1059 -44.6342 -44.6342 -44.6340 -15.4819 -15.1385 -15.1280  -5.2451
    -5.2279  -5.2276  -4.9991  -4.7478   1.3903   1.6893   2.2800   3.5160
     3.8818   3.9996   4.0451   4.0483   4.2012   6.3834   6.3942   6.5374
     6.5466   6.5960   8.5178  11.9590  15.9052  16.8287  17.3790  19.8165

     occupation numbers 
     1.0000   1.0000   1.0000   1.0000   1.0000   1.0000   1.0000   1.0000
     1.0000   1.0000   1.0000   1.0000   1.0000   1.0000   1.0000   1.0000
     1.0000   1.0000   1.0000   1.0000   1.0000   1.0000   1.0000   1.0000
     1.0000   1.0000   1.0000   0.0000   0.0000   0.0000   0.0000   0.0000

          k = 0.1420 0.0000 0.2841 (  3612 PWs)   bands (ev):

   -81.1059 -44.6344 -44.6342 -44.6340 -15.4077 -15.1330 -15.0956  -5.4438
    -5.2782  -5.2595  -5.2271  -4.7994   1.2850   1.7813   2.8090   3.2134
     3.7161   3.9486   4.0023   4.0340   4.2529   6.4740   6.5294   6.5440
     6.6734   6.6925   9.6927  12.0888  15.0724  16.6136  17.4787  18.8804

     occupation numbers 
     1.0000   1.0000   1.0000   1.0000   1.0000   1.0000   1.0000   1.0000
     1.0000   1.0000   1.0000   1.0000   1.0000   1.0000   1.0000   1.0000
     1.0000   1.0000   1.0000   1.0000   1.0000   1.0000   1.0000   1.0000
     1.0000   1.0000   1.0000   0.0000   0.0000   0.0000   0.0000   0.0000

          k = 0.1420-0.0000-0.4261 (  3614 PWs)   bands (ev):

   -81.1059 -44.6346 -44.6342 -44.6340 -15.3749 -15.1314 -15.0721  -5.6719
    -5.2948  -5.2751  -5.2267  -4.8047   1.2681   1.8273   3.0233   3.1033
     3.6361   3.9163   3.9907   4.0315   4.2377   6.5349   6.5453   6.6212
     6.6751   6.7649  10.9251  11.2944  15.2344  16.1838  17.5773  18.8504

     occupation numbers 
     1.0000   1.0000   1.0000   1.0000   1.0000   1.0000   1.0000   1.0000
     1.0000   1.0000   1.0000   1.0000   1.0000   1.0000   1.0000   1.0000
     1.0000   1.0000   1.0000   1.0000   1.0000   1.0000   1.0000   1.0000
     1.0000   1.0000   0.0000   0.0000   0.0000   0.0000   0.0000   0.0000

          k = 0.1420-0.0000-0.2841 (  3612 PWs)   bands (ev):

   -81.1059 -44.6344 -44.6342 -44.6340 -15.4077 -15.1330 -15.0956  -5.4438
    -5.2782  -5.2595  -5.2271  -4.7994   1.2850   1.7813   2.8090   3.2134
     3.7161   3.9486   4.0023   4.0340   4.2529   6.4740   6.5294   6.5440
     6.6734   6.6925   9.6927  12.0888  15.0724  16.6136  17.4787  18.8804

     occupation numbers 
     1.0000   1.0000   1.0000   1.0000   1.0000   1.0000   1.0000   1.0000
     1.0000   1.0000   1.0000   1.0000   1.0000   1.0000   1.0000   1.0000
     1.0000   1.0000   1.0000   1.0000   1.0000   1.0000   1.0000   1.0000
     1.0000   1.0000   1.0000   0.0000   0.0000   0.0000   0.0000   0.0000

          k = 0.1420-0.0000-0.1420 (  3627 PWs)   bands (ev):

   -81.1059 -44.6342 -44.6342 -44.6340 -15.4819 -15.1385 -15.1280  -5.2451
    -5.2279  -5.2276  -4.9991  -4.7478   1.3903   1.6893   2.2800   3.5160
     3.8818   3.9996   4.0451   4.0483   4.2012   6.3834   6.3942   6.5374
     6.5466   6.5960   8.5178  11.9590  15.9052  16.8287  17.3790  19.8165

     occupation numbers 
     1.0000   1.0000   1.0000   1.0000   1.0000   1.0000   1.0000   1.0000
     1.0000   1.0000   1.0000   1.0000   1.0000   1.0000   1.0000   1.0000
     1.0000   1.0000   1.0000   1.0000   1.0000   1.0000   1.0000   1.0000
     1.0000   1.0000   1.0000   0.0000   0.0000   0.0000   0.0000   0.0000

          k = 0.1420 0.1420 0.0000 (  3627 PWs)   bands (ev):

   -81.1059 -44.6342 -44.6342 -44.6340 -15.4819 -15.1385 -15.1280  -5.2451
    -5.2279  -5.2276  -4.9991  -4.7478   1.3903   1.6893   2.2800   3.5160
     3.8818   3.9996   4.0451   4.0484   4.2012   6.3834   6.3942   6.5374
     6.5466   6.5960   8.5178  11.9590  15.9052  16.8287  17.3790  19.8165

     occupation numbers 
     1.0000   1.0000   1.0000   1.0000   1.0000   1.0000   1.0000   1.0000
     1.0000   1.0000   1.0000   1.0000   1.0000   1.0000   1.0000   1.0000
     1.0000   1.0000   1.0000   1.0000   1.0000   1.0000   1.0000   1.0000
     1.0000   1.0000   1.0000   0.0000   0.0000   0.0000   0.0000   0.0000

          k = 0.1420 0.1420 0.1420 (  3620 PWs)   bands (ev):

   -81.1059 -44.6342 -44.6342 -44.6342 -15.4406 -15.1270 -15.1265  -5.2451
    -5.2444  -5.2444  -4.9987  -4.9987   0.9657   2.3310   2.3333   3.3755
     3.8142   3.8152   4.1458   4.1464   4.2449   6.4013   6.4016   6.5350
     6.6329   6.6332   8.9357  12.1357  16.0615  16.0645  17.1413  19.4074

     occupation numbers 
     1.0000   1.0000   1.0000   1.0000   1.0000   1.0000   1.0000   1.0000
     1.0000   1.0000   1.0000   1.0000   1.0000   1.0000   1.0000   1.0000
     1.0000   1.0000   1.0000   1.0000   1.0000   1.0000   1.0000   1.0000
     1.0000   1.0000   1.0000   0.0000   0.0000   0.0000   0.0000   0.0000

          k = 0.1420 0.1420 0.2841 (  3623 PWs)   bands (ev):

   -81.1059 -44.6345 -44.6342 -44.6342 -15.3641 -15.1243 -15.0936  -5.4730
    -5.2787  -5.2771  -5.2439  -4.9980   0.7128   2.4397   2.9692   3.1877
     3.6071   3.8264   4.1201   4.1988   4.2965   6.4607   6.5094   6.5784
     6.6712   6.7129   9.9878  12.2510  15.0979  16.5050  16.5059  18.8614

     occupation numbers 
     1.0000   1.0000   1.0000   1.0000   1.0000   1.0000   1.0000   1.0000
     1.0000   1.0000   1.0000   1.0000   1.0000   1.0000   1.0000   1.0000
     1.0000   1.0000   1.0000   1.0000   1.0000   1.0000   1.0000   1.0000
     1.0000   1.0000   1.0000   0.0000   0.0000   0.0000   0.0000   0.0000

          k = 0.1420 0.1420-0.4261 (  3608 PWs)   bands (ev):

   -81.1059 -44.6345 -44.6342 -44.6341 -15.3308 -15.1230 -15.0701  -5.6985
    -5.2954  -5.2931  -5.2434  -4.9976   0.6467   2.4957   3.0427   3.2654
     3.5238   3.9642   4.0845   4.1007   4.3069   6.4915   6.6193   6.6500
     6.6519   6.6961  11.0430  11.6055  15.3031  15.7613  16.9266  18.1057

     occupation numbers 
     1.0000   1.0000   1.0000   1.0000   1.0000   1.0000   1.0000   1.0000
     1.0000   1.0000   1.0000   1.0000   1.0000   1.0000   1.0000   1.0000
     1.0000   1.0000   1.0000   1.0000   1.0000   1.0000   1.0000   1.0000
     1.0000   1.0000   0.0000   0.0000   0.0000   0.0000   0.0000   0.0000

          k = 0.1420 0.1420-0.2841 (  3623 PWs)   bands (ev):

   -81.1059 -44.6345 -44.6342 -44.6342 -15.3641 -15.1243 -15.0936  -5.4730
    -5.2787  -5.2771  -5.2439  -4.9980   0.7128   2.4397   2.9692   3.1877
     3.6071   3.8264   4.1201   4.1988   4.2965   6.4607   6.5094   6.5784
     6.6712   6.7129   9.9878  12.2510  15.0979  16.5050  16.5059  18.8614

     occupation numbers 
     1.0000   1.0000   1.0000   1.0000   1.0000   1.0000   1.0000   1.0000
     1.0000   1.0000   1.0000   1.0000   1.0000   1.0000   1.0000   1.0000
     1.0000   1.0000   1.0000   1.0000   1.0000   1.0000   1.0000   1.0000
     1.0000   1.0000   1.0000   0.0000   0.0000   0.0000   0.0000   0.0000

          k = 0.1420 0.1420-0.1420 (  3620 PWs)   bands (ev):

   -81.1059 -44.6342 -44.6342 -44.6342 -15.4406 -15.1268 -15.1268  -5.2451
    -5.2444  -5.2444  -4.9987  -4.9987   0.9657   2.3322   2.3322   3.3755
     3.8147   3.8147   4.1461   4.1461   4.2449   6.4015   6.4015   6.5350
     6.6331   6.6331   8.9357  12.1357  16.0630  16.0630  17.1413  19.4073

     occupation numbers 
     1.0000   1.0000   1.0000   1.0000   1.0000   1.0000   1.0000   1.0000
     1.0000   1.0000   1.0000   1.0000   1.0000   1.0000   1.0000   1.0000
     1.0000   1.0000   1.0000   1.0000   1.0000   1.0000   1.0000   1.0000
     1.0000   1.0000   1.0000   0.0000   0.0000   0.0000   0.0000   0.0000

          k = 0.1420 0.2841 0.0000 (  3612 PWs)   bands (ev):

   -81.1059 -44.6344 -44.6342 -44.6340 -15.4077 -15.1330 -15.0956  -5.4438
    -5.2782  -5.2595  -5.2271  -4.7994   1.2850   1.7813   2.8090   3.2134
     3.7161   3.9486   4.0022   4.0340   4.2529   6.4740   6.5294   6.5440
     6.6734   6.6925   9.6927  12.0888  15.0724  16.6136  17.4787  18.8804

     occupation numbers 
     1.0000   1.0000   1.0000   1.0000   1.0000   1.0000   1.0000   1.0000
     1.0000   1.0000   1.0000   1.0000   1.0000   1.0000   1.0000   1.0000
     1.0000   1.0000   1.0000   1.0000   1.0000   1.0000   1.0000   1.0000
     1.0000   1.0000   1.0000   0.0000   0.0000   0.0000   0.0000   0.0000

          k = 0.1420 0.2841 0.1420 (  3623 PWs)   bands (ev):

   -81.1059 -44.6345 -44.6342 -44.6342 -15.3641 -15.1243 -15.0936  -5.4730
    -5.2787  -5.2771  -5.2439  -4.9980   0.7128   2.4397   2.9692   3.1877
     3.6071   3.8264   4.1201   4.1988   4.2965   6.4607   6.5094   6.5784
     6.6712   6.7129   9.9878  12.2510  15.0979  16.5049  16.5059  18.8614

     occupation numbers 
     1.0000   1.0000   1.0000   1.0000   1.0000   1.0000   1.0000   1.0000
     1.0000   1.0000   1.0000   1.0000   1.0000   1.0000   1.0000   1.0000
     1.0000   1.0000   1.0000   1.0000   1.0000   1.0000   1.0000   1.0000
     1.0000   1.0000   1.0000   0.0000   0.0000   0.0000   0.0000   0.0000

          k = 0.1420 0.2841 0.2841 (  3620 PWs)   bands (ev):

   -81.1059 -44.6345 -44.6344 -44.6341 -15.2850 -15.0990 -15.0855  -5.6527
    -5.3144  -5.2773  -5.2768  -5.2586   0.3067   2.8002   3.0905   3.3614
     3.5002   3.8947   4.1547   4.3514   4.4763   6.4834   6.5336   6.5694
     6.6935   6.7255  10.7400  12.5821  14.5761  15.6899  16.4676  18.2105

     occupation numbers 
     1.0000   1.0000   1.0000   1.0000   1.0000   1.0000   1.0000   1.0000
     1.0000   1.0000   1.0000   1.0000   1.0000   1.0000   1.0000   1.0000
     1.0000   1.0000   1.0000   1.0000   1.0000   1.0000   1.0000   1.0000
     1.0000   1.0000   0.6025   0.0000   0.0000   0.0000   0.0000   0.0000

          k = 0.1420 0.2841-0.4261 (  3606 PWs)   bands (ev):

   -81.1059 -44.6345 -44.6344 -44.6341 -15.2533 -15.0919 -15.0661  -5.8181
    -5.3322  -5.3067  -5.2933  -5.2765   0.1885   2.9050   3.0482   3.4300
     3.4351   4.0882   4.1170   4.4844   4.5005   6.5006   6.5507   6.6181
     6.6751   6.7138  11.3492  12.4988  14.5608  14.9747  16.8318  17.6639

     occupation numbers 
     1.0000   1.0000   1.0000   1.0000   1.0000   1.0000   1.0000   1.0000
     1.0000   1.0000   1.0000   1.0000   1.0000   1.0000   1.0000   1.0000
     1.0000   1.0000   1.0000   1.0000   1.0000   1.0000   1.0000   1.0000
     1.0000   1.0000   0.0000   0.0000   0.0000   0.0000   0.0000   0.0000

          k = 0.1420 0.2841-0.2841 (  3620 PWs)   bands (ev):

   -81.1059 -44.6345 -44.6344 -44.6341 -15.2850 -15.0990 -15.0855  -5.6527
    -5.3144  -5.2773  -5.2768  -5.2586   0.3067   2.8002   3.0905   3.3613
     3.5002   3.8947   4.1547   4.3514   4.4763   6.4834   6.5336   6.5694
     6.6935   6.7255  10.7400  12.5821  14.5761  15.6899  16.4676  18.2105

     occupation numbers 
     1.0000   1.0000   1.0000   1.0000   1.0000   1.0000   1.0000   1.0000
     1.0000   1.0000   1.0000   1.0000   1.0000   1.0000   1.0000   1.0000
     1.0000   1.0000   1.0000   1.0000   1.0000   1.0000   1.0000   1.0000
     1.0000   1.0000   0.6025   0.0000   0.0000   0.0000   0.0000   0.0000

          k = 0.1420 0.2841-0.1420 (  3623 PWs)   bands (ev):

   -81.1059 -44.6345 -44.6342 -44.6342 -15.3641 -15.1243 -15.0936  -5.4730
    -5.2787  -5.2771  -5.2439  -4.9980   0.7128   2.4397   2.9692   3.1877
     3.6071   3.8264   4.1201   4.1988   4.2965   6.4607   6.5094   6.5784
     6.6712   6.7129   9.9878  12.2510  15.0979  16.5049  16.5059  18.8614

     occupation numbers 
     1.0000   1.0000   1.0000   1.0000   1.0000   1.0000   1.0000   1.0000
     1.0000   1.0000   1.0000   1.0000   1.0000   1.0000   1.0000   1.0000
     1.0000   1.0000   1.0000   1.0000   1.0000   1.0000   1.0000   1.0000
     1.0000   1.0000   1.0000   0.0000   0.0000   0.0000   0.0000   0.0000

          k = 0.1420-0.4261-0.0000 (  3614 PWs)   bands (ev):

   -81.1059 -44.6346 -44.6342 -44.6340 -15.3749 -15.1314 -15.0721  -5.6719
    -5.2948  -5.2751  -5.2267  -4.8047   1.2681   1.8273   3.0233   3.1033
     3.6361   3.9163   3.9907   4.0315   4.2377   6.5349   6.5453   6.6212
     6.6751   6.7649  10.9251  11.2944  15.2344  16.1838  17.5773  18.8505

     occupation numbers 
     1.0000   1.0000   1.0000   1.0000   1.0000   1.0000   1.0000   1.0000
     1.0000   1.0000   1.0000   1.0000   1.0000   1.0000   1.0000   1.0000
     1.0000   1.0000   1.0000   1.0000   1.0000   1.0000   1.0000   1.0000
     1.0000   1.0000   0.0000   0.0000   0.0000   0.0000   0.0000   0.0000

          k = 0.1420-0.4261 0.1420 (  3608 PWs)   bands (ev):

   -81.1059 -44.6345 -44.6342 -44.6341 -15.3308 -15.1230 -15.0701  -5.6985
    -5.2954  -5.2931  -5.2434  -4.9976   0.6467   2.4957   3.0428   3.2654
     3.5238   3.9641   4.0845   4.1006   4.3069   6.4915   6.6193   6.6500
     6.6519   6.6961  11.0430  11.6054  15.3030  15.7613  16.9266  18.1057

     occupation numbers 
     1.0000   1.0000   1.0000   1.0000   1.0000   1.0000   1.0000   1.0000
     1.0000   1.0000   1.0000   1.0000   1.0000   1.0000   1.0000   1.0000
     1.0000   1.0000   1.0000   1.0000   1.0000   1.0000   1.0000   1.0000
     1.0000   1.0000   0.0000   0.0000   0.0000   0.0000   0.0000   0.0000

          k = 0.1420-0.4261 0.2841 (  3606 PWs)   bands (ev):

   -81.1059 -44.6345 -44.6344 -44.6341 -15.2533 -15.0919 -15.0661  -5.8181
    -5.3322  -5.3067  -5.2933  -5.2765   0.1885   2.9050   3.0482   3.4300
     3.4351   4.0882   4.1170   4.4844   4.5004   6.5006   6.5507   6.6181
     6.6751   6.7138  11.3493  12.4988  14.5608  14.9747  16.8318  17.6639

     occupation numbers 
     1.0000   1.0000   1.0000   1.0000   1.0000   1.0000   1.0000   1.0000
     1.0000   1.0000   1.0000   1.0000   1.0000   1.0000   1.0000   1.0000
     1.0000   1.0000   1.0000   1.0000   1.0000   1.0000   1.0000   1.0000
     1.0000   1.0000   0.0000   0.0000   0.0000   0.0000   0.0000   0.0000

          k = 0.1420-0.4261-0.4261 (  3616 PWs)   bands (ev):

   -81.1059 -44.6346 -44.6346 -44.6342 -15.2248 -15.0641 -15.0641  -5.9335
    -5.4007  -5.3508  -5.2930  -5.2930   0.0527   3.0278   3.0327   3.4258
     3.4259   4.1203   4.1203   4.5947   4.7642   6.4248   6.5924   6.6708
     6.6708   6.6816  11.5725  13.6493  13.9460  13.9460  16.9355  17.8164

     occupation numbers 
     1.0000   1.0000   1.0000   1.0000   1.0000   1.0000   1.0000   1.0000
     1.0000   1.0000   1.0000   1.0000   1.0000   1.0000   1.0000   1.0000
     1.0000   1.0000   1.0000   1.0000   1.0000   1.0000   1.0000   1.0000
     1.0000   1.0000   0.0000   0.0000   0.0000   0.0000   0.0000   0.0000

          k = 0.1420-0.4261-0.2841 (  3606 PWs)   bands (ev):

   -81.1059 -44.6345 -44.6344 -44.6341 -15.2533 -15.0919 -15.0661  -5.8181
    -5.3322  -5.3067  -5.2933  -5.2765   0.1885   2.9050   3.0482   3.4300
     3.4351   4.0882   4.1170   4.4844   4.5004   6.5006   6.5507   6.6181
     6.6751   6.7138  11.3493  12.4988  14.5608  14.9747  16.8318  17.6639

     occupation numbers 
     1.0000   1.0000   1.0000   1.0000   1.0000   1.0000   1.0000   1.0000
     1.0000   1.0000   1.0000   1.0000   1.0000   1.0000   1.0000   1.0000
     1.0000   1.0000   1.0000   1.0000   1.0000   1.0000   1.0000   1.0000
     1.0000   1.0000   0.0000   0.0000   0.0000   0.0000   0.0000   0.0000

          k = 0.1420-0.4261-0.1420 (  3608 PWs)   bands (ev):

   -81.1059 -44.6345 -44.6342 -44.6341 -15.3308 -15.1230 -15.0701  -5.6985
    -5.2954  -5.2931  -5.2434  -4.9976   0.6467   2.4957   3.0428   3.2654
     3.5238   3.9641   4.0845   4.1006   4.3069   6.4915   6.6193   6.6500
     6.6519   6.6961  11.0430  11.6054  15.3030  15.7613  16.9266  18.1057

     occupation numbers 
     1.0000   1.0000   1.0000   1.0000   1.0000   1.0000   1.0000   1.0000
     1.0000   1.0000   1.0000   1.0000   1.0000   1.0000   1.0000   1.0000
     1.0000   1.0000   1.0000   1.0000   1.0000   1.0000   1.0000   1.0000
     1.0000   1.0000   0.0000   0.0000   0.0000   0.0000   0.0000   0.0000

          k = 0.1420-0.2841-0.0000 (  3612 PWs)   bands (ev):

   -81.1059 -44.6344 -44.6342 -44.6340 -15.4077 -15.1330 -15.0956  -5.4438
    -5.2782  -5.2595  -5.2271  -4.7994   1.2850   1.7813   2.8090   3.2134
     3.7161   3.9486   4.0022   4.0340   4.2529   6.4740   6.5294   6.5440
     6.6734   6.6925   9.6927  12.0888  15.0724  16.6136  17.4787  18.8804

     occupation numbers 
     1.0000   1.0000   1.0000   1.0000   1.0000   1.0000   1.0000   1.0000
     1.0000   1.0000   1.0000   1.0000   1.0000   1.0000   1.0000   1.0000
     1.0000   1.0000   1.0000   1.0000   1.0000   1.0000   1.0000   1.0000
     1.0000   1.0000   1.0000   0.0000   0.0000   0.0000   0.0000   0.0000

          k = 0.1420-0.2841 0.1420 (  3623 PWs)   bands (ev):

   -81.1059 -44.6345 -44.6342 -44.6342 -15.3641 -15.1243 -15.0936  -5.4730
    -5.2787  -5.2771  -5.2439  -4.9980   0.7128   2.4397   2.9692   3.1877
     3.6071   3.8264   4.1201   4.1988   4.2965   6.4607   6.5094   6.5784
     6.6712   6.7129   9.9878  12.2510  15.0979  16.5049  16.5059  18.8614

     occupation numbers 
     1.0000   1.0000   1.0000   1.0000   1.0000   1.0000   1.0000   1.0000
     1.0000   1.0000   1.0000   1.0000   1.0000   1.0000   1.0000   1.0000
     1.0000   1.0000   1.0000   1.0000   1.0000   1.0000   1.0000   1.0000
     1.0000   1.0000   1.0000   0.0000   0.0000   0.0000   0.0000   0.0000

          k = 0.1420-0.2841 0.2841 (  3620 PWs)   bands (ev):

   -81.1059 -44.6345 -44.6344 -44.6341 -15.2850 -15.0990 -15.0855  -5.6527
    -5.3144  -5.2773  -5.2768  -5.2586   0.3067   2.8002   3.0905   3.3613
     3.5002   3.8947   4.1547   4.3514   4.4763   6.4834   6.5336   6.5694
     6.6935   6.7255  10.7400  12.5821  14.5761  15.6899  16.4676  18.2105

     occupation numbers 
     1.0000   1.0000   1.0000   1.0000   1.0000   1.0000   1.0000   1.0000
     1.0000   1.0000   1.0000   1.0000   1.0000   1.0000   1.0000   1.0000
     1.0000   1.0000   1.0000   1.0000   1.0000   1.0000   1.0000   1.0000
     1.0000   1.0000   0.6025   0.0000   0.0000   0.0000   0.0000   0.0000

          k = 0.1420-0.2841-0.4261 (  3606 PWs)   bands (ev):

   -81.1059 -44.6345 -44.6344 -44.6341 -15.2533 -15.0919 -15.0661  -5.8181
    -5.3322  -5.3067  -5.2933  -5.2765   0.1885   2.9050   3.0482   3.4300
     3.4351   4.0882   4.1170   4.4844   4.5005   6.5006   6.5507   6.6181
     6.6751   6.7138  11.3492  12.4988  14.5608  14.9747  16.8318  17.6639

     occupation numbers 
     1.0000   1.0000   1.0000   1.0000   1.0000   1.0000   1.0000   1.0000
     1.0000   1.0000   1.0000   1.0000   1.0000   1.0000   1.0000   1.0000
     1.0000   1.0000   1.0000   1.0000   1.0000   1.0000   1.0000   1.0000
     1.0000   1.0000   0.0000   0.0000   0.0000   0.0000   0.0000   0.0000

          k = 0.1420-0.2841-0.2841 (  3620 PWs)   bands (ev):

   -81.1059 -44.6345 -44.6344 -44.6341 -15.2850 -15.0990 -15.0855  -5.6527
    -5.3144  -5.2773  -5.2768  -5.2586   0.3067   2.8002   3.0905   3.3614
     3.5002   3.8947   4.1547   4.3514   4.4763   6.4834   6.5336   6.5694
     6.6935   6.7255  10.7400  12.5821  14.5761  15.6899  16.4676  18.2105

     occupation numbers 
     1.0000   1.0000   1.0000   1.0000   1.0000   1.0000   1.0000   1.0000
     1.0000   1.0000   1.0000   1.0000   1.0000   1.0000   1.0000   1.0000
     1.0000   1.0000   1.0000   1.0000   1.0000   1.0000   1.0000   1.0000
     1.0000   1.0000   0.6025   0.0000   0.0000   0.0000   0.0000   0.0000

          k = 0.1420-0.2841-0.1420 (  3623 PWs)   bands (ev):

   -81.1059 -44.6345 -44.6342 -44.6342 -15.3641 -15.1243 -15.0936  -5.4730
    -5.2787  -5.2771  -5.2439  -4.9980   0.7128   2.4397   2.9692   3.1877
     3.6071   3.8264   4.1201   4.1988   4.2965   6.4607   6.5094   6.5784
     6.6712   6.7129   9.9878  12.2510  15.0979  16.5049  16.5059  18.8614

     occupation numbers 
     1.0000   1.0000   1.0000   1.0000   1.0000   1.0000   1.0000   1.0000
     1.0000   1.0000   1.0000   1.0000   1.0000   1.0000   1.0000   1.0000
     1.0000   1.0000   1.0000   1.0000   1.0000   1.0000   1.0000   1.0000
     1.0000   1.0000   1.0000   0.0000   0.0000   0.0000   0.0000   0.0000

          k = 0.1420-0.1420-0.0000 (  3627 PWs)   bands (ev):

   -81.1059 -44.6342 -44.6342 -44.6340 -15.4819 -15.1385 -15.1280  -5.2451
    -5.2279  -5.2276  -4.9991  -4.7478   1.3903   1.6893   2.2800   3.5160
     3.8818   3.9996   4.0451   4.0484   4.2012   6.3834   6.3942   6.5374
     6.5466   6.5960   8.5178  11.9590  15.9052  16.8287  17.3790  19.8165

     occupation numbers 
     1.0000   1.0000   1.0000   1.0000   1.0000   1.0000   1.0000   1.0000
     1.0000   1.0000   1.0000   1.0000   1.0000   1.0000   1.0000   1.0000
     1.0000   1.0000   1.0000   1.0000   1.0000   1.0000   1.0000   1.0000
     1.0000   1.0000   1.0000   0.0000   0.0000   0.0000   0.0000   0.0000

          k = 0.1420-0.1420 0.1420 (  3620 PWs)   bands (ev):

   -81.1059 -44.6342 -44.6342 -44.6342 -15.4406 -15.1268 -15.1267  -5.2451
    -5.2444  -5.2444  -4.9987  -4.9987   0.9657   2.3318   2.3326   3.3755
     3.8145   3.8149   4.1460   4.1462   4.2449   6.4014   6.4015   6.5350
     6.6330   6.6331   8.9357  12.1357  16.0625  16.0635  17.1413  19.4073

     occupation numbers 
     1.0000   1.0000   1.0000   1.0000   1.0000   1.0000   1.0000   1.0000
     1.0000   1.0000   1.0000   1.0000   1.0000   1.0000   1.0000   1.0000
     1.0000   1.0000   1.0000   1.0000   1.0000   1.0000   1.0000   1.0000
     1.0000   1.0000   1.0000   0.0000   0.0000   0.0000   0.0000   0.0000

          k = 0.1420-0.1420 0.2841 (  3623 PWs)   bands (ev):

   -81.1059 -44.6345 -44.6342 -44.6342 -15.3641 -15.1243 -15.0936  -5.4730
    -5.2787  -5.2771  -5.2439  -4.9980   0.7128   2.4397   2.9692   3.1877
     3.6071   3.8264   4.1201   4.1988   4.2965   6.4607   6.5094   6.5784
     6.6712   6.7129   9.9878  12.2510  15.0979  16.5050  16.5059  18.8614

     occupation numbers 
     1.0000   1.0000   1.0000   1.0000   1.0000   1.0000   1.0000   1.0000
     1.0000   1.0000   1.0000   1.0000   1.0000   1.0000   1.0000   1.0000
     1.0000   1.0000   1.0000   1.0000   1.0000   1.0000   1.0000   1.0000
     1.0000   1.0000   1.0000   0.0000   0.0000   0.0000   0.0000   0.0000

          k = 0.1420-0.1420-0.4261 (  3608 PWs)   bands (ev):

   -81.1059 -44.6345 -44.6342 -44.6341 -15.3308 -15.1230 -15.0701  -5.6985
    -5.2954  -5.2931  -5.2434  -4.9976   0.6467   2.4957   3.0427   3.2654
     3.5238   3.9642   4.0845   4.1007   4.3069   6.4915   6.6193   6.6500
     6.6519   6.6961  11.0430  11.6055  15.3031  15.7613  16.9266  18.1057

     occupation numbers 
     1.0000   1.0000   1.0000   1.0000   1.0000   1.0000   1.0000   1.0000
     1.0000   1.0000   1.0000   1.0000   1.0000   1.0000   1.0000   1.0000
     1.0000   1.0000   1.0000   1.0000   1.0000   1.0000   1.0000   1.0000
     1.0000   1.0000   0.0000   0.0000   0.0000   0.0000   0.0000   0.0000

          k = 0.1420-0.1420-0.2841 (  3623 PWs)   bands (ev):

   -81.1059 -44.6345 -44.6342 -44.6342 -15.3641 -15.1243 -15.0936  -5.4730
    -5.2787  -5.2771  -5.2439  -4.9980   0.7128   2.4397   2.9692   3.1877
     3.6071   3.8264   4.1201   4.1988   4.2965   6.4607   6.5094   6.5784
     6.6712   6.7129   9.9878  12.2510  15.0979  16.5050  16.5059  18.8614

     occupation numbers 
     1.0000   1.0000   1.0000   1.0000   1.0000   1.0000   1.0000   1.0000
     1.0000   1.0000   1.0000   1.0000   1.0000   1.0000   1.0000   1.0000
     1.0000   1.0000   1.0000   1.0000   1.0000   1.0000   1.0000   1.0000
     1.0000   1.0000   1.0000   0.0000   0.0000   0.0000   0.0000   0.0000

          k = 0.1420-0.1420-0.1420 (  3620 PWs)   bands (ev):

   -81.1059 -44.6342 -44.6342 -44.6342 -15.4406 -15.1269 -15.1266  -5.2451
    -5.2444  -5.2444  -4.9987  -4.9987   0.9657   2.3314   2.3330   3.3755
     3.8144   3.8151   4.1459   4.1463   4.2449   6.4014   6.4016   6.5350
     6.6329   6.6332   8.9357  12.1357  16.0620  16.0640  17.1413  19.4073

     occupation numbers 
     1.0000   1.0000   1.0000   1.0000   1.0000   1.0000   1.0000   1.0000
     1.0000   1.0000   1.0000   1.0000   1.0000   1.0000   1.0000   1.0000
     1.0000   1.0000   1.0000   1.0000   1.0000   1.0000   1.0000   1.0000
     1.0000   1.0000   1.0000   0.0000   0.0000   0.0000   0.0000   0.0000

          k = 0.2841 0.0000 0.0000 (  3619 PWs)   bands (ev):

   -81.1059 -44.6345 -44.6340 -44.6340 -15.4486 -15.1441 -15.0980  -5.3943
    -5.2597  -5.2597  -5.2108  -4.5997   1.7272   1.7272   2.1889   3.2806
     3.8483   3.9615   3.9615   4.0481   4.0481   6.4326   6.4662   6.5414
     6.6915   6.6915   9.3641  11.8914  15.2173  17.4845  17.4845  19.5959

     occupation numbers 
     1.0000   1.0000   1.0000   1.0000   1.0000   1.0000   1.0000   1.0000
     1.0000   1.0000   1.0000   1.0000   1.0000   1.0000   1.0000   1.0000
     1.0000   1.0000   1.0000   1.0000   1.0000   1.0000   1.0000   1.0000
     1.0000   1.0000   1.0000   0.0000   0.0000   0.0000   0.0000   0.0000

          k = 0.2841 0.0000 0.1420 (  3612 PWs)   bands (ev):

   -81.1059 -44.6344 -44.6342 -44.6340 -15.4077 -15.1330 -15.0956  -5.4438
    -5.2782  -5.2595  -5.2271  -4.7994   1.2850   1.7813   2.8090   3.2134
     3.7161   3.9486   4.0023   4.0340   4.2529   6.4740   6.5294   6.5440
     6.6734   6.6925   9.6927  12.0888  15.0724  16.6136  17.4787  18.8804

     occupation numbers 
     1.0000   1.0000   1.0000   1.0000   1.0000   1.0000   1.0000   1.0000
     1.0000   1.0000   1.0000   1.0000   1.0000   1.0000   1.0000   1.0000
     1.0000   1.0000   1.0000   1.0000   1.0000   1.0000   1.0000   1.0000
     1.0000   1.0000   1.0000   0.0000   0.0000   0.0000   0.0000   0.0000

          k = 0.2841 0.0000 0.2841 (  3604 PWs)   bands (ev):

   -81.1059 -44.6344 -44.6344 -44.6340 -15.3342 -15.1030 -15.0867  -5.6529
    -5.3151  -5.2592  -5.2590  -5.0622   0.9801   1.8915   3.0626   3.3684
     3.6212   3.9182   3.9199   4.2567   4.4734   6.4827   6.6102   6.6332
     6.6897   6.6986  10.5439  12.4914  14.3339  15.6505  17.4832  18.6240

     occupation numbers 
     1.0000   1.0000   1.0000   1.0000   1.0000   1.0000   1.0000   1.0000
     1.0000   1.0000   1.0000   1.0000   1.0000   1.0000   1.0000   1.0000
     1.0000   1.0000   1.0000   1.0000   1.0000   1.0000   1.0000   1.0000
     1.0000   1.0000   1.0007   0.0000   0.0000   0.0000   0.0000   0.0000

          k = 0.2841-0.0000-0.4261 (  3604 PWs)   bands (ev):

   -81.1059 -44.6345 -44.6344 -44.6340 -15.3041 -15.0941 -15.0675  -5.8150
    -5.3331  -5.2749  -5.2589  -5.1253   0.8939   1.9478   2.9997   3.5304
     3.5743   3.8811   3.9024   4.4792   4.4824   6.5142   6.5858   6.6618
     6.6952   6.7666  11.3289  12.2438  14.4988  14.7488  17.5015  18.5073

     occupation numbers 
     1.0000   1.0000   1.0000   1.0000   1.0000   1.0000   1.0000   1.0000
     1.0000   1.0000   1.0000   1.0000   1.0000   1.0000   1.0000   1.0000
     1.0000   1.0000   1.0000   1.0000   1.0000   1.0000   1.0000   1.0000
     1.0000   1.0000   0.0000   0.0000   0.0000   0.0000   0.0000   0.0000

          k = 0.2841-0.0000-0.2841 (  3604 PWs)   bands (ev):

   -81.1059 -44.6344 -44.6344 -44.6340 -15.3342 -15.1030 -15.0867  -5.6529
    -5.3151  -5.2592  -5.2590  -5.0622   0.9801   1.8915   3.0626   3.3684
     3.6212   3.9182   3.9199   4.2567   4.4734   6.4827   6.6102   6.6332
     6.6897   6.6986  10.5439  12.4914  14.3339  15.6505  17.4832  18.6240

     occupation numbers 
     1.0000   1.0000   1.0000   1.0000   1.0000   1.0000   1.0000   1.0000
     1.0000   1.0000   1.0000   1.0000   1.0000   1.0000   1.0000   1.0000
     1.0000   1.0000   1.0000   1.0000   1.0000   1.0000   1.0000   1.0000
     1.0000   1.0000   1.0007   0.0000   0.0000   0.0000   0.0000   0.0000

          k = 0.2841-0.0000-0.1420 (  3612 PWs)   bands (ev):

   -81.1059 -44.6344 -44.6342 -44.6340 -15.4077 -15.1330 -15.0956  -5.4438
    -5.2782  -5.2595  -5.2271  -4.7994   1.2850   1.7813   2.8090   3.2134
     3.7161   3.9486   4.0023   4.0340   4.2529   6.4740   6.5294   6.5440
     6.6734   6.6925   9.6927  12.0888  15.0724  16.6136  17.4787  18.8804

     occupation numbers 
     1.0000   1.0000   1.0000   1.0000   1.0000   1.0000   1.0000   1.0000
     1.0000   1.0000   1.0000   1.0000   1.0000   1.0000   1.0000   1.0000
     1.0000   1.0000   1.0000   1.0000   1.0000   1.0000   1.0000   1.0000
     1.0000   1.0000   1.0000   0.0000   0.0000   0.0000   0.0000   0.0000

          k = 0.2841 0.1420 0.0000 (  3612 PWs)   bands (ev):

   -81.1059 -44.6344 -44.6342 -44.6340 -15.4077 -15.1330 -15.0956  -5.4438
    -5.2782  -5.2595  -5.2271  -4.7994   1.2850   1.7813   2.8090   3.2134
     3.7161   3.9486   4.0023   4.0340   4.2529   6.4740   6.5294   6.5440
     6.6734   6.6925   9.6927  12.0888  15.0724  16.6136  17.4787  18.8804

     occupation numbers 
     1.0000   1.0000   1.0000   1.0000   1.0000   1.0000   1.0000   1.0000
     1.0000   1.0000   1.0000   1.0000   1.0000   1.0000   1.0000   1.0000
     1.0000   1.0000   1.0000   1.0000   1.0000   1.0000   1.0000   1.0000
     1.0000   1.0000   1.0000   0.0000   0.0000   0.0000   0.0000   0.0000

          k = 0.2841 0.1420 0.1420 (  3623 PWs)   bands (ev):

   -81.1059 -44.6345 -44.6342 -44.6342 -15.3641 -15.1243 -15.0936  -5.4730
    -5.2787  -5.2771  -5.2439  -4.9980   0.7128   2.4397   2.9692   3.1877
     3.6071   3.8264   4.1201   4.1988   4.2965   6.4607   6.5094   6.5784
     6.6712   6.7129   9.9878  12.2510  15.0979  16.5049  16.5059  18.8614

     occupation numbers 
     1.0000   1.0000   1.0000   1.0000   1.0000   1.0000   1.0000   1.0000
     1.0000   1.0000   1.0000   1.0000   1.0000   1.0000   1.0000   1.0000
     1.0000   1.0000   1.0000   1.0000   1.0000   1.0000   1.0000   1.0000
     1.0000   1.0000   1.0000   0.0000   0.0000   0.0000   0.0000   0.0000

          k = 0.2841 0.1420 0.2841 (  3620 PWs)   bands (ev):

   -81.1059 -44.6345 -44.6344 -44.6341 -15.2850 -15.0990 -15.0855  -5.6527
    -5.3144  -5.2773  -5.2768  -5.2586   0.3067   2.8002   3.0905   3.3614
     3.5002   3.8947   4.1547   4.3514   4.4763   6.4834   6.5336   6.5694
     6.6935   6.7255  10.7400  12.5821  14.5761  15.6899  16.4676  18.2105

     occupation numbers 
     1.0000   1.0000   1.0000   1.0000   1.0000   1.0000   1.0000   1.0000
     1.0000   1.0000   1.0000   1.0000   1.0000   1.0000   1.0000   1.0000
     1.0000   1.0000   1.0000   1.0000   1.0000   1.0000   1.0000   1.0000
     1.0000   1.0000   0.6025   0.0000   0.0000   0.0000   0.0000   0.0000

          k = 0.2841 0.1420-0.4261 (  3606 PWs)   bands (ev):

   -81.1059 -44.6345 -44.6344 -44.6341 -15.2533 -15.0919 -15.0661  -5.8181
    -5.3322  -5.3067  -5.2933  -5.2765   0.1885   2.9050   3.0482   3.4300
     3.4351   4.0882   4.1170   4.4844   4.5004   6.5006   6.5507   6.6181
     6.6751   6.7138  11.3492  12.4988  14.5608  14.9747  16.8318  17.6639

     occupation numbers 
     1.0000   1.0000   1.0000   1.0000   1.0000   1.0000   1.0000   1.0000
     1.0000   1.0000   1.0000   1.0000   1.0000   1.0000   1.0000   1.0000
     1.0000   1.0000   1.0000   1.0000   1.0000   1.0000   1.0000   1.0000
     1.0000   1.0000   0.0000   0.0000   0.0000   0.0000   0.0000   0.0000

          k = 0.2841 0.1420-0.2841 (  3620 PWs)   bands (ev):

   -81.1059 -44.6345 -44.6344 -44.6341 -15.2850 -15.0990 -15.0855  -5.6527
    -5.3144  -5.2773  -5.2768  -5.2586   0.3067   2.8002   3.0905   3.3613
     3.5002   3.8947   4.1547   4.3514   4.4763   6.4834   6.5336   6.5694
     6.6935   6.7255  10.7400  12.5821  14.5761  15.6899  16.4676  18.2105

     occupation numbers 
     1.0000   1.0000   1.0000   1.0000   1.0000   1.0000   1.0000   1.0000
     1.0000   1.0000   1.0000   1.0000   1.0000   1.0000   1.0000   1.0000
     1.0000   1.0000   1.0000   1.0000   1.0000   1.0000   1.0000   1.0000
     1.0000   1.0000   0.6025   0.0000   0.0000   0.0000   0.0000   0.0000

          k = 0.2841 0.1420-0.1420 (  3623 PWs)   bands (ev):

   -81.1059 -44.6345 -44.6342 -44.6342 -15.3641 -15.1243 -15.0936  -5.4730
    -5.2787  -5.2771  -5.2439  -4.9980   0.7128   2.4397   2.9692   3.1877
     3.6071   3.8264   4.1201   4.1988   4.2965   6.4607   6.5094   6.5784
     6.6712   6.7129   9.9878  12.2510  15.0979  16.5050  16.5059  18.8614

     occupation numbers 
     1.0000   1.0000   1.0000   1.0000   1.0000   1.0000   1.0000   1.0000
     1.0000   1.0000   1.0000   1.0000   1.0000   1.0000   1.0000   1.0000
     1.0000   1.0000   1.0000   1.0000   1.0000   1.0000   1.0000   1.0000
     1.0000   1.0000   1.0000   0.0000   0.0000   0.0000   0.0000   0.0000

          k = 0.2841 0.2841 0.0000 (  3604 PWs)   bands (ev):

   -81.1059 -44.6344 -44.6344 -44.6340 -15.3342 -15.1030 -15.0867  -5.6529
    -5.3151  -5.2592  -5.2590  -5.0622   0.9801   1.8915   3.0626   3.3684
     3.6212   3.9182   3.9199   4.2567   4.4734   6.4827   6.6102   6.6332
     6.6897   6.6986  10.5439  12.4914  14.3339  15.6505  17.4832  18.6240

     occupation numbers 
     1.0000   1.0000   1.0000   1.0000   1.0000   1.0000   1.0000   1.0000
     1.0000   1.0000   1.0000   1.0000   1.0000   1.0000   1.0000   1.0000
     1.0000   1.0000   1.0000   1.0000   1.0000   1.0000   1.0000   1.0000
     1.0000   1.0000   1.0007   0.0000   0.0000   0.0000   0.0000   0.0000

          k = 0.2841 0.2841 0.1420 (  3620 PWs)   bands (ev):

   -81.1059 -44.6345 -44.6344 -44.6341 -15.2850 -15.0990 -15.0855  -5.6527
    -5.3144  -5.2773  -5.2768  -5.2586   0.3067   2.8002   3.0906   3.3613
     3.5002   3.8947   4.1547   4.3514   4.4763   6.4834   6.5336   6.5694
     6.6935   6.7255  10.7400  12.5821  14.5761  15.6899  16.4676  18.2105

     occupation numbers 
     1.0000   1.0000   1.0000   1.0000   1.0000   1.0000   1.0000   1.0000
     1.0000   1.0000   1.0000   1.0000   1.0000   1.0000   1.0000   1.0000
     1.0000   1.0000   1.0000   1.0000   1.0000   1.0000   1.0000   1.0000
     1.0000   1.0000   0.6025   0.0000   0.0000   0.0000   0.0000   0.0000

          k = 0.2841 0.2841 0.2841 (  3614 PWs)   bands (ev):

   -81.1059 -44.6344 -44.6344 -44.6344 -15.1907 -15.0833 -15.0829  -5.6519
    -5.6518  -5.3139  -5.3116  -5.3115  -0.2374   3.1278   3.3274   3.3284
     3.9126   3.9149   4.4614   4.4620   4.5114   6.4764   6.4836   6.4839
     6.6819   6.6820  11.1532  12.8975  15.2536  15.2556  15.6266  17.6176

     occupation numbers 
     1.0000   1.0000   1.0000   1.0000   1.0000   1.0000   1.0000   1.0000
     1.0000   1.0000   1.0000   1.0000   1.0000   1.0000   1.0000   1.0000
     1.0000   1.0000   1.0000   1.0000   1.0000   1.0000   1.0000   1.0000
     1.0000   1.0000   0.0000   0.0000   0.0000   0.0000   0.0000   0.0000

          k = 0.2841 0.2841-0.4261 (  3608 PWs)   bands (ev):

   -81.1059 -44.6345 -44.6344 -44.6344 -15.1535 -15.0819 -15.0631  -5.8470
    -5.6515  -5.3310  -5.3287  -5.3114  -0.4030   3.1381   3.3057   3.3177
     3.9389   4.3950   4.4713   4.5042   4.5623   6.4506   6.4794   6.5092
     6.6133   6.6690  11.3555  13.2572  14.6763  15.4036  16.1454  16.4554

     occupation numbers 
     1.0000   1.0000   1.0000   1.0000   1.0000   1.0000   1.0000   1.0000
     1.0000   1.0000   1.0000   1.0000   1.0000   1.0000   1.0000   1.0000
     1.0000   1.0000   1.0000   1.0000   1.0000   1.0000   1.0000   1.0000
     1.0000   1.0000   0.0000   0.0000   0.0000   0.0000   0.0000   0.0000

          k = 0.2841 0.2841-0.2841 (  3614 PWs)   bands (ev):

   -81.1059 -44.6344 -44.6344 -44.6344 -15.1907 -15.0831 -15.0831  -5.6519
    -5.6519  -5.3139  -5.3115  -5.3115  -0.2374   3.1278   3.3279   3.3279
     3.9137   3.9137   4.4617   4.4617   4.5114   6.4764   6.4838   6.4838
     6.6819   6.6819  11.1532  12.8975  15.2546  15.2546  15.6266  17.6206

     occupation numbers 
     1.0000   1.0000   1.0000   1.0000   1.0000   1.0000   1.0000   1.0000
     1.0000   1.0000   1.0000   1.0000   1.0000   1.0000   1.0000   1.0000
     1.0000   1.0000   1.0000   1.0000   1.0000   1.0000   1.0000   1.0000
     1.0000   1.0000   0.0000   0.0000   0.0000   0.0000   0.0000   0.0000

          k = 0.2841 0.2841-0.1420 (  3620 PWs)   bands (ev):

   -81.1059 -44.6345 -44.6344 -44.6341 -15.2850 -15.0990 -15.0855  -5.6527
    -5.3144  -5.2773  -5.2768  -5.2586   0.3067   2.8002   3.0906   3.3613
     3.5002   3.8947   4.1547   4.3514   4.4763   6.4834   6.5336   6.5694
     6.6935   6.7255  10.7400  12.5821  14.5761  15.6899  16.4676  18.2105

     occupation numbers 
     1.0000   1.0000   1.0000   1.0000   1.0000   1.0000   1.0000   1.0000
     1.0000   1.0000   1.0000   1.0000   1.0000   1.0000   1.0000   1.0000
     1.0000   1.0000   1.0000   1.0000   1.0000   1.0000   1.0000   1.0000
     1.0000   1.0000   0.6025   0.0000   0.0000   0.0000   0.0000   0.0000

          k = 0.2841-0.4261-0.0000 (  3604 PWs)   bands (ev):

   -81.1059 -44.6345 -44.6344 -44.6340 -15.3041 -15.0941 -15.0675  -5.8150
    -5.3331  -5.2749  -5.2589  -5.1253   0.8939   1.9478   2.9997   3.5304
     3.5743   3.8811   3.9024   4.4792   4.4825   6.5142   6.5858   6.6618
     6.6952   6.7666  11.3289  12.2438  14.4988  14.7488  17.5015  18.5073

     occupation numbers 
     1.0000   1.0000   1.0000   1.0000   1.0000   1.0000   1.0000   1.0000
     1.0000   1.0000   1.0000   1.0000   1.0000   1.0000   1.0000   1.0000
     1.0000   1.0000   1.0000   1.0000   1.0000   1.0000   1.0000   1.0000
     1.0000   1.0000   0.0000   0.0000   0.0000   0.0000   0.0000   0.0000

          k = 0.2841-0.4261 0.1420 (  3606 PWs)   bands (ev):

   -81.1059 -44.6345 -44.6344 -44.6341 -15.2533 -15.0919 -15.0661  -5.8181
    -5.3322  -5.3067  -5.2933  -5.2765   0.1885   2.9051   3.0482   3.4300
     3.4351   4.0882   4.1170   4.4844   4.5005   6.5006   6.5507   6.6181
     6.6751   6.7138  11.3493  12.4988  14.5608  14.9747  16.8318  17.6639

     occupation numbers 
     1.0000   1.0000   1.0000   1.0000   1.0000   1.0000   1.0000   1.0000
     1.0000   1.0000   1.0000   1.0000   1.0000   1.0000   1.0000   1.0000
     1.0000   1.0000   1.0000   1.0000   1.0000   1.0000   1.0000   1.0000
     1.0000   1.0000   0.0000   0.0000   0.0000   0.0000   0.0000   0.0000

          k = 0.2841-0.4261 0.2841 (  3608 PWs)   bands (ev):

   -81.1059 -44.6345 -44.6344 -44.6344 -15.1535 -15.0819 -15.0631  -5.8470
    -5.6515  -5.3310  -5.3287  -5.3114  -0.4030   3.1381   3.3057   3.3177
     3.9389   4.3950   4.4713   4.5042   4.5623   6.4506   6.4794   6.5091
     6.6133   6.6690  11.3555  13.2572  14.6763  15.4036  16.1454  16.4554

     occupation numbers 
     1.0000   1.0000   1.0000   1.0000   1.0000   1.0000   1.0000   1.0000
     1.0000   1.0000   1.0000   1.0000   1.0000   1.0000   1.0000   1.0000
     1.0000   1.0000   1.0000   1.0000   1.0000   1.0000   1.0000   1.0000
     1.0000   1.0000   0.0000   0.0000   0.0000   0.0000   0.0000   0.0000

          k = 0.2841-0.4261-0.4261 (  3612 PWs)   bands (ev):

   -81.1059 -44.6345 -44.6345 -44.6344 -15.1167 -15.0617 -15.0617  -5.9328
    -5.7533  -5.3479  -5.3288  -5.3288  -0.5857   3.1647   3.2819   3.2819
     4.2582   4.4794   4.4794   4.6312   4.7663   6.3820   6.4649   6.4649
     6.6031   6.6326  11.3399  14.2566  14.6766  14.6766  16.1748  16.6626

     occupation numbers 
     1.0000   1.0000   1.0000   1.0000   1.0000   1.0000   1.0000   1.0000
     1.0000   1.0000   1.0000   1.0000   1.0000   1.0000   1.0000   1.0000
     1.0000   1.0000   1.0000   1.0000   1.0000   1.0000   1.0000   1.0000
     1.0000   1.0000   0.0000   0.0000   0.0000   0.0000   0.0000   0.0000

          k = 0.2841-0.4261-0.2841 (  3608 PWs)   bands (ev):

   -81.1059 -44.6345 -44.6344 -44.6344 -15.1535 -15.0819 -15.0631  -5.8470
    -5.6515  -5.3310  -5.3287  -5.3114  -0.4030   3.1381   3.3057   3.3177
     3.9389   4.3950   4.4713   4.5042   4.5623   6.4506   6.4794   6.5091
     6.6133   6.6690  11.3555  13.2572  14.6763  15.4036  16.1454  16.4554

     occupation numbers 
     1.0000   1.0000   1.0000   1.0000   1.0000   1.0000   1.0000   1.0000
     1.0000   1.0000   1.0000   1.0000   1.0000   1.0000   1.0000   1.0000
     1.0000   1.0000   1.0000   1.0000   1.0000   1.0000   1.0000   1.0000
     1.0000   1.0000   0.0000   0.0000   0.0000   0.0000   0.0000   0.0000

          k = 0.2841-0.4261-0.1420 (  3606 PWs)   bands (ev):

   -81.1059 -44.6345 -44.6344 -44.6341 -15.2533 -15.0919 -15.0661  -5.8181
    -5.3322  -5.3067  -5.2933  -5.2765   0.1885   2.9051   3.0482   3.4300
     3.4351   4.0882   4.1170   4.4844   4.5005   6.5006   6.5507   6.6181
     6.6751   6.7138  11.3493  12.4988  14.5608  14.9747  16.8318  17.6639

     occupation numbers 
     1.0000   1.0000   1.0000   1.0000   1.0000   1.0000   1.0000   1.0000
     1.0000   1.0000   1.0000   1.0000   1.0000   1.0000   1.0000   1.0000
     1.0000   1.0000   1.0000   1.0000   1.0000   1.0000   1.0000   1.0000
     1.0000   1.0000   0.0000   0.0000   0.0000   0.0000   0.0000   0.0000

          k = 0.2841-0.2841-0.0000 (  3604 PWs)   bands (ev):

   -81.1059 -44.6344 -44.6344 -44.6340 -15.3342 -15.1030 -15.0867  -5.6529
    -5.3151  -5.2592  -5.2590  -5.0622   0.9801   1.8915   3.0626   3.3684
     3.6212   3.9182   3.9199   4.2567   4.4734   6.4827   6.6102   6.6332
     6.6897   6.6986  10.5439  12.4914  14.3339  15.6505  17.4832  18.6240

     occupation numbers 
     1.0000   1.0000   1.0000   1.0000   1.0000   1.0000   1.0000   1.0000
     1.0000   1.0000   1.0000   1.0000   1.0000   1.0000   1.0000   1.0000
     1.0000   1.0000   1.0000   1.0000   1.0000   1.0000   1.0000   1.0000
     1.0000   1.0000   1.0007   0.0000   0.0000   0.0000   0.0000   0.0000

          k = 0.2841-0.2841 0.1420 (  3620 PWs)   bands (ev):

   -81.1059 -44.6345 -44.6344 -44.6341 -15.2850 -15.0990 -15.0855  -5.6527
    -5.3144  -5.2773  -5.2768  -5.2586   0.3067   2.8002   3.0906   3.3613
     3.5002   3.8947   4.1547   4.3514   4.4763   6.4834   6.5336   6.5694
     6.6935   6.7255  10.7400  12.5821  14.5761  15.6899  16.4676  18.2105

     occupation numbers 
     1.0000   1.0000   1.0000   1.0000   1.0000   1.0000   1.0000   1.0000
     1.0000   1.0000   1.0000   1.0000   1.0000   1.0000   1.0000   1.0000
     1.0000   1.0000   1.0000   1.0000   1.0000   1.0000   1.0000   1.0000
     1.0000   1.0000   0.6025   0.0000   0.0000   0.0000   0.0000   0.0000

          k = 0.2841-0.2841 0.2841 (  3614 PWs)   bands (ev):

   -81.1059 -44.6344 -44.6344 -44.6344 -15.1907 -15.0832 -15.0830  -5.6519
    -5.6519  -5.3139  -5.3115  -5.3115  -0.2374   3.1278   3.3277   3.3280
     3.9133   3.9141   4.4616   4.4618   4.5114   6.4764   6.4837   6.4838
     6.6819   6.6820  11.1532  12.8975  15.2543  15.2549  15.6266  17.6203

     occupation numbers 
     1.0000   1.0000   1.0000   1.0000   1.0000   1.0000   1.0000   1.0000
     1.0000   1.0000   1.0000   1.0000   1.0000   1.0000   1.0000   1.0000
     1.0000   1.0000   1.0000   1.0000   1.0000   1.0000   1.0000   1.0000
     1.0000   1.0000   0.0000   0.0000   0.0000   0.0000   0.0000   0.0000

          k = 0.2841-0.2841-0.4261 (  3608 PWs)   bands (ev):

   -81.1059 -44.6345 -44.6344 -44.6344 -15.1535 -15.0819 -15.0631  -5.8470
    -5.6515  -5.3310  -5.3287  -5.3114  -0.4030   3.1381   3.3057   3.3177
     3.9389   4.3950   4.4713   4.5042   4.5623   6.4506   6.4794   6.5092
     6.6133   6.6690  11.3555  13.2572  14.6763  15.4036  16.1454  16.4554

     occupation numbers 
     1.0000   1.0000   1.0000   1.0000   1.0000   1.0000   1.0000   1.0000
     1.0000   1.0000   1.0000   1.0000   1.0000   1.0000   1.0000   1.0000
     1.0000   1.0000   1.0000   1.0000   1.0000   1.0000   1.0000   1.0000
     1.0000   1.0000   0.0000   0.0000   0.0000   0.0000   0.0000   0.0000

          k = 0.2841-0.2841-0.2841 (  3614 PWs)   bands (ev):

   -81.1059 -44.6344 -44.6344 -44.6344 -15.1907 -15.0832 -15.0830  -5.6519
    -5.6519  -5.3139  -5.3115  -5.3115  -0.2374   3.1278   3.3275   3.3282
     3.9130   3.9145   4.4615   4.4619   4.5114   6.4764   6.4836   6.4839
     6.6819   6.6820  11.1532  12.8975  15.2540  15.2553  15.6266  17.6186

     occupation numbers 
     1.0000   1.0000   1.0000   1.0000   1.0000   1.0000   1.0000   1.0000
     1.0000   1.0000   1.0000   1.0000   1.0000   1.0000   1.0000   1.0000
     1.0000   1.0000   1.0000   1.0000   1.0000   1.0000   1.0000   1.0000
     1.0000   1.0000   0.0000   0.0000   0.0000   0.0000   0.0000   0.0000

          k = 0.2841-0.2841-0.1420 (  3620 PWs)   bands (ev):

   -81.1059 -44.6345 -44.6344 -44.6341 -15.2850 -15.0990 -15.0855  -5.6527
    -5.3144  -5.2773  -5.2768  -5.2586   0.3067   2.8002   3.0906   3.3613
     3.5002   3.8947   4.1547   4.3514   4.4763   6.4834   6.5336   6.5694
     6.6935   6.7255  10.7400  12.5821  14.5761  15.6899  16.4676  18.2105

     occupation numbers 
     1.0000   1.0000   1.0000   1.0000   1.0000   1.0000   1.0000   1.0000
     1.0000   1.0000   1.0000   1.0000   1.0000   1.0000   1.0000   1.0000
     1.0000   1.0000   1.0000   1.0000   1.0000   1.0000   1.0000   1.0000
     1.0000   1.0000   0.6025   0.0000   0.0000   0.0000   0.0000   0.0000

          k = 0.2841-0.1420-0.0000 (  3612 PWs)   bands (ev):

   -81.1059 -44.6344 -44.6342 -44.6340 -15.4077 -15.1330 -15.0956  -5.4438
    -5.2782  -5.2595  -5.2271  -4.7994   1.2850   1.7813   2.8090   3.2134
     3.7161   3.9486   4.0023   4.0340   4.2529   6.4740   6.5294   6.5440
     6.6734   6.6925   9.6927  12.0888  15.0724  16.6136  17.4787  18.8804

     occupation numbers 
     1.0000   1.0000   1.0000   1.0000   1.0000   1.0000   1.0000   1.0000
     1.0000   1.0000   1.0000   1.0000   1.0000   1.0000   1.0000   1.0000
     1.0000   1.0000   1.0000   1.0000   1.0000   1.0000   1.0000   1.0000
     1.0000   1.0000   1.0000   0.0000   0.0000   0.0000   0.0000   0.0000

          k = 0.2841-0.1420 0.1420 (  3623 PWs)   bands (ev):

   -81.1059 -44.6345 -44.6342 -44.6342 -15.3641 -15.1243 -15.0936  -5.4730
    -5.2787  -5.2771  -5.2439  -4.9980   0.7128   2.4397   2.9692   3.1877
     3.6071   3.8264   4.1201   4.1988   4.2965   6.4607   6.5094   6.5784
     6.6712   6.7129   9.9878  12.2510  15.0979  16.5050  16.5059  18.8614

     occupation numbers 
     1.0000   1.0000   1.0000   1.0000   1.0000   1.0000   1.0000   1.0000
     1.0000   1.0000   1.0000   1.0000   1.0000   1.0000   1.0000   1.0000
     1.0000   1.0000   1.0000   1.0000   1.0000   1.0000   1.0000   1.0000
     1.0000   1.0000   1.0000   0.0000   0.0000   0.0000   0.0000   0.0000

          k = 0.2841-0.1420 0.2841 (  3620 PWs)   bands (ev):

   -81.1059 -44.6345 -44.6344 -44.6341 -15.2850 -15.0990 -15.0855  -5.6527
    -5.3144  -5.2773  -5.2768  -5.2586   0.3067   2.8002   3.0905   3.3614
     3.5002   3.8947   4.1547   4.3514   4.4763   6.4834   6.5336   6.5694
     6.6935   6.7255  10.7400  12.5821  14.5761  15.6899  16.4676  18.2105

     occupation numbers 
     1.0000   1.0000   1.0000   1.0000   1.0000   1.0000   1.0000   1.0000
     1.0000   1.0000   1.0000   1.0000   1.0000   1.0000   1.0000   1.0000
     1.0000   1.0000   1.0000   1.0000   1.0000   1.0000   1.0000   1.0000
     1.0000   1.0000   0.6025   0.0000   0.0000   0.0000   0.0000   0.0000

          k = 0.2841-0.1420-0.4261 (  3606 PWs)   bands (ev):

   -81.1059 -44.6345 -44.6344 -44.6341 -15.2533 -15.0919 -15.0661  -5.8181
    -5.3322  -5.3067  -5.2933  -5.2765   0.1885   2.9050   3.0482   3.4300
     3.4351   4.0882   4.1170   4.4844   4.5004   6.5006   6.5507   6.6181
     6.6751   6.7138  11.3492  12.4988  14.5608  14.9747  16.8318  17.6639

     occupation numbers 
     1.0000   1.0000   1.0000   1.0000   1.0000   1.0000   1.0000   1.0000
     1.0000   1.0000   1.0000   1.0000   1.0000   1.0000   1.0000   1.0000
     1.0000   1.0000   1.0000   1.0000   1.0000   1.0000   1.0000   1.0000
     1.0000   1.0000   0.0000   0.0000   0.0000   0.0000   0.0000   0.0000

          k = 0.2841-0.1420-0.2841 (  3620 PWs)   bands (ev):

   -81.1059 -44.6345 -44.6344 -44.6341 -15.2850 -15.0990 -15.0855  -5.6527
    -5.3144  -5.2773  -5.2768  -5.2586   0.3067   2.8002   3.0905   3.3614
     3.5002   3.8947   4.1547   4.3514   4.4763   6.4834   6.5336   6.5694
     6.6935   6.7255  10.7400  12.5821  14.5761  15.6899  16.4676  18.2105

     occupation numbers 
     1.0000   1.0000   1.0000   1.0000   1.0000   1.0000   1.0000   1.0000
     1.0000   1.0000   1.0000   1.0000   1.0000   1.0000   1.0000   1.0000
     1.0000   1.0000   1.0000   1.0000   1.0000   1.0000   1.0000   1.0000
     1.0000   1.0000   0.6025   0.0000   0.0000   0.0000   0.0000   0.0000

          k = 0.2841-0.1420-0.1420 (  3623 PWs)   bands (ev):

   -81.1059 -44.6345 -44.6342 -44.6342 -15.3641 -15.1243 -15.0936  -5.4730
    -5.2787  -5.2771  -5.2439  -4.9980   0.7128   2.4397   2.9692   3.1877
     3.6071   3.8264   4.1201   4.1988   4.2965   6.4607   6.5094   6.5784
     6.6712   6.7129   9.9878  12.2510  15.0979  16.5049  16.5059  18.8614

     occupation numbers 
     1.0000   1.0000   1.0000   1.0000   1.0000   1.0000   1.0000   1.0000
     1.0000   1.0000   1.0000   1.0000   1.0000   1.0000   1.0000   1.0000
     1.0000   1.0000   1.0000   1.0000   1.0000   1.0000   1.0000   1.0000
     1.0000   1.0000   1.0000   0.0000   0.0000   0.0000   0.0000   0.0000

          k =-0.4261-0.0000-0.0000 (  3588 PWs)   bands (ev):

   -81.1059 -44.6346 -44.6340 -44.6340 -15.4157 -15.1427 -15.0743  -5.6340
    -5.2752  -5.2752  -5.2101  -4.5995   1.7690   1.7690   2.4275   3.0133
     3.7707   3.9320   3.9320   4.0385   4.0385   6.4677   6.4884   6.6200
     6.7642   6.7642  10.7859  10.9565  15.2550  17.6124  17.6124  19.0344

     occupation numbers 
     1.0000   1.0000   1.0000   1.0000   1.0000   1.0000   1.0000   1.0000
     1.0000   1.0000   1.0000   1.0000   1.0000   1.0000   1.0000   1.0000
     1.0000   1.0000   1.0000   1.0000   1.0000   1.0000   1.0000   1.0000
     1.0000   1.0000   0.1768   0.0000   0.0000   0.0000   0.0000   0.0000

          k =-0.4261-0.0000 0.1420 (  3614 PWs)   bands (ev):

   -81.1059 -44.6346 -44.6342 -44.6340 -15.3749 -15.1314 -15.0721  -5.6719
    -5.2948  -5.2751  -5.2267  -4.8047   1.2681   1.8273   3.0233   3.1033
     3.6362   3.9163   3.9907   4.0315   4.2377   6.5349   6.5453   6.6212
     6.6751   6.7649  10.9251  11.2944  15.2344  16.1838  17.5773  18.8505

     occupation numbers 
     1.0000   1.0000   1.0000   1.0000   1.0000   1.0000   1.0000   1.0000
     1.0000   1.0000   1.0000   1.0000   1.0000   1.0000   1.0000   1.0000
     1.0000   1.0000   1.0000   1.0000   1.0000   1.0000   1.0000   1.0000
     1.0000   1.0000   0.0000   0.0000   0.0000   0.0000   0.0000   0.0000

          k =-0.4261 0.0000 0.2841 (  3604 PWs)   bands (ev):

   -81.1059 -44.6345 -44.6344 -44.6340 -15.3041 -15.0941 -15.0675  -5.8150
    -5.3331  -5.2749  -5.2589  -5.1253   0.8939   1.9478   2.9997   3.5304
     3.5744   3.8811   3.9024   4.4792   4.4824   6.5142   6.5858   6.6618
     6.6952   6.7666  11.3289  12.2438  14.4989  14.7488  17.5015  18.5073

     occupation numbers 
     1.0000   1.0000   1.0000   1.0000   1.0000   1.0000   1.0000   1.0000
     1.0000   1.0000   1.0000   1.0000   1.0000   1.0000   1.0000   1.0000
     1.0000   1.0000   1.0000   1.0000   1.0000   1.0000   1.0000   1.0000
     1.0000   1.0000   0.0000   0.0000   0.0000   0.0000   0.0000   0.0000

          k =-0.4261-0.0000-0.4261 (  3628 PWs)   bands (ev):

   -81.1059 -44.6346 -44.6346 -44.6340 -15.2770 -15.0653 -15.0653  -5.9338
    -5.3524  -5.2749  -5.2749  -5.2289   0.7844   2.0101   2.9696   3.5874
     3.5874   3.8612   3.8612   4.5770   4.7631   6.4412   6.5859   6.7055
     6.7676   6.7676  11.6837  13.4565  13.6775  13.6775  17.4606  18.3461

     occupation numbers 
     1.0000   1.0000   1.0000   1.0000   1.0000   1.0000   1.0000   1.0000
     1.0000   1.0000   1.0000   1.0000   1.0000   1.0000   1.0000   1.0000
     1.0000   1.0000   1.0000   1.0000   1.0000   1.0000   1.0000   1.0000
     1.0000   1.0000   0.0000   0.0000   0.0000   0.0000   0.0000   0.0000

          k =-0.4261 0.1420-0.0000 (  3614 PWs)   bands (ev):

   -81.1059 -44.6346 -44.6342 -44.6340 -15.3749 -15.1314 -15.0721  -5.6719
    -5.2948  -5.2751  -5.2267  -4.8047   1.2681   1.8273   3.0233   3.1033
     3.6362   3.9163   3.9907   4.0315   4.2377   6.5349   6.5453   6.6212
     6.6751   6.7649  10.9251  11.2944  15.2344  16.1838  17.5773  18.8502

     occupation numbers 
     1.0000   1.0000   1.0000   1.0000   1.0000   1.0000   1.0000   1.0000
     1.0000   1.0000   1.0000   1.0000   1.0000   1.0000   1.0000   1.0000
     1.0000   1.0000   1.0000   1.0000   1.0000   1.0000   1.0000   1.0000
     1.0000   1.0000   0.0000   0.0000   0.0000   0.0000   0.0000   0.0000

          k =-0.4261 0.1420 0.1420 (  3608 PWs)   bands (ev):

   -81.1059 -44.6345 -44.6342 -44.6341 -15.3308 -15.1230 -15.0701  -5.6985
    -5.2954  -5.2931  -5.2434  -4.9976   0.6467   2.4957   3.0428   3.2654
     3.5238   3.9641   4.0846   4.1006   4.3069   6.4915   6.6193   6.6500
     6.6519   6.6961  11.0430  11.6054  15.3031  15.7613  16.9266  18.1056

     occupation numbers 
     1.0000   1.0000   1.0000   1.0000   1.0000   1.0000   1.0000   1.0000
     1.0000   1.0000   1.0000   1.0000   1.0000   1.0000   1.0000   1.0000
     1.0000   1.0000   1.0000   1.0000   1.0000   1.0000   1.0000   1.0000
     1.0000   1.0000   0.0000   0.0000   0.0000   0.0000   0.0000   0.0000

          k =-0.4261 0.1420 0.2841 (  3606 PWs)   bands (ev):

   -81.1059 -44.6345 -44.6344 -44.6341 -15.2533 -15.0919 -15.0661  -5.8181
    -5.3322  -5.3067  -5.2933  -5.2765   0.1885   2.9050   3.0482   3.4300
     3.4351   4.0882   4.1170   4.4844   4.5004   6.5006   6.5507   6.6181
     6.6751   6.7138  11.3493  12.4988  14.5608  14.9747  16.8318  17.6639

     occupation numbers 
     1.0000   1.0000   1.0000   1.0000   1.0000   1.0000   1.0000   1.0000
     1.0000   1.0000   1.0000   1.0000   1.0000   1.0000   1.0000   1.0000
     1.0000   1.0000   1.0000   1.0000   1.0000   1.0000   1.0000   1.0000
     1.0000   1.0000   0.0000   0.0000   0.0000   0.0000   0.0000   0.0000

          k =-0.4261 0.1420-0.4261 (  3616 PWs)   bands (ev):

   -81.1059 -44.6346 -44.6346 -44.6342 -15.2248 -15.0641 -15.0641  -5.9335
    -5.4007  -5.3508  -5.2930  -5.2930   0.0527   3.0278   3.0327   3.4258
     3.4259   4.1203   4.1203   4.5947   4.7642   6.4248   6.5924   6.6708
     6.6708   6.6816  11.5725  13.6493  13.9460  13.9460  16.9356  17.8164

     occupation numbers 
     1.0000   1.0000   1.0000   1.0000   1.0000   1.0000   1.0000   1.0000
     1.0000   1.0000   1.0000   1.0000   1.0000   1.0000   1.0000   1.0000
     1.0000   1.0000   1.0000   1.0000   1.0000   1.0000   1.0000   1.0000
     1.0000   1.0000   0.0000   0.0000   0.0000   0.0000   0.0000   0.0000

          k =-0.4261 0.1420-0.2841 (  3606 PWs)   bands (ev):

   -81.1059 -44.6345 -44.6344 -44.6341 -15.2533 -15.0919 -15.0661  -5.8181
    -5.3322  -5.3067  -5.2933  -5.2765   0.1885   2.9050   3.0482   3.4300
     3.4351   4.0882   4.1170   4.4844   4.5004   6.5006   6.5507   6.6181
     6.6751   6.7138  11.3493  12.4988  14.5608  14.9747  16.8318  17.6639

     occupation numbers 
     1.0000   1.0000   1.0000   1.0000   1.0000   1.0000   1.0000   1.0000
     1.0000   1.0000   1.0000   1.0000   1.0000   1.0000   1.0000   1.0000
     1.0000   1.0000   1.0000   1.0000   1.0000   1.0000   1.0000   1.0000
     1.0000   1.0000   0.0000   0.0000   0.0000   0.0000   0.0000   0.0000

          k =-0.4261 0.1420-0.1420 (  3608 PWs)   bands (ev):

   -81.1059 -44.6345 -44.6342 -44.6341 -15.3308 -15.1230 -15.0701  -5.6985
    -5.2954  -5.2931  -5.2434  -4.9976   0.6467   2.4957   3.0428   3.2654
     3.5238   3.9641   4.0846   4.1006   4.3069   6.4915   6.6193   6.6500
     6.6519   6.6961  11.0430  11.6054  15.3031  15.7613  16.9266  18.1056

     occupation numbers 
     1.0000   1.0000   1.0000   1.0000   1.0000   1.0000   1.0000   1.0000
     1.0000   1.0000   1.0000   1.0000   1.0000   1.0000   1.0000   1.0000
     1.0000   1.0000   1.0000   1.0000   1.0000   1.0000   1.0000   1.0000
     1.0000   1.0000   0.0000   0.0000   0.0000   0.0000   0.0000   0.0000

          k =-0.4261 0.2841 0.0000 (  3604 PWs)   bands (ev):

   -81.1059 -44.6345 -44.6344 -44.6340 -15.3041 -15.0941 -15.0675  -5.8150
    -5.3331  -5.2749  -5.2589  -5.1253   0.8939   1.9478   2.9997   3.5304
     3.5743   3.8811   3.9024   4.4792   4.4824   6.5142   6.5858   6.6618
     6.6952   6.7666  11.3289  12.2438  14.4989  14.7488  17.5015  18.5073

     occupation numbers 
     1.0000   1.0000   1.0000   1.0000   1.0000   1.0000   1.0000   1.0000
     1.0000   1.0000   1.0000   1.0000   1.0000   1.0000   1.0000   1.0000
     1.0000   1.0000   1.0000   1.0000   1.0000   1.0000   1.0000   1.0000
     1.0000   1.0000   0.0000   0.0000   0.0000   0.0000   0.0000   0.0000

          k =-0.4261 0.2841 0.1420 (  3606 PWs)   bands (ev):

   -81.1059 -44.6345 -44.6344 -44.6341 -15.2533 -15.0919 -15.0661  -5.8181
    -5.3322  -5.3067  -5.2933  -5.2765   0.1885   2.9051   3.0482   3.4300
     3.4351   4.0882   4.1170   4.4844   4.5005   6.5006   6.5507   6.6181
     6.6751   6.7138  11.3493  12.4988  14.5608  14.9747  16.8318  17.6639

     occupation numbers 
     1.0000   1.0000   1.0000   1.0000   1.0000   1.0000   1.0000   1.0000
     1.0000   1.0000   1.0000   1.0000   1.0000   1.0000   1.0000   1.0000
     1.0000   1.0000   1.0000   1.0000   1.0000   1.0000   1.0000   1.0000
     1.0000   1.0000   0.0000   0.0000   0.0000   0.0000   0.0000   0.0000

          k =-0.4261 0.2841 0.2841 (  3608 PWs)   bands (ev):

   -81.1059 -44.6345 -44.6344 -44.6344 -15.1535 -15.0819 -15.0631  -5.8470
    -5.6515  -5.3310  -5.3287  -5.3114  -0.4030   3.1381   3.3057   3.3177
     3.9389   4.3950   4.4713   4.5042   4.5623   6.4506   6.4794   6.5091
     6.6133   6.6690  11.3555  13.2572  14.6763  15.4036  16.1454  16.4554

     occupation numbers 
     1.0000   1.0000   1.0000   1.0000   1.0000   1.0000   1.0000   1.0000
     1.0000   1.0000   1.0000   1.0000   1.0000   1.0000   1.0000   1.0000
     1.0000   1.0000   1.0000   1.0000   1.0000   1.0000   1.0000   1.0000
     1.0000   1.0000   0.0000   0.0000   0.0000   0.0000   0.0000   0.0000

          k =-0.4261 0.2841-0.4261 (  3612 PWs)   bands (ev):

   -81.1059 -44.6345 -44.6345 -44.6344 -15.1167 -15.0617 -15.0617  -5.9328
    -5.7533  -5.3479  -5.3288  -5.3288  -0.5857   3.1647   3.2819   3.2819
     4.2581   4.4794   4.4794   4.6312   4.7663   6.3820   6.4649   6.4649
     6.6031   6.6326  11.3399  14.2566  14.6766  14.6766  16.1748  16.6626

     occupation numbers 
     1.0000   1.0000   1.0000   1.0000   1.0000   1.0000   1.0000   1.0000
     1.0000   1.0000   1.0000   1.0000   1.0000   1.0000   1.0000   1.0000
     1.0000   1.0000   1.0000   1.0000   1.0000   1.0000   1.0000   1.0000
     1.0000   1.0000   0.0000   0.0000   0.0000   0.0000   0.0000   0.0000

          k =-0.4261 0.2841-0.2841 (  3608 PWs)   bands (ev):

   -81.1059 -44.6345 -44.6344 -44.6344 -15.1535 -15.0819 -15.0631  -5.8470
    -5.6515  -5.3310  -5.3287  -5.3114  -0.4030   3.1381   3.3057   3.3177
     3.9389   4.3950   4.4713   4.5042   4.5623   6.4506   6.4794   6.5091
     6.6133   6.6690  11.3555  13.2572  14.6763  15.4036  16.1454  16.4554

     occupation numbers 
     1.0000   1.0000   1.0000   1.0000   1.0000   1.0000   1.0000   1.0000
     1.0000   1.0000   1.0000   1.0000   1.0000   1.0000   1.0000   1.0000
     1.0000   1.0000   1.0000   1.0000   1.0000   1.0000   1.0000   1.0000
     1.0000   1.0000   0.0000   0.0000   0.0000   0.0000   0.0000   0.0000

          k =-0.4261 0.2841-0.1420 (  3606 PWs)   bands (ev):

   -81.1059 -44.6345 -44.6344 -44.6341 -15.2533 -15.0919 -15.0661  -5.8181
    -5.3322  -5.3067  -5.2933  -5.2765   0.1885   2.9051   3.0482   3.4300
     3.4351   4.0882   4.1170   4.4844   4.5005   6.5006   6.5507   6.6181
     6.6751   6.7138  11.3493  12.4988  14.5608  14.9747  16.8318  17.6639

     occupation numbers 
     1.0000   1.0000   1.0000   1.0000   1.0000   1.0000   1.0000   1.0000
     1.0000   1.0000   1.0000   1.0000   1.0000   1.0000   1.0000   1.0000
     1.0000   1.0000   1.0000   1.0000   1.0000   1.0000   1.0000   1.0000
     1.0000   1.0000   0.0000   0.0000   0.0000   0.0000   0.0000   0.0000

          k =-0.4261-0.4261-0.0000 (  3628 PWs)   bands (ev):

   -81.1059 -44.6346 -44.6346 -44.6340 -15.2770 -15.0653 -15.0653  -5.9338
    -5.3524  -5.2749  -5.2749  -5.2289   0.7844   2.0101   2.9696   3.5874
     3.5874   3.8612   3.8612   4.5770   4.7631   6.4412   6.5859   6.7055
     6.7676   6.7676  11.6837  13.4565  13.6775  13.6775  17.4606  18.3461

     occupation numbers 
     1.0000   1.0000   1.0000   1.0000   1.0000   1.0000   1.0000   1.0000
     1.0000   1.0000   1.0000   1.0000   1.0000   1.0000   1.0000   1.0000
     1.0000   1.0000   1.0000   1.0000   1.0000   1.0000   1.0000   1.0000
     1.0000   1.0000   0.0000   0.0000   0.0000   0.0000   0.0000   0.0000

          k =-0.4261-0.4261 0.1420 (  3616 PWs)   bands (ev):

   -81.1059 -44.6346 -44.6346 -44.6342 -15.2248 -15.0641 -15.0641  -5.9335
    -5.4007  -5.3508  -5.2930  -5.2930   0.0527   3.0278   3.0327   3.4258
     3.4258   4.1203   4.1203   4.5947   4.7642   6.4248   6.5924   6.6708
     6.6708   6.6816  11.5725  13.6493  13.9460  13.9460  16.9356  17.8164

     occupation numbers 
     1.0000   1.0000   1.0000   1.0000   1.0000   1.0000   1.0000   1.0000
     1.0000   1.0000   1.0000   1.0000   1.0000   1.0000   1.0000   1.0000
     1.0000   1.0000   1.0000   1.0000   1.0000   1.0000   1.0000   1.0000
     1.0000   1.0000   0.0000   0.0000   0.0000   0.0000   0.0000   0.0000

          k =-0.4261-0.4261 0.2841 (  3612 PWs)   bands (ev):

   -81.1059 -44.6345 -44.6345 -44.6344 -15.1167 -15.0617 -15.0617  -5.9328
    -5.7533  -5.3479  -5.3288  -5.3288  -0.5857   3.1647   3.2819   3.2819
     4.2582   4.4794   4.4794   4.6312   4.7663   6.3820   6.4649   6.4649
     6.6031   6.6326  11.3399  14.2566  14.6766  14.6766  16.1748  16.6626

     occupation numbers 
     1.0000   1.0000   1.0000   1.0000   1.0000   1.0000   1.0000   1.0000
     1.0000   1.0000   1.0000   1.0000   1.0000   1.0000   1.0000   1.0000
     1.0000   1.0000   1.0000   1.0000   1.0000   1.0000   1.0000   1.0000
     1.0000   1.0000   0.0000   0.0000   0.0000   0.0000   0.0000   0.0000

          k =-0.4261-0.4261-0.4261 (  3544 PWs)   bands (ev):

   -81.1058 -44.6344 -44.6344 -44.6344 -15.0604 -15.0604 -15.0604  -5.9322
    -5.9322  -5.3462  -5.3462  -5.3462  -0.7855   3.2342   3.2342   3.2342
     4.6504   4.6504   4.6504   4.7675   4.7675   6.3507   6.3507   6.3507
     6.6076   6.6076  11.2185  15.0537  15.6330  15.6330  15.8742  15.8760

     occupation numbers 
     1.0000   1.0000   1.0000   1.0000   1.0000   1.0000   1.0000   1.0000
     1.0000   1.0000   1.0000   1.0000   1.0000   1.0000   1.0000   1.0000
     1.0000   1.0000   1.0000   1.0000   1.0000   1.0000   1.0000   1.0000
     1.0000   1.0000   0.0000   0.0000   0.0000   0.0000   0.0000   0.0000

     the Fermi energy is    10.7588 ev

!    total energy              =   -1146.34631577 Ry
     total all-electron energy =    -22995.148456 Ry
     estimated scf accuracy    <          1.9E-12 Ry
     smearing contrib. (-TS)   =      -0.00017539 Ry
     internal energy E=F+TS    =   -1146.34614038 Ry

     The total energy is F=E-TS. E is the sum of the following terms:
     one-electron contribution =    -244.32289010 Ry
     hartree contribution      =     158.20055851 Ry
     xc contribution           =    -124.13175677 Ry
     ewald contribution        =    -382.88820606 Ry
     one-center paw contrib.   =    -553.20384596 Ry
      -> PAW hartree energy AE =     235.66616342 Ry
      -> PAW hartree energy PS =    -233.16919593 Ry
      -> PAW xc energy AE      =    -297.57207116 Ry
      -> PAW xc energy PS      =      48.06434528 Ry
      -> total E_H with PAW    =     160.69752600 Ry
      -> total E_XC with PAW   =    -373.63948265 Ry

     convergence has been achieved in  13 iterations

     Forces acting on atoms (cartesian axes, Ry/au):

     atom    1 type  1   force =     0.00000570    0.00001139    0.00001710
     atom    2 type  2   force =    -0.00002898   -0.00005779   -0.00008709
     atom    3 type  3   force =     0.00000955    0.00000390    0.00003551
     atom    4 type  3   force =     0.00001179    0.00001910    0.00000584
     atom    5 type  3   force =     0.00000195    0.00002341    0.00002863
     The non-local contrib.  to forces
     atom    1 type  1   force =     0.00001984    0.00003968    0.00005950
     atom    2 type  2   force =    -0.00002797   -0.00005566   -0.00008419
     atom    3 type  3   force =    -0.00036427    0.00002811    0.00009389
     atom    4 type  3   force =     0.00003146   -0.00072843    0.00004197
     atom    5 type  3   force =     0.00001394    0.00006366   -0.00109285
     The ionic contribution  to forces
     atom    1 type  1   force =     0.00359412    0.00718312    0.01078243
     atom    2 type  2   force =    -0.00361742   -0.00722660   -0.01085737
     atom    3 type  3   force =    -0.00092478   -0.00097979    0.00432235
     atom    4 type  3   force =     0.00143893   -0.00184764   -0.00147282
     atom    5 type  3   force =    -0.00049085    0.00287090   -0.00277459
     The local contribution  to forces
     atom    1 type  1   force =    -0.00360560   -0.00720609   -0.01081684
     atom    2 type  2   force =     0.00361307    0.00721783    0.01084444
     atom    3 type  3   force =     0.00129751    0.00095588   -0.00438028
     atom    4 type  3   force =    -0.00145845    0.00259299    0.00143714
     atom    5 type  3   force =     0.00047901   -0.00291085    0.00389280
     The core correction contribution to forces
     atom    1 type  1   force =    -0.00000261   -0.00000521   -0.00000781
     atom    2 type  2   force =     0.00000338    0.00000673    0.00001017
     atom    3 type  3   force =     0.00000113   -0.00000022   -0.00000030
     atom    4 type  3   force =    -0.00000010    0.00000226   -0.00000032
     atom    5 type  3   force =    -0.00000011   -0.00000020    0.00000339
     The Hubbard contrib.    to forces
     atom    1 type  1   force =     0.00000000    0.00000000    0.00000000
     atom    2 type  2   force =     0.00000000    0.00000000    0.00000000
     atom    3 type  3   force =     0.00000000    0.00000000    0.00000000
     atom    4 type  3   force =     0.00000000    0.00000000    0.00000000
     atom    5 type  3   force =     0.00000000    0.00000000    0.00000000
     The SCF correction term to forces
     atom    1 type  1   force =    -0.00000002   -0.00000003   -0.00000004
     atom    2 type  2   force =     0.00000001    0.00000001    0.00000001
     atom    3 type  3   force =     0.00000000    0.00000001   -0.00000000
     atom    4 type  3   force =    -0.00000000    0.00000001    0.00000001
     atom    5 type  3   force =     0.00000000   -0.00000000    0.00000001

     Total force =     0.000124     Total SCF correction =     0.000000


     Computing stress (Cartesian axis) and pressure

          total   stress  (Ry/bohr**3)                   (kbar)     P=      131.17
   0.00089170  -0.00000000  -0.00000000          131.17       -0.00       -0.00
  -0.00000000   0.00089170  -0.00000000           -0.00      131.17       -0.00
  -0.00000000  -0.00000000   0.00089170           -0.00       -0.00      131.17

     kinetic stress (kbar)  42525.27      0.00      0.00
                                0.00  42525.27      0.00
                                0.00      0.00  42525.27

     local   stress (kbar) -19307.56     -0.00     -0.00
                               -0.00 -19307.53     -0.00
                               -0.00     -0.00 -19307.55

     nonloc. stress (kbar)   8535.83      0.00      0.00
                                0.00   8535.83      0.00
                                0.00      0.00   8535.83

     hartree stress (kbar)  16039.12      0.00      0.00
                                0.00  16039.11      0.00
                                0.00      0.00  16039.12

     exc-cor stress (kbar)   6943.86      0.00      0.00
                                0.00   6943.86      0.00
                                0.00      0.00   6943.86

     corecor stress (kbar) -15786.35     -0.00     -0.00
                               -0.00 -15786.35     -0.00
                               -0.00     -0.00 -15786.35

     ewald   stress (kbar) -38819.01      0.00      0.00
                                0.00 -38819.02      0.00
                                0.00      0.00 -38819.01

     hubbard stress (kbar)      0.00      0.00      0.00
                                0.00      0.00      0.00
                                0.00      0.00      0.00

     DFT-D   stress (kbar)      0.00      0.00      0.00
                                0.00      0.00      0.00
                                0.00      0.00      0.00

     XDM     stress (kbar)      0.00      0.00      0.00
                                0.00      0.00      0.00
                                0.00      0.00      0.00

     dft-nl  stress (kbar)      0.00      0.00      0.00
                                0.00      0.00      0.00
                                0.00      0.00      0.00

     TS-vdW  stress (kbar)      0.00      0.00      0.00
                                0.00      0.00      0.00
                                0.00      0.00      0.00

     MDB     stress (kbar)      0.00      0.00      0.00
                                0.00      0.00      0.00
                                0.00      0.00      0.00

     3D-RISM stress (kbar)      0.00      0.00      0.00
                                0.00      0.00      0.00
                                0.00      0.00      0.00

     Energy error            =      4.4E-02 Ry
     Gradient error          =      8.7E-05 Ry/Bohr
     Cell gradient error     =      1.3E+02 kbar

     number of scf cycles    =   3
     number of bfgs steps    =   2

     enthalpy           old  =   -1146.3024421224 Ry
     enthalpy           new  =   -1146.3463157650 Ry

     CASE: enthalpy          _new < enthalpy          _old

     new trust radius        =       0.1191670989 bohr
     new conv_thr            =            8.7E-12 Ry

     new unit-cell volume =    524.03874 a.u.^3 (    77.65453 Ang^3 )
     density =      5.98059 g/cm^3

CELL_PARAMETERS (angstrom)
   4.266341337  -0.000000054  -0.000000077
  -0.000000054   4.266341084  -0.000000154
  -0.000000077  -0.000000154   4.266341513

ATOMIC_POSITIONS (crystal)
Ag               0.0000056217        0.0000112496        0.0000168760
In               0.4999859686        0.4999719694        0.4999578865
F                0.5001114018        0.5000053613       -0.0000170651
F               -0.0000056855        0.5002227776        0.5000080896
F                0.5000026934       -0.0000113578        0.5003342130



     Writing config-only to output data dir ./output/aginf3_broken.save/ :
     XML data file
     NEW-OLD atomic charge density approx. for the potential

     Check: negative core charge=   -0.000012

     total cpu time spent up to now is     8593.6 secs

     Self-consistent Calculation

     iteration #  1     ecut=    80.00 Ry     beta= 0.30
     Davidson diagonalization with overlap

---- Real-time Memory Report at c_bands before calling an iterative solver
           112 MiB given to the printing process from OS
             0 MiB allocation reported by mallinfo(arena+hblkhd)
         57382 MiB available memory on the node where the printing process lives
------------------
     ethr =  1.00E-06,  avg # of iterations =  7.7

     total cpu time spent up to now is     9021.1 secs

     total energy              =   -1146.36580467 Ry
     estimated scf accuracy    <       0.00551767 Ry

     iteration #  2     ecut=    80.00 Ry     beta= 0.30
     Davidson diagonalization with overlap

---- Real-time Memory Report at c_bands before calling an iterative solver
           112 MiB given to the printing process from OS
             0 MiB allocation reported by mallinfo(arena+hblkhd)
         57384 MiB available memory on the node where the printing process lives
------------------
     ethr =  1.04E-05,  avg # of iterations =  4.0

     total cpu time spent up to now is     9256.0 secs

     total energy              =   -1146.36469231 Ry
     estimated scf accuracy    <       0.00069996 Ry

     iteration #  3     ecut=    80.00 Ry     beta= 0.30
     Davidson diagonalization with overlap

---- Real-time Memory Report at c_bands before calling an iterative solver
           112 MiB given to the printing process from OS
             0 MiB allocation reported by mallinfo(arena+hblkhd)
         57378 MiB available memory on the node where the printing process lives
------------------
     ethr =  1.32E-06,  avg # of iterations =  4.3

     total cpu time spent up to now is     9511.3 secs

     total energy              =   -1146.36645650 Ry
     estimated scf accuracy    <       0.00014712 Ry

     iteration #  4     ecut=    80.00 Ry     beta= 0.30
     Davidson diagonalization with overlap

---- Real-time Memory Report at c_bands before calling an iterative solver
           112 MiB given to the printing process from OS
             0 MiB allocation reported by mallinfo(arena+hblkhd)
         57379 MiB available memory on the node where the printing process lives
------------------
     ethr =  2.78E-07,  avg # of iterations =  4.1

     total cpu time spent up to now is     9757.1 secs

     total energy              =   -1146.36789394 Ry
     estimated scf accuracy    <       0.00008833 Ry

     iteration #  5     ecut=    80.00 Ry     beta= 0.30
     Davidson diagonalization with overlap

---- Real-time Memory Report at c_bands before calling an iterative solver
           112 MiB given to the printing process from OS
             0 MiB allocation reported by mallinfo(arena+hblkhd)
         57383 MiB available memory on the node where the printing process lives
------------------
     ethr =  1.67E-07,  avg # of iterations =  4.0

     total cpu time spent up to now is     9990.8 secs

     total energy              =   -1146.36881723 Ry
     estimated scf accuracy    <       0.00004809 Ry

     iteration #  6     ecut=    80.00 Ry     beta= 0.30
     Davidson diagonalization with overlap

---- Real-time Memory Report at c_bands before calling an iterative solver
           112 MiB given to the printing process from OS
             0 MiB allocation reported by mallinfo(arena+hblkhd)
         57377 MiB available memory on the node where the printing process lives
------------------
     ethr =  9.07E-08,  avg # of iterations =  5.0

     total cpu time spent up to now is    10266.9 secs

     total energy              =   -1146.36921989 Ry
     estimated scf accuracy    <       0.00000358 Ry

     iteration #  7     ecut=    80.00 Ry     beta= 0.30
     Davidson diagonalization with overlap

---- Real-time Memory Report at c_bands before calling an iterative solver
           112 MiB given to the printing process from OS
             0 MiB allocation reported by mallinfo(arena+hblkhd)
         57384 MiB available memory on the node where the printing process lives
------------------
     ethr =  6.76E-09,  avg # of iterations =  4.0

     total cpu time spent up to now is    10483.2 secs

     total energy              =   -1146.36921993 Ry
     estimated scf accuracy    <       0.00000098 Ry

     iteration #  8     ecut=    80.00 Ry     beta= 0.30
     Davidson diagonalization with overlap

---- Real-time Memory Report at c_bands before calling an iterative solver
           112 MiB given to the printing process from OS
             0 MiB allocation reported by mallinfo(arena+hblkhd)
         57381 MiB available memory on the node where the printing process lives
------------------
     ethr =  1.84E-09,  avg # of iterations =  4.0

     total cpu time spent up to now is    10707.8 secs

     total energy              =   -1146.36922110 Ry
     estimated scf accuracy    <       0.00000011 Ry

     iteration #  9     ecut=    80.00 Ry     beta= 0.30
     Davidson diagonalization with overlap

---- Real-time Memory Report at c_bands before calling an iterative solver
           112 MiB given to the printing process from OS
             0 MiB allocation reported by mallinfo(arena+hblkhd)
         57388 MiB available memory on the node where the printing process lives
------------------
     ethr =  2.06E-10,  avg # of iterations =  4.0

     total cpu time spent up to now is    10927.8 secs

     total energy              =   -1146.36922121 Ry
     estimated scf accuracy    <       0.00000001 Ry

     iteration # 10     ecut=    80.00 Ry     beta= 0.30
     Davidson diagonalization with overlap

---- Real-time Memory Report at c_bands before calling an iterative solver
           112 MiB given to the printing process from OS
             0 MiB allocation reported by mallinfo(arena+hblkhd)
         57389 MiB available memory on the node where the printing process lives
------------------
     ethr =  2.44E-11,  avg # of iterations =  4.0

     total cpu time spent up to now is    11138.4 secs

     total energy              =   -1146.36922121 Ry
     estimated scf accuracy    <          7.2E-09 Ry

     iteration # 11     ecut=    80.00 Ry     beta= 0.30
     Davidson diagonalization with overlap

---- Real-time Memory Report at c_bands before calling an iterative solver
           112 MiB given to the printing process from OS
             0 MiB allocation reported by mallinfo(arena+hblkhd)
         57394 MiB available memory on the node where the printing process lives
------------------
     ethr =  1.36E-11,  avg # of iterations =  2.0

     total cpu time spent up to now is    11277.6 secs

     total energy              =   -1146.36922121 Ry
     estimated scf accuracy    <          4.0E-10 Ry

     iteration # 12     ecut=    80.00 Ry     beta= 0.30
     Davidson diagonalization with overlap

---- Real-time Memory Report at c_bands before calling an iterative solver
           112 MiB given to the printing process from OS
             0 MiB allocation reported by mallinfo(arena+hblkhd)
         57398 MiB available memory on the node where the printing process lives
------------------
     ethr =  7.64E-13,  avg # of iterations =  3.1

     total cpu time spent up to now is    11450.4 secs

     total energy              =   -1146.36922121 Ry
     estimated scf accuracy    <          2.1E-10 Ry

     iteration # 13     ecut=    80.00 Ry     beta= 0.30
     Davidson diagonalization with overlap

---- Real-time Memory Report at c_bands before calling an iterative solver
           112 MiB given to the printing process from OS
             0 MiB allocation reported by mallinfo(arena+hblkhd)
         57394 MiB available memory on the node where the printing process lives
------------------
     ethr =  3.96E-13,  avg # of iterations =  2.0

     total cpu time spent up to now is    11591.0 secs

     total energy              =   -1146.36922121 Ry
     estimated scf accuracy    <          2.7E-11 Ry

     iteration # 14     ecut=    80.00 Ry     beta= 0.30
     Davidson diagonalization with overlap

---- Real-time Memory Report at c_bands before calling an iterative solver
           112 MiB given to the printing process from OS
             0 MiB allocation reported by mallinfo(arena+hblkhd)
         57388 MiB available memory on the node where the printing process lives
------------------
     ethr =  1.00E-13,  avg # of iterations =  2.0

     total cpu time spent up to now is    11726.5 secs

     total energy              =   -1146.36922121 Ry
     estimated scf accuracy    <          2.3E-11 Ry

     iteration # 15     ecut=    80.00 Ry     beta= 0.30
     Davidson diagonalization with overlap

---- Real-time Memory Report at c_bands before calling an iterative solver
           112 MiB given to the printing process from OS
             0 MiB allocation reported by mallinfo(arena+hblkhd)
         57394 MiB available memory on the node where the printing process lives
------------------
     ethr =  1.00E-13,  avg # of iterations =  1.0

     total cpu time spent up to now is    11819.7 secs

     End of self-consistent calculation

          k = 0.0000 0.0000 0.0000 (  3695 PWs)   bands (ev):

   -82.3177 -45.8459 -45.8459 -45.8459 -16.1965 -15.8493 -15.8493  -6.3030
    -6.3030  -6.3030  -5.8242  -5.8242   0.9731   0.9731   0.9731   3.2167
     3.2167   3.2167   3.3073   3.3073   3.3073   5.1106   5.1106   5.2673
     5.2673   5.2673   6.1702   9.9737  15.7503  15.7503  15.7503  18.1403

     occupation numbers 
     1.0000   1.0000   1.0000   1.0000   1.0000   1.0000   1.0000   1.0000
     1.0000   1.0000   1.0000   1.0000   1.0000   1.0000   1.0000   1.0000
     1.0000   1.0000   1.0000   1.0000   1.0000   1.0000   1.0000   1.0000
     1.0000   1.0000   1.0000   0.0000   0.0000   0.0000   0.0000   0.0000

          k = 0.0000 0.0000 0.1383 (  3635 PWs)   bands (ev):

   -82.3176 -45.8455 -45.8455 -45.8454 -16.1645 -15.8483 -15.8403  -6.3134
    -6.3134  -6.3024  -6.0271  -5.8239   1.0100   1.0100   1.0956   2.9511
     3.2024   3.2024   3.2215   3.2731   3.2731   5.1544   5.1958   5.2687
     5.3370   5.3370   6.7520  10.1787  14.7916  15.8029  15.8029  18.3621

     occupation numbers 
     1.0000   1.0000   1.0000   1.0000   1.0000   1.0000   1.0000   1.0000
     1.0000   1.0000   1.0000   1.0000   1.0000   1.0000   1.0000   1.0000
     1.0000   1.0000   1.0000   1.0000   1.0000   1.0000   1.0000   1.0000
     1.0000   1.0000   1.0000   0.0000   0.0000   0.0000   0.0000   0.0000

          k = 0.0000 0.0000 0.2766 (  3619 PWs)   bands (ev):

   -82.3176 -45.8455 -45.8455 -45.8455 -16.1036 -15.8464 -15.8172  -6.4104
    -6.3352  -6.3352  -6.3014  -5.8239   1.0841   1.0841   1.3399   2.5220
     3.0692   3.1581   3.1581   3.2275   3.2275   5.2429   5.2714   5.3457
     5.4683   5.4683   8.0315  10.3177  13.8086  15.9727  15.9727  17.9057

     occupation numbers 
     1.0000   1.0000   1.0000   1.0000   1.0000   1.0000   1.0000   1.0000
     1.0000   1.0000   1.0000   1.0000   1.0000   1.0000   1.0000   1.0000
     1.0000   1.0000   1.0000   1.0000   1.0000   1.0000   1.0000   1.0000
     1.0000   1.0000   1.0000   0.0000   0.0000   0.0000   0.0000   0.0000

          k =-0.0000-0.0000-0.4149 (  3588 PWs)   bands (ev):

   -82.3176 -45.8454 -45.8452 -45.8452 -16.0754 -15.8454 -15.8021  -6.5928
    -6.3459  -6.3459  -6.3008  -5.8236   1.1213   1.1213   1.4788   2.3156
     3.0006   3.1312   3.1312   3.2127   3.2127   5.2729   5.2878   5.4132
     5.5313   5.5313   9.4048   9.4650  13.8005  16.1394  16.1394  17.3374

     occupation numbers 
     1.0000   1.0000   1.0000   1.0000   1.0000   1.0000   1.0000   1.0000
     1.0000   1.0000   1.0000   1.0000   1.0000   1.0000   1.0000   1.0000
     1.0000   1.0000   1.0000   1.0000   1.0000   1.0000   1.0000   1.0000
     1.0000   1.0000   0.3253   0.0295   0.0000   0.0000   0.0000   0.0000

          k = 0.0000 0.1383 0.0000 (  3635 PWs)   bands (ev):

   -82.3176 -45.8455 -45.8455 -45.8454 -16.1645 -15.8483 -15.8403  -6.3134
    -6.3134  -6.3024  -6.0271  -5.8239   1.0100   1.0100   1.0956   2.9511
     3.2023   3.2024   3.2215   3.2731   3.2731   5.1544   5.1958   5.2687
     5.3370   5.3370   6.7520  10.1787  14.7916  15.8029  15.8029  18.3621

     occupation numbers 
     1.0000   1.0000   1.0000   1.0000   1.0000   1.0000   1.0000   1.0000
     1.0000   1.0000   1.0000   1.0000   1.0000   1.0000   1.0000   1.0000
     1.0000   1.0000   1.0000   1.0000   1.0000   1.0000   1.0000   1.0000
     1.0000   1.0000   1.0000   0.0000   0.0000   0.0000   0.0000   0.0000

          k = 0.0000 0.1383 0.1383 (  3627 PWs)   bands (ev):

   -82.3176 -45.8456 -45.8455 -45.8453 -16.1320 -15.8430 -15.8362  -6.3251
    -6.3133  -6.3129  -6.1166  -5.9298   0.7168   1.0500   1.5434   2.7406
     3.0919   3.1886   3.2286   3.2352   3.3736   5.2056   5.2147   5.3336
     5.3424   5.3867   7.2209  10.3632  14.4524  15.3533  15.8453  18.0409

     occupation numbers 
     1.0000   1.0000   1.0000   1.0000   1.0000   1.0000   1.0000   1.0000
     1.0000   1.0000   1.0000   1.0000   1.0000   1.0000   1.0000   1.0000
     1.0000   1.0000   1.0000   1.0000   1.0000   1.0000   1.0000   1.0000
     1.0000   1.0000   1.0000   0.0000   0.0000   0.0000   0.0000   0.0000

          k = 0.0000 0.1383 0.2766 (  3612 PWs)   bands (ev):

   -82.3176 -45.8456 -45.8454 -45.8454 -16.0704 -15.8392 -15.8155  -6.4513
    -6.3478  -6.3351  -6.3127  -5.9669   0.5698   1.1308   1.9989   2.4605
     2.9414   3.1423   3.1845   3.2003   3.4130   5.2786   5.3302   5.3399
     5.4538   5.4694   8.3503  10.4968  13.6533  15.1434  15.9851  17.1333

     occupation numbers 
     1.0000   1.0000   1.0000   1.0000   1.0000   1.0000   1.0000   1.0000
     1.0000   1.0000   1.0000   1.0000   1.0000   1.0000   1.0000   1.0000
     1.0000   1.0000   1.0000   1.0000   1.0000   1.0000   1.0000   1.0000
     1.0000   1.0000   1.0000   0.0000   0.0000   0.0000   0.0000   0.0000

          k =-0.0000 0.1383-0.4149 (  3614 PWs)   bands (ev):

   -82.3176 -45.8456 -45.8454 -45.8454 -16.0423 -15.8380 -15.8005  -6.6253
    -6.3593  -6.3459  -6.3125  -5.9708   0.5340   1.1716   2.2247   2.3150
     2.8707   3.1127   3.1684   3.1825   3.4037   5.3275   5.3411   5.4113
     5.4536   5.5321   9.5993   9.7259  13.7513  14.6906  16.1234  17.1919

     occupation numbers 
     1.0000   1.0000   1.0000   1.0000   1.0000   1.0000   1.0000   1.0000
     1.0000   1.0000   1.0000   1.0000   1.0000   1.0000   1.0000   1.0000
     1.0000   1.0000   1.0000   1.0000   1.0000   1.0000   1.0000   1.0000
     1.0000   1.0000   0.0000   0.0000   0.0000   0.0000   0.0000   0.0000

          k =-0.0000 0.1383-0.2766 (  3612 PWs)   bands (ev):

   -82.3176 -45.8456 -45.8454 -45.8454 -16.0704 -15.8392 -15.8155  -6.4513
    -6.3478  -6.3351  -6.3127  -5.9669   0.5698   1.1308   1.9989   2.4605
     2.9414   3.1423   3.1845   3.2003   3.4130   5.2786   5.3302   5.3399
     5.4538   5.4694   8.3503  10.4968  13.6533  15.1434  15.9851  17.1333

     occupation numbers 
     1.0000   1.0000   1.0000   1.0000   1.0000   1.0000   1.0000   1.0000
     1.0000   1.0000   1.0000   1.0000   1.0000   1.0000   1.0000   1.0000
     1.0000   1.0000   1.0000   1.0000   1.0000   1.0000   1.0000   1.0000
     1.0000   1.0000   1.0000   0.0000   0.0000   0.0000   0.0000   0.0000

          k =-0.0000 0.1383-0.1383 (  3627 PWs)   bands (ev):

   -82.3176 -45.8456 -45.8455 -45.8453 -16.1320 -15.8430 -15.8362  -6.3251
    -6.3133  -6.3129  -6.1166  -5.9298   0.7168   1.0500   1.5434   2.7406
     3.0919   3.1886   3.2286   3.2352   3.3736   5.2056   5.2147   5.3336
     5.3424   5.3867   7.2209  10.3632  14.4524  15.3533  15.8453  18.0409

     occupation numbers 
     1.0000   1.0000   1.0000   1.0000   1.0000   1.0000   1.0000   1.0000
     1.0000   1.0000   1.0000   1.0000   1.0000   1.0000   1.0000   1.0000
     1.0000   1.0000   1.0000   1.0000   1.0000   1.0000   1.0000   1.0000
     1.0000   1.0000   1.0000   0.0000   0.0000   0.0000   0.0000   0.0000

          k = 0.0000 0.2766 0.0000 (  3619 PWs)   bands (ev):

   -82.3176 -45.8455 -45.8455 -45.8455 -16.1036 -15.8464 -15.8172  -6.4104
    -6.3352  -6.3352  -6.3014  -5.8239   1.0841   1.0841   1.3399   2.5220
     3.0692   3.1581   3.1581   3.2275   3.2275   5.2429   5.2714   5.3457
     5.4683   5.4683   8.0315  10.3177  13.8086  15.9727  15.9727  17.9056

     occupation numbers 
     1.0000   1.0000   1.0000   1.0000   1.0000   1.0000   1.0000   1.0000
     1.0000   1.0000   1.0000   1.0000   1.0000   1.0000   1.0000   1.0000
     1.0000   1.0000   1.0000   1.0000   1.0000   1.0000   1.0000   1.0000
     1.0000   1.0000   1.0000   0.0000   0.0000   0.0000   0.0000   0.0000

          k = 0.0000 0.2766 0.1383 (  3612 PWs)   bands (ev):

   -82.3176 -45.8456 -45.8454 -45.8454 -16.0704 -15.8392 -15.8155  -6.4513
    -6.3478  -6.3351  -6.3127  -5.9669   0.5698   1.1308   1.9989   2.4605
     2.9414   3.1423   3.1846   3.2003   3.4130   5.2786   5.3302   5.3399
     5.4538   5.4694   8.3503  10.4967  13.6533  15.1434  15.9851  17.1333

     occupation numbers 
     1.0000   1.0000   1.0000   1.0000   1.0000   1.0000   1.0000   1.0000
     1.0000   1.0000   1.0000   1.0000   1.0000   1.0000   1.0000   1.0000
     1.0000   1.0000   1.0000   1.0000   1.0000   1.0000   1.0000   1.0000
     1.0000   1.0000   1.0000   0.0000   0.0000   0.0000   0.0000   0.0000

          k = 0.0000 0.2766 0.2766 (  3604 PWs)   bands (ev):

   -82.3176 -45.8455 -45.8454 -45.8453 -16.0091 -15.8202 -15.8094  -6.6185
    -6.3730  -6.3348  -6.3346  -6.1542   0.2304   1.2268   2.3316   2.5673
     2.8588   3.1065   3.1071   3.3284   3.5889   5.2858   5.3935   5.4176
     5.4670   5.4754   9.1841  10.8509  12.9588  14.1564  16.0355  16.9413

     occupation numbers 
     1.0000   1.0000   1.0000   1.0000   1.0000   1.0000   1.0000   1.0000
     1.0000   1.0000   1.0000   1.0000   1.0000   1.0000   1.0000   1.0000
     1.0000   1.0000   1.0000   1.0000   1.0000   1.0000   1.0000   1.0000
     1.0000   1.0000   1.0008   0.0000   0.0000   0.0000   0.0000   0.0000

          k =-0.0000 0.2766-0.4149 (  3604 PWs)   bands (ev):

   -82.3176 -45.8455 -45.8455 -45.8454 -15.9828 -15.8143 -15.7972  -6.7446
    -6.3853  -6.3457  -6.3346  -6.1996   0.1290   1.2763   2.2731   2.7499
     2.8222   3.0717   3.0868   3.4498   3.6204   5.3122   5.3745   5.4370
     5.4722   5.5340   9.9813  10.6300  13.0936  13.2204  16.0884  16.9137

     occupation numbers 
     1.0000   1.0000   1.0000   1.0000   1.0000   1.0000   1.0000   1.0000
     1.0000   1.0000   1.0000   1.0000   1.0000   1.0000   1.0000   1.0000
     1.0000   1.0000   1.0000   1.0000   1.0000   1.0000   1.0000   1.0000
     1.0000   1.0000   0.0000   0.0000   0.0000   0.0000   0.0000   0.0000

          k =-0.0000 0.2766-0.2766 (  3604 PWs)   bands (ev):

   -82.3176 -45.8455 -45.8454 -45.8453 -16.0091 -15.8202 -15.8094  -6.6185
    -6.3730  -6.3348  -6.3346  -6.1542   0.2304   1.2268   2.3316   2.5673
     2.8588   3.1067   3.1070   3.3284   3.5889   5.2858   5.3935   5.4176
     5.4670   5.4754   9.1841  10.8509  12.9588  14.1564  16.0355  16.9413

     occupation numbers 
     1.0000   1.0000   1.0000   1.0000   1.0000   1.0000   1.0000   1.0000
     1.0000   1.0000   1.0000   1.0000   1.0000   1.0000   1.0000   1.0000
     1.0000   1.0000   1.0000   1.0000   1.0000   1.0000   1.0000   1.0000
     1.0000   1.0000   1.0008   0.0000   0.0000   0.0000   0.0000   0.0000

          k = 0.0000 0.2766-0.1383 (  3612 PWs)   bands (ev):

   -82.3176 -45.8456 -45.8454 -45.8454 -16.0704 -15.8392 -15.8155  -6.4513
    -6.3478  -6.3351  -6.3127  -5.9669   0.5698   1.1308   1.9989   2.4605
     2.9414   3.1423   3.1846   3.2003   3.4130   5.2786   5.3302   5.3399
     5.4538   5.4694   8.3503  10.4967  13.6533  15.1433  15.9851  17.1333

     occupation numbers 
     1.0000   1.0000   1.0000   1.0000   1.0000   1.0000   1.0000   1.0000
     1.0000   1.0000   1.0000   1.0000   1.0000   1.0000   1.0000   1.0000
     1.0000   1.0000   1.0000   1.0000   1.0000   1.0000   1.0000   1.0000
     1.0000   1.0000   1.0000   0.0000   0.0000   0.0000   0.0000   0.0000

          k =-0.0000-0.4149-0.0000 (  3588 PWs)   bands (ev):

   -82.3176 -45.8454 -45.8452 -45.8452 -16.0754 -15.8454 -15.8021  -6.5928
    -6.3459  -6.3459  -6.3008  -5.8236   1.1213   1.1213   1.4787   2.3156
     3.0006   3.1312   3.1312   3.2127   3.2127   5.2729   5.2878   5.4132
     5.5313   5.5313   9.4048   9.4650  13.8005  16.1394  16.1394  17.3374

     occupation numbers 
     1.0000   1.0000   1.0000   1.0000   1.0000   1.0000   1.0000   1.0000
     1.0000   1.0000   1.0000   1.0000   1.0000   1.0000   1.0000   1.0000
     1.0000   1.0000   1.0000   1.0000   1.0000   1.0000   1.0000   1.0000
     1.0000   1.0000   0.3253   0.0295   0.0000   0.0000   0.0000   0.0000

          k =-0.0000-0.4149 0.1383 (  3614 PWs)   bands (ev):

   -82.3176 -45.8456 -45.8454 -45.8454 -16.0423 -15.8381 -15.8005  -6.6253
    -6.3593  -6.3459  -6.3125  -5.9708   0.5340   1.1716   2.2247   2.3150
     2.8707   3.1126   3.1684   3.1825   3.4037   5.3275   5.3411   5.4113
     5.4536   5.5321   9.5993   9.7259  13.7513  14.6906  16.1234  17.1918

     occupation numbers 
     1.0000   1.0000   1.0000   1.0000   1.0000   1.0000   1.0000   1.0000
     1.0000   1.0000   1.0000   1.0000   1.0000   1.0000   1.0000   1.0000
     1.0000   1.0000   1.0000   1.0000   1.0000   1.0000   1.0000   1.0000
     1.0000   1.0000   0.0000   0.0000   0.0000   0.0000   0.0000   0.0000

          k =-0.0000-0.4149 0.2766 (  3604 PWs)   bands (ev):

   -82.3176 -45.8455 -45.8455 -45.8454 -15.9828 -15.8143 -15.7972  -6.7446
    -6.3853  -6.3457  -6.3346  -6.1996   0.1290   1.2763   2.2731   2.7499
     2.8222   3.0717   3.0868   3.4498   3.6204   5.3122   5.3745   5.4370
     5.4722   5.5340   9.9813  10.6300  13.0936  13.2204  16.0884  16.9137

     occupation numbers 
     1.0000   1.0000   1.0000   1.0000   1.0000   1.0000   1.0000   1.0000
     1.0000   1.0000   1.0000   1.0000   1.0000   1.0000   1.0000   1.0000
     1.0000   1.0000   1.0000   1.0000   1.0000   1.0000   1.0000   1.0000
     1.0000   1.0000   0.0000   0.0000   0.0000   0.0000   0.0000   0.0000

          k =-0.0000-0.4149-0.4149 (  3628 PWs)   bands (ev):

   -82.3176 -45.8458 -45.8458 -45.8456 -15.9586 -15.7956 -15.7956  -6.8400
    -6.3986  -6.3458  -6.3458  -6.2733   0.0061   1.3308   2.2377   2.8376
     2.8376   3.0489   3.0489   3.6607   3.7057   5.2474   5.3737   5.4722
     5.5350   5.5350  10.3048  11.6221  12.3319  12.3319  16.0691  16.7806

     occupation numbers 
     1.0000   1.0000   1.0000   1.0000   1.0000   1.0000   1.0000   1.0000
     1.0000   1.0000   1.0000   1.0000   1.0000   1.0000   1.0000   1.0000
     1.0000   1.0000   1.0000   1.0000   1.0000   1.0000   1.0000   1.0000
     1.0000   1.0000   0.0000   0.0000   0.0000   0.0000   0.0000   0.0000

          k = 0.1383 0.0000 0.0000 (  3635 PWs)   bands (ev):

   -82.3176 -45.8455 -45.8455 -45.8454 -16.1645 -15.8483 -15.8403  -6.3134
    -6.3134  -6.3024  -6.0271  -5.8239   1.0100   1.0100   1.0956   2.9511
     3.2024   3.2024   3.2215   3.2731   3.2731   5.1544   5.1958   5.2687
     5.3370   5.3370   6.7520  10.1787  14.7916  15.8029  15.8029  18.3621

     occupation numbers 
     1.0000   1.0000   1.0000   1.0000   1.0000   1.0000   1.0000   1.0000
     1.0000   1.0000   1.0000   1.0000   1.0000   1.0000   1.0000   1.0000
     1.0000   1.0000   1.0000   1.0000   1.0000   1.0000   1.0000   1.0000
     1.0000   1.0000   1.0000   0.0000   0.0000   0.0000   0.0000   0.0000

          k = 0.1383 0.0000 0.1383 (  3627 PWs)   bands (ev):

   -82.3176 -45.8456 -45.8455 -45.8453 -16.1320 -15.8430 -15.8362  -6.3251
    -6.3133  -6.3129  -6.1166  -5.9298   0.7168   1.0500   1.5434   2.7406
     3.0919   3.1886   3.2285   3.2352   3.3736   5.2056   5.2147   5.3336
     5.3424   5.3867   7.2209  10.3632  14.4524  15.3533  15.8453  18.0409

     occupation numbers 
     1.0000   1.0000   1.0000   1.0000   1.0000   1.0000   1.0000   1.0000
     1.0000   1.0000   1.0000   1.0000   1.0000   1.0000   1.0000   1.0000
     1.0000   1.0000   1.0000   1.0000   1.0000   1.0000   1.0000   1.0000
     1.0000   1.0000   1.0000   0.0000   0.0000   0.0000   0.0000   0.0000

          k = 0.1383 0.0000 0.2766 (  3612 PWs)   bands (ev):

   -82.3176 -45.8456 -45.8454 -45.8454 -16.0704 -15.8392 -15.8155  -6.4513
    -6.3478  -6.3351  -6.3127  -5.9669   0.5698   1.1308   1.9989   2.4605
     2.9414   3.1423   3.1845   3.2003   3.4130   5.2786   5.3302   5.3399
     5.4538   5.4694   8.3503  10.4968  13.6533  15.1434  15.9851  17.1333

     occupation numbers 
     1.0000   1.0000   1.0000   1.0000   1.0000   1.0000   1.0000   1.0000
     1.0000   1.0000   1.0000   1.0000   1.0000   1.0000   1.0000   1.0000
     1.0000   1.0000   1.0000   1.0000   1.0000   1.0000   1.0000   1.0000
     1.0000   1.0000   1.0000   0.0000   0.0000   0.0000   0.0000   0.0000

          k = 0.1383-0.0000-0.4149 (  3614 PWs)   bands (ev):

   -82.3176 -45.8456 -45.8454 -45.8454 -16.0423 -15.8380 -15.8005  -6.6253
    -6.3593  -6.3459  -6.3125  -5.9708   0.5340   1.1716   2.2247   2.3150
     2.8707   3.1127   3.1684   3.1825   3.4037   5.3275   5.3411   5.4113
     5.4536   5.5321   9.5993   9.7259  13.7513  14.6906  16.1234  17.1917

     occupation numbers 
     1.0000   1.0000   1.0000   1.0000   1.0000   1.0000   1.0000   1.0000
     1.0000   1.0000   1.0000   1.0000   1.0000   1.0000   1.0000   1.0000
     1.0000   1.0000   1.0000   1.0000   1.0000   1.0000   1.0000   1.0000
     1.0000   1.0000   0.0000   0.0000   0.0000   0.0000   0.0000   0.0000

          k = 0.1383-0.0000-0.2766 (  3612 PWs)   bands (ev):

   -82.3176 -45.8456 -45.8454 -45.8454 -16.0704 -15.8392 -15.8155  -6.4513
    -6.3478  -6.3351  -6.3127  -5.9669   0.5698   1.1308   1.9989   2.4605
     2.9414   3.1423   3.1845   3.2003   3.4130   5.2786   5.3302   5.3399
     5.4538   5.4694   8.3503  10.4968  13.6533  15.1434  15.9851  17.1333

     occupation numbers 
     1.0000   1.0000   1.0000   1.0000   1.0000   1.0000   1.0000   1.0000
     1.0000   1.0000   1.0000   1.0000   1.0000   1.0000   1.0000   1.0000
     1.0000   1.0000   1.0000   1.0000   1.0000   1.0000   1.0000   1.0000
     1.0000   1.0000   1.0000   0.0000   0.0000   0.0000   0.0000   0.0000

          k = 0.1383-0.0000-0.1383 (  3627 PWs)   bands (ev):

   -82.3176 -45.8456 -45.8455 -45.8453 -16.1320 -15.8430 -15.8362  -6.3251
    -6.3133  -6.3129  -6.1166  -5.9298   0.7168   1.0500   1.5434   2.7406
     3.0919   3.1886   3.2285   3.2352   3.3736   5.2056   5.2147   5.3336
     5.3424   5.3867   7.2209  10.3632  14.4524  15.3533  15.8453  18.0409

     occupation numbers 
     1.0000   1.0000   1.0000   1.0000   1.0000   1.0000   1.0000   1.0000
     1.0000   1.0000   1.0000   1.0000   1.0000   1.0000   1.0000   1.0000
     1.0000   1.0000   1.0000   1.0000   1.0000   1.0000   1.0000   1.0000
     1.0000   1.0000   1.0000   0.0000   0.0000   0.0000   0.0000   0.0000

          k = 0.1383 0.1383 0.0000 (  3627 PWs)   bands (ev):

   -82.3176 -45.8456 -45.8455 -45.8453 -16.1320 -15.8430 -15.8362  -6.3251
    -6.3133  -6.3129  -6.1166  -5.9298   0.7168   1.0500   1.5434   2.7406
     3.0919   3.1886   3.2285   3.2353   3.3737   5.2056   5.2147   5.3336
     5.3424   5.3867   7.2209  10.3632  14.4524  15.3533  15.8453  18.0409

     occupation numbers 
     1.0000   1.0000   1.0000   1.0000   1.0000   1.0000   1.0000   1.0000
     1.0000   1.0000   1.0000   1.0000   1.0000   1.0000   1.0000   1.0000
     1.0000   1.0000   1.0000   1.0000   1.0000   1.0000   1.0000   1.0000
     1.0000   1.0000   1.0000   0.0000   0.0000   0.0000   0.0000   0.0000

          k = 0.1383 0.1383 0.1383 (  3620 PWs)   bands (ev):

   -82.3176 -45.8455 -45.8455 -45.8454 -16.0986 -15.8355 -15.8351  -6.3249
    -6.3246  -6.3246  -6.1164  -6.1164   0.3381   1.5864   1.5884   2.6159
     3.0229   3.0239   3.3113   3.3118   3.4201   5.2184   5.2187   5.3318
     5.4189   5.4192   7.6224  10.5249  14.6046  14.6072  15.6638  17.6669

     occupation numbers 
     1.0000   1.0000   1.0000   1.0000   1.0000   1.0000   1.0000   1.0000
     1.0000   1.0000   1.0000   1.0000   1.0000   1.0000   1.0000   1.0000
     1.0000   1.0000   1.0000   1.0000   1.0000   1.0000   1.0000   1.0000
     1.0000   1.0000   1.0000   0.0000   0.0000   0.0000   0.0000   0.0000

          k = 0.1383 0.1383 0.2766 (  3623 PWs)   bands (ev):

   -82.3176 -45.8457 -45.8455 -45.8455 -16.0355 -15.8334 -15.8141  -6.4750
    -6.3481  -6.3471  -6.3242  -6.1160   0.0754   1.6784   2.1563   2.4322
     2.8343   3.0121   3.2895   3.3414   3.4612   5.2656   5.3116   5.3697
     5.4505   5.4883   8.6369  10.6466  13.6730  15.0253  15.0418  17.2002

     occupation numbers 
     1.0000   1.0000   1.0000   1.0000   1.0000   1.0000   1.0000   1.0000
     1.0000   1.0000   1.0000   1.0000   1.0000   1.0000   1.0000   1.0000
     1.0000   1.0000   1.0000   1.0000   1.0000   1.0000   1.0000   1.0000
     1.0000   1.0000   1.0000   0.0000   0.0000   0.0000   0.0000   0.0000

          k = 0.1383 0.1383-0.4149 (  3608 PWs)   bands (ev):

   -82.3176 -45.8455 -45.8454 -45.8454 -16.0072 -15.8325 -15.7990  -6.6478
    -6.3596  -6.3582  -6.3238  -6.1157  -0.0004   1.7262   2.3269   2.4073
     2.7585   3.0788   3.2613   3.2729   3.4670   5.2913   5.4075   5.4301
     5.4332   5.4732   9.7128  10.0219  13.8005  14.2918  15.4807  16.4457

     occupation numbers 
     1.0000   1.0000   1.0000   1.0000   1.0000   1.0000   1.0000   1.0000
     1.0000   1.0000   1.0000   1.0000   1.0000   1.0000   1.0000   1.0000
     1.0000   1.0000   1.0000   1.0000   1.0000   1.0000   1.0000   1.0000
     1.0000   1.0000   0.0000   0.0000   0.0000   0.0000   0.0000   0.0000

          k = 0.1383 0.1383-0.2766 (  3623 PWs)   bands (ev):

   -82.3176 -45.8457 -45.8455 -45.8455 -16.0355 -15.8334 -15.8141  -6.4750
    -6.3481  -6.3471  -6.3242  -6.1160   0.0754   1.6784   2.1563   2.4322
     2.8343   3.0121   3.2895   3.3414   3.4612   5.2656   5.3116   5.3697
     5.4505   5.4883   8.6369  10.6466  13.6730  15.0253  15.0418  17.2002

     occupation numbers 
     1.0000   1.0000   1.0000   1.0000   1.0000   1.0000   1.0000   1.0000
     1.0000   1.0000   1.0000   1.0000   1.0000   1.0000   1.0000   1.0000
     1.0000   1.0000   1.0000   1.0000   1.0000   1.0000   1.0000   1.0000
     1.0000   1.0000   1.0000   0.0000   0.0000   0.0000   0.0000   0.0000

          k = 0.1383 0.1383-0.1383 (  3620 PWs)   bands (ev):

   -82.3176 -45.8455 -45.8455 -45.8454 -16.0986 -15.8353 -15.8353  -6.3249
    -6.3246  -6.3246  -6.1164  -6.1164   0.3381   1.5874   1.5874   2.6159
     3.0234   3.0234   3.3115   3.3115   3.4201   5.2185   5.2185   5.3318
     5.4190   5.4190   7.6224  10.5249  14.6059  14.6059  15.6638  17.6669

     occupation numbers 
     1.0000   1.0000   1.0000   1.0000   1.0000   1.0000   1.0000   1.0000
     1.0000   1.0000   1.0000   1.0000   1.0000   1.0000   1.0000   1.0000
     1.0000   1.0000   1.0000   1.0000   1.0000   1.0000   1.0000   1.0000
     1.0000   1.0000   1.0000   0.0000   0.0000   0.0000   0.0000   0.0000

          k = 0.1383 0.2766 0.0000 (  3612 PWs)   bands (ev):

   -82.3176 -45.8456 -45.8454 -45.8454 -16.0704 -15.8392 -15.8155  -6.4513
    -6.3478  -6.3351  -6.3127  -5.9669   0.5698   1.1308   1.9989   2.4605
     2.9414   3.1423   3.1845   3.2003   3.4131   5.2786   5.3302   5.3399
     5.4538   5.4694   8.3503  10.4967  13.6533  15.1434  15.9851  17.1333

     occupation numbers 
     1.0000   1.0000   1.0000   1.0000   1.0000   1.0000   1.0000   1.0000
     1.0000   1.0000   1.0000   1.0000   1.0000   1.0000   1.0000   1.0000
     1.0000   1.0000   1.0000   1.0000   1.0000   1.0000   1.0000   1.0000
     1.0000   1.0000   1.0000   0.0000   0.0000   0.0000   0.0000   0.0000

          k = 0.1383 0.2766 0.1383 (  3623 PWs)   bands (ev):

   -82.3176 -45.8457 -45.8455 -45.8455 -16.0355 -15.8334 -15.8141  -6.4750
    -6.3481  -6.3471  -6.3242  -6.1160   0.0754   1.6784   2.1563   2.4322
     2.8343   3.0121   3.2895   3.3414   3.4612   5.2656   5.3116   5.3697
     5.4505   5.4883   8.6369  10.6465  13.6730  15.0253  15.0418  17.2002

     occupation numbers 
     1.0000   1.0000   1.0000   1.0000   1.0000   1.0000   1.0000   1.0000
     1.0000   1.0000   1.0000   1.0000   1.0000   1.0000   1.0000   1.0000
     1.0000   1.0000   1.0000   1.0000   1.0000   1.0000   1.0000   1.0000
     1.0000   1.0000   1.0000   0.0000   0.0000   0.0000   0.0000   0.0000

          k = 0.1383 0.2766 0.2766 (  3620 PWs)   bands (ev):

   -82.3176 -45.8457 -45.8456 -45.8454 -15.9707 -15.8173 -15.8085  -6.6184
    -6.3726  -6.3471  -6.3470  -6.3093  -0.3179   1.9784   2.3554   2.5724
     2.7343   3.0269   3.3176   3.4458   3.6009   5.2859   5.3281   5.3616
     5.4705   5.4968   9.3802  10.9463  13.1844  14.1879  15.0089  16.6043

     occupation numbers 
     1.0000   1.0000   1.0000   1.0000   1.0000   1.0000   1.0000   1.0000
     1.0000   1.0000   1.0000   1.0000   1.0000   1.0000   1.0000   1.0000
     1.0000   1.0000   1.0000   1.0000   1.0000   1.0000   1.0000   1.0000
     1.0000   1.0000   0.5802   0.0000   0.0000   0.0000   0.0000   0.0000

          k = 0.1383 0.2766-0.4149 (  3606 PWs)   bands (ev):

   -82.3176 -45.8456 -45.8455 -45.8453 -15.9433 -15.8126 -15.7961  -6.7472
    -6.3848  -6.3583  -6.3467  -6.3446  -0.4390   2.0618   2.3167   2.6624
     2.6773   3.2215   3.2929   3.4727   3.6401   5.3010   5.3424   5.4019
     5.4555   5.4850  10.0067  10.8725  13.1595  13.4354  15.4089  16.0469

     occupation numbers 
     1.0000   1.0000   1.0000   1.0000   1.0000   1.0000   1.0000   1.0000
     1.0000   1.0000   1.0000   1.0000   1.0000   1.0000   1.0000   1.0000
     1.0000   1.0000   1.0000   1.0000   1.0000   1.0000   1.0000   1.0000
     1.0000   1.0000   0.0000   0.0000   0.0000   0.0000   0.0000   0.0000

          k = 0.1383 0.2766-0.2766 (  3620 PWs)   bands (ev):

   -82.3176 -45.8457 -45.8456 -45.8454 -15.9707 -15.8173 -15.8085  -6.6184
    -6.3726  -6.3471  -6.3469  -6.3093  -0.3179   1.9784   2.3554   2.5724
     2.7343   3.0269   3.3176   3.4458   3.6009   5.2859   5.3281   5.3616
     5.4705   5.4968   9.3802  10.9463  13.1844  14.1879  15.0089  16.6043

     occupation numbers 
     1.0000   1.0000   1.0000   1.0000   1.0000   1.0000   1.0000   1.0000
     1.0000   1.0000   1.0000   1.0000   1.0000   1.0000   1.0000   1.0000
     1.0000   1.0000   1.0000   1.0000   1.0000   1.0000   1.0000   1.0000
     1.0000   1.0000   0.5802   0.0000   0.0000   0.0000   0.0000   0.0000

          k = 0.1383 0.2766-0.1383 (  3623 PWs)   bands (ev):

   -82.3176 -45.8457 -45.8455 -45.8455 -16.0355 -15.8334 -15.8141  -6.4750
    -6.3481  -6.3471  -6.3242  -6.1160   0.0754   1.6784   2.1563   2.4322
     2.8343   3.0121   3.2895   3.3414   3.4612   5.2656   5.3116   5.3697
     5.4505   5.4883   8.6369  10.6466  13.6730  15.0253  15.0418  17.2002

     occupation numbers 
     1.0000   1.0000   1.0000   1.0000   1.0000   1.0000   1.0000   1.0000
     1.0000   1.0000   1.0000   1.0000   1.0000   1.0000   1.0000   1.0000
     1.0000   1.0000   1.0000   1.0000   1.0000   1.0000   1.0000   1.0000
     1.0000   1.0000   1.0000   0.0000   0.0000   0.0000   0.0000   0.0000

          k = 0.1383-0.4149-0.0000 (  3614 PWs)   bands (ev):

   -82.3176 -45.8456 -45.8454 -45.8454 -16.0423 -15.8381 -15.8005  -6.6253
    -6.3593  -6.3459  -6.3125  -5.9708   0.5340   1.1716   2.2247   2.3150
     2.8707   3.1126   3.1684   3.1825   3.4037   5.3275   5.3411   5.4113
     5.4536   5.5321   9.5993   9.7259  13.7513  14.6906  16.1234  17.1919

     occupation numbers 
     1.0000   1.0000   1.0000   1.0000   1.0000   1.0000   1.0000   1.0000
     1.0000   1.0000   1.0000   1.0000   1.0000   1.0000   1.0000   1.0000
     1.0000   1.0000   1.0000   1.0000   1.0000   1.0000   1.0000   1.0000
     1.0000   1.0000   0.0000   0.0000   0.0000   0.0000   0.0000   0.0000

          k = 0.1383-0.4149 0.1383 (  3608 PWs)   bands (ev):

   -82.3176 -45.8455 -45.8454 -45.8454 -16.0072 -15.8325 -15.7990  -6.6478
    -6.3596  -6.3582  -6.3238  -6.1157  -0.0004   1.7262   2.3269   2.4073
     2.7585   3.0788   3.2613   3.2729   3.4670   5.2913   5.4075   5.4301
     5.4332   5.4731   9.7128  10.0219  13.8005  14.2918  15.4807  16.4457

     occupation numbers 
     1.0000   1.0000   1.0000   1.0000   1.0000   1.0000   1.0000   1.0000
     1.0000   1.0000   1.0000   1.0000   1.0000   1.0000   1.0000   1.0000
     1.0000   1.0000   1.0000   1.0000   1.0000   1.0000   1.0000   1.0000
     1.0000   1.0000   0.0000   0.0000   0.0000   0.0000   0.0000   0.0000

          k = 0.1383-0.4149 0.2766 (  3606 PWs)   bands (ev):

   -82.3176 -45.8456 -45.8455 -45.8453 -15.9433 -15.8126 -15.7961  -6.7472
    -6.3848  -6.3583  -6.3467  -6.3447  -0.4390   2.0618   2.3167   2.6624
     2.6774   3.2215   3.2929   3.4727   3.6401   5.3010   5.3424   5.4019
     5.4555   5.4850  10.0067  10.8725  13.1595  13.4354  15.4089  16.0469

     occupation numbers 
     1.0000   1.0000   1.0000   1.0000   1.0000   1.0000   1.0000   1.0000
     1.0000   1.0000   1.0000   1.0000   1.0000   1.0000   1.0000   1.0000
     1.0000   1.0000   1.0000   1.0000   1.0000   1.0000   1.0000   1.0000
     1.0000   1.0000   0.0000   0.0000   0.0000   0.0000   0.0000   0.0000

          k = 0.1383-0.4149-0.4149 (  3616 PWs)   bands (ev):

   -82.3176 -45.8456 -45.8456 -45.8456 -15.9182 -15.7947 -15.7947  -6.8398
    -6.4134  -6.3975  -6.3581  -6.3581  -0.5759   2.1593   2.2952   2.6702
     2.6702   3.2971   3.2971   3.6617   3.7222   5.2341   5.3775   5.4510
     5.4522   5.4522  10.2190  11.8190  12.5779  12.5779  15.5347  16.2220

     occupation numbers 
     1.0000   1.0000   1.0000   1.0000   1.0000   1.0000   1.0000   1.0000
     1.0000   1.0000   1.0000   1.0000   1.0000   1.0000   1.0000   1.0000
     1.0000   1.0000   1.0000   1.0000   1.0000   1.0000   1.0000   1.0000
     1.0000   1.0000   0.0000   0.0000   0.0000   0.0000   0.0000   0.0000

          k = 0.1383-0.4149-0.2766 (  3606 PWs)   bands (ev):

   -82.3176 -45.8456 -45.8455 -45.8453 -15.9433 -15.8126 -15.7961  -6.7472
    -6.3848  -6.3583  -6.3467  -6.3447  -0.4390   2.0618   2.3167   2.6624
     2.6773   3.2215   3.2929   3.4727   3.6401   5.3010   5.3424   5.4019
     5.4555   5.4850  10.0067  10.8725  13.1595  13.4354  15.4089  16.0469

     occupation numbers 
     1.0000   1.0000   1.0000   1.0000   1.0000   1.0000   1.0000   1.0000
     1.0000   1.0000   1.0000   1.0000   1.0000   1.0000   1.0000   1.0000
     1.0000   1.0000   1.0000   1.0000   1.0000   1.0000   1.0000   1.0000
     1.0000   1.0000   0.0000   0.0000   0.0000   0.0000   0.0000   0.0000

          k = 0.1383-0.4149-0.1383 (  3608 PWs)   bands (ev):

   -82.3176 -45.8455 -45.8454 -45.8454 -16.0072 -15.8325 -15.7990  -6.6478
    -6.3596  -6.3582  -6.3238  -6.1157  -0.0004   1.7262   2.3269   2.4073
     2.7585   3.0788   3.2613   3.2729   3.4670   5.2913   5.4075   5.4301
     5.4332   5.4731   9.7128  10.0219  13.8005  14.2918  15.4807  16.4457

     occupation numbers 
     1.0000   1.0000   1.0000   1.0000   1.0000   1.0000   1.0000   1.0000
     1.0000   1.0000   1.0000   1.0000   1.0000   1.0000   1.0000   1.0000
     1.0000   1.0000   1.0000   1.0000   1.0000   1.0000   1.0000   1.0000
     1.0000   1.0000   0.0000   0.0000   0.0000   0.0000   0.0000   0.0000

          k = 0.1383-0.2766-0.0000 (  3612 PWs)   bands (ev):

   -82.3176 -45.8456 -45.8454 -45.8454 -16.0704 -15.8392 -15.8155  -6.4513
    -6.3478  -6.3351  -6.3127  -5.9669   0.5698   1.1308   1.9989   2.4605
     2.9414   3.1423   3.1845   3.2003   3.4131   5.2786   5.3302   5.3399
     5.4538   5.4694   8.3503  10.4967  13.6533  15.1434  15.9851  17.1333

     occupation numbers 
     1.0000   1.0000   1.0000   1.0000   1.0000   1.0000   1.0000   1.0000
     1.0000   1.0000   1.0000   1.0000   1.0000   1.0000   1.0000   1.0000
     1.0000   1.0000   1.0000   1.0000   1.0000   1.0000   1.0000   1.0000
     1.0000   1.0000   1.0000   0.0000   0.0000   0.0000   0.0000   0.0000

          k = 0.1383-0.2766 0.1383 (  3623 PWs)   bands (ev):

   -82.3176 -45.8457 -45.8455 -45.8455 -16.0355 -15.8334 -15.8141  -6.4750
    -6.3481  -6.3471  -6.3242  -6.1160   0.0754   1.6784   2.1563   2.4322
     2.8343   3.0121   3.2895   3.3414   3.4612   5.2656   5.3116   5.3697
     5.4505   5.4883   8.6369  10.6466  13.6730  15.0253  15.0418  17.2002

     occupation numbers 
     1.0000   1.0000   1.0000   1.0000   1.0000   1.0000   1.0000   1.0000
     1.0000   1.0000   1.0000   1.0000   1.0000   1.0000   1.0000   1.0000
     1.0000   1.0000   1.0000   1.0000   1.0000   1.0000   1.0000   1.0000
     1.0000   1.0000   1.0000   0.0000   0.0000   0.0000   0.0000   0.0000

          k = 0.1383-0.2766 0.2766 (  3620 PWs)   bands (ev):

   -82.3176 -45.8457 -45.8456 -45.8454 -15.9707 -15.8173 -15.8085  -6.6184
    -6.3726  -6.3471  -6.3469  -6.3093  -0.3179   1.9784   2.3554   2.5724
     2.7343   3.0269   3.3176   3.4458   3.6009   5.2859   5.3281   5.3616
     5.4705   5.4968   9.3802  10.9463  13.1844  14.1879  15.0089  16.6043

     occupation numbers 
     1.0000   1.0000   1.0000   1.0000   1.0000   1.0000   1.0000   1.0000
     1.0000   1.0000   1.0000   1.0000   1.0000   1.0000   1.0000   1.0000
     1.0000   1.0000   1.0000   1.0000   1.0000   1.0000   1.0000   1.0000
     1.0000   1.0000   0.5802   0.0000   0.0000   0.0000   0.0000   0.0000

          k = 0.1383-0.2766-0.4149 (  3606 PWs)   bands (ev):

   -82.3176 -45.8456 -45.8455 -45.8453 -15.9433 -15.8126 -15.7961  -6.7472
    -6.3848  -6.3583  -6.3468  -6.3446  -0.4390   2.0618   2.3167   2.6624
     2.6773   3.2215   3.2929   3.4727   3.6401   5.3010   5.3424   5.4019
     5.4555   5.4850  10.0067  10.8725  13.1595  13.4354  15.4089  16.0469

     occupation numbers 
     1.0000   1.0000   1.0000   1.0000   1.0000   1.0000   1.0000   1.0000
     1.0000   1.0000   1.0000   1.0000   1.0000   1.0000   1.0000   1.0000
     1.0000   1.0000   1.0000   1.0000   1.0000   1.0000   1.0000   1.0000
     1.0000   1.0000   0.0000   0.0000   0.0000   0.0000   0.0000   0.0000

          k = 0.1383-0.2766-0.2766 (  3620 PWs)   bands (ev):

   -82.3176 -45.8457 -45.8456 -45.8454 -15.9707 -15.8173 -15.8085  -6.6184
    -6.3726  -6.3471  -6.3469  -6.3093  -0.3179   1.9784   2.3554   2.5724
     2.7343   3.0269   3.3176   3.4458   3.6009   5.2859   5.3281   5.3616
     5.4705   5.4968   9.3802  10.9463  13.1844  14.1879  15.0089  16.6043

     occupation numbers 
     1.0000   1.0000   1.0000   1.0000   1.0000   1.0000   1.0000   1.0000
     1.0000   1.0000   1.0000   1.0000   1.0000   1.0000   1.0000   1.0000
     1.0000   1.0000   1.0000   1.0000   1.0000   1.0000   1.0000   1.0000
     1.0000   1.0000   0.5802   0.0000   0.0000   0.0000   0.0000   0.0000

          k = 0.1383-0.2766-0.1383 (  3623 PWs)   bands (ev):

   -82.3176 -45.8457 -45.8455 -45.8455 -16.0355 -15.8334 -15.8141  -6.4750
    -6.3481  -6.3471  -6.3242  -6.1160   0.0754   1.6784   2.1563   2.4322
     2.8343   3.0121   3.2895   3.3414   3.4612   5.2656   5.3116   5.3697
     5.4505   5.4883   8.6369  10.6466  13.6730  15.0253  15.0418  17.2002

     occupation numbers 
     1.0000   1.0000   1.0000   1.0000   1.0000   1.0000   1.0000   1.0000
     1.0000   1.0000   1.0000   1.0000   1.0000   1.0000   1.0000   1.0000
     1.0000   1.0000   1.0000   1.0000   1.0000   1.0000   1.0000   1.0000
     1.0000   1.0000   1.0000   0.0000   0.0000   0.0000   0.0000   0.0000

          k = 0.1383-0.1383-0.0000 (  3627 PWs)   bands (ev):

   -82.3176 -45.8456 -45.8455 -45.8453 -16.1320 -15.8430 -15.8362  -6.3251
    -6.3133  -6.3129  -6.1166  -5.9298   0.7168   1.0500   1.5434   2.7406
     3.0919   3.1886   3.2285   3.2353   3.3737   5.2056   5.2147   5.3336
     5.3424   5.3867   7.2209  10.3632  14.4524  15.3533  15.8453  18.0409

     occupation numbers 
     1.0000   1.0000   1.0000   1.0000   1.0000   1.0000   1.0000   1.0000
     1.0000   1.0000   1.0000   1.0000   1.0000   1.0000   1.0000   1.0000
     1.0000   1.0000   1.0000   1.0000   1.0000   1.0000   1.0000   1.0000
     1.0000   1.0000   1.0000   0.0000   0.0000   0.0000   0.0000   0.0000

          k = 0.1383-0.1383 0.1383 (  3620 PWs)   bands (ev):

   -82.3176 -45.8455 -45.8455 -45.8454 -16.0986 -15.8354 -15.8352  -6.3249
    -6.3246  -6.3246  -6.1164  -6.1164   0.3381   1.5871   1.5877   2.6159
     3.0232   3.0235   3.3114   3.3116   3.4201   5.2185   5.2186   5.3318
     5.4190   5.4191   7.6224  10.5249  14.6054  14.6063  15.6638  17.6669

     occupation numbers 
     1.0000   1.0000   1.0000   1.0000   1.0000   1.0000   1.0000   1.0000
     1.0000   1.0000   1.0000   1.0000   1.0000   1.0000   1.0000   1.0000
     1.0000   1.0000   1.0000   1.0000   1.0000   1.0000   1.0000   1.0000
     1.0000   1.0000   1.0000   0.0000   0.0000   0.0000   0.0000   0.0000

          k = 0.1383-0.1383 0.2766 (  3623 PWs)   bands (ev):

   -82.3176 -45.8457 -45.8455 -45.8455 -16.0355 -15.8334 -15.8141  -6.4750
    -6.3481  -6.3471  -6.3242  -6.1160   0.0754   1.6784   2.1563   2.4322
     2.8343   3.0121   3.2895   3.3414   3.4612   5.2656   5.3116   5.3697
     5.4505   5.4883   8.6369  10.6466  13.6730  15.0253  15.0418  17.2002

     occupation numbers 
     1.0000   1.0000   1.0000   1.0000   1.0000   1.0000   1.0000   1.0000
     1.0000   1.0000   1.0000   1.0000   1.0000   1.0000   1.0000   1.0000
     1.0000   1.0000   1.0000   1.0000   1.0000   1.0000   1.0000   1.0000
     1.0000   1.0000   1.0000   0.0000   0.0000   0.0000   0.0000   0.0000

          k = 0.1383-0.1383-0.4149 (  3608 PWs)   bands (ev):

   -82.3176 -45.8455 -45.8454 -45.8454 -16.0072 -15.8325 -15.7990  -6.6478
    -6.3596  -6.3582  -6.3238  -6.1157  -0.0004   1.7262   2.3269   2.4073
     2.7585   3.0788   3.2613   3.2729   3.4670   5.2913   5.4075   5.4301
     5.4332   5.4732   9.7128  10.0219  13.8005  14.2918  15.4807  16.4457

     occupation numbers 
     1.0000   1.0000   1.0000   1.0000   1.0000   1.0000   1.0000   1.0000
     1.0000   1.0000   1.0000   1.0000   1.0000   1.0000   1.0000   1.0000
     1.0000   1.0000   1.0000   1.0000   1.0000   1.0000   1.0000   1.0000
     1.0000   1.0000   0.0000   0.0000   0.0000   0.0000   0.0000   0.0000

          k = 0.1383-0.1383-0.2766 (  3623 PWs)   bands (ev):

   -82.3176 -45.8457 -45.8455 -45.8455 -16.0355 -15.8334 -15.8141  -6.4750
    -6.3481  -6.3471  -6.3242  -6.1160   0.0754   1.6784   2.1563   2.4322
     2.8343   3.0121   3.2895   3.3414   3.4612   5.2656   5.3116   5.3697
     5.4505   5.4883   8.6369  10.6466  13.6730  15.0253  15.0418  17.2002

     occupation numbers 
     1.0000   1.0000   1.0000   1.0000   1.0000   1.0000   1.0000   1.0000
     1.0000   1.0000   1.0000   1.0000   1.0000   1.0000   1.0000   1.0000
     1.0000   1.0000   1.0000   1.0000   1.0000   1.0000   1.0000   1.0000
     1.0000   1.0000   1.0000   0.0000   0.0000   0.0000   0.0000   0.0000

          k = 0.1383-0.1383-0.1383 (  3620 PWs)   bands (ev):

   -82.3176 -45.8455 -45.8455 -45.8454 -16.0986 -15.8354 -15.8352  -6.3249
    -6.3246  -6.3246  -6.1164  -6.1164   0.3381   1.5867   1.5881   2.6159
     3.0230   3.0237   3.3113   3.3117   3.4201   5.2185   5.2186   5.3318
     5.4189   5.4191   7.6224  10.5249  14.6050  14.6067  15.6638  17.6669

     occupation numbers 
     1.0000   1.0000   1.0000   1.0000   1.0000   1.0000   1.0000   1.0000
     1.0000   1.0000   1.0000   1.0000   1.0000   1.0000   1.0000   1.0000
     1.0000   1.0000   1.0000   1.0000   1.0000   1.0000   1.0000   1.0000
     1.0000   1.0000   1.0000   0.0000   0.0000   0.0000   0.0000   0.0000

          k = 0.2766 0.0000 0.0000 (  3619 PWs)   bands (ev):

   -82.3176 -45.8455 -45.8455 -45.8455 -16.1036 -15.8464 -15.8172  -6.4104
    -6.3352  -6.3352  -6.3014  -5.8239   1.0841   1.0841   1.3399   2.5220
     3.0692   3.1581   3.1581   3.2275   3.2275   5.2429   5.2714   5.3457
     5.4683   5.4683   8.0315  10.3177  13.8086  15.9727  15.9727  17.9057

     occupation numbers 
     1.0000   1.0000   1.0000   1.0000   1.0000   1.0000   1.0000   1.0000
     1.0000   1.0000   1.0000   1.0000   1.0000   1.0000   1.0000   1.0000
     1.0000   1.0000   1.0000   1.0000   1.0000   1.0000   1.0000   1.0000
     1.0000   1.0000   1.0000   0.0000   0.0000   0.0000   0.0000   0.0000

          k = 0.2766 0.0000 0.1383 (  3612 PWs)   bands (ev):

   -82.3176 -45.8456 -45.8454 -45.8454 -16.0704 -15.8392 -15.8155  -6.4513
    -6.3478  -6.3351  -6.3127  -5.9669   0.5698   1.1308   1.9989   2.4605
     2.9414   3.1423   3.1846   3.2003   3.4130   5.2786   5.3302   5.3399
     5.4538   5.4694   8.3503  10.4967  13.6533  15.1434  15.9851  17.1333

     occupation numbers 
     1.0000   1.0000   1.0000   1.0000   1.0000   1.0000   1.0000   1.0000
     1.0000   1.0000   1.0000   1.0000   1.0000   1.0000   1.0000   1.0000
     1.0000   1.0000   1.0000   1.0000   1.0000   1.0000   1.0000   1.0000
     1.0000   1.0000   1.0000   0.0000   0.0000   0.0000   0.0000   0.0000

          k = 0.2766 0.0000 0.2766 (  3604 PWs)   bands (ev):

   -82.3176 -45.8455 -45.8454 -45.8453 -16.0091 -15.8202 -15.8094  -6.6185
    -6.3730  -6.3348  -6.3346  -6.1542   0.2304   1.2268   2.3316   2.5673
     2.8588   3.1066   3.1071   3.3284   3.5889   5.2858   5.3935   5.4176
     5.4670   5.4754   9.1841  10.8509  12.9588  14.1564  16.0355  16.9413

     occupation numbers 
     1.0000   1.0000   1.0000   1.0000   1.0000   1.0000   1.0000   1.0000
     1.0000   1.0000   1.0000   1.0000   1.0000   1.0000   1.0000   1.0000
     1.0000   1.0000   1.0000   1.0000   1.0000   1.0000   1.0000   1.0000
     1.0000   1.0000   1.0008   0.0000   0.0000   0.0000   0.0000   0.0000

          k = 0.2766-0.0000-0.4149 (  3604 PWs)   bands (ev):

   -82.3176 -45.8455 -45.8455 -45.8454 -15.9828 -15.8143 -15.7972  -6.7446
    -6.3853  -6.3457  -6.3346  -6.1996   0.1290   1.2763   2.2731   2.7499
     2.8222   3.0717   3.0868   3.4498   3.6204   5.3122   5.3745   5.4370
     5.4722   5.5340   9.9813  10.6300  13.0936  13.2204  16.0884  16.9137

     occupation numbers 
     1.0000   1.0000   1.0000   1.0000   1.0000   1.0000   1.0000   1.0000
     1.0000   1.0000   1.0000   1.0000   1.0000   1.0000   1.0000   1.0000
     1.0000   1.0000   1.0000   1.0000   1.0000   1.0000   1.0000   1.0000
     1.0000   1.0000   0.0000   0.0000   0.0000   0.0000   0.0000   0.0000

          k = 0.2766-0.0000-0.2766 (  3604 PWs)   bands (ev):

   -82.3176 -45.8455 -45.8454 -45.8453 -16.0091 -15.8202 -15.8094  -6.6185
    -6.3730  -6.3348  -6.3346  -6.1542   0.2304   1.2268   2.3316   2.5673
     2.8588   3.1067   3.1070   3.3284   3.5889   5.2858   5.3935   5.4176
     5.4670   5.4754   9.1841  10.8509  12.9588  14.1564  16.0355  16.9413

     occupation numbers 
     1.0000   1.0000   1.0000   1.0000   1.0000   1.0000   1.0000   1.0000
     1.0000   1.0000   1.0000   1.0000   1.0000   1.0000   1.0000   1.0000
     1.0000   1.0000   1.0000   1.0000   1.0000   1.0000   1.0000   1.0000
     1.0000   1.0000   1.0008   0.0000   0.0000   0.0000   0.0000   0.0000

          k = 0.2766-0.0000-0.1383 (  3612 PWs)   bands (ev):

   -82.3176 -45.8456 -45.8454 -45.8454 -16.0704 -15.8392 -15.8155  -6.4513
    -6.3478  -6.3351  -6.3127  -5.9669   0.5698   1.1308   1.9989   2.4605
     2.9414   3.1423   3.1846   3.2003   3.4130   5.2786   5.3302   5.3399
     5.4538   5.4694   8.3503  10.4967  13.6533  15.1434  15.9851  17.1333

     occupation numbers 
     1.0000   1.0000   1.0000   1.0000   1.0000   1.0000   1.0000   1.0000
     1.0000   1.0000   1.0000   1.0000   1.0000   1.0000   1.0000   1.0000
     1.0000   1.0000   1.0000   1.0000   1.0000   1.0000   1.0000   1.0000
     1.0000   1.0000   1.0000   0.0000   0.0000   0.0000   0.0000   0.0000

          k = 0.2766 0.1383 0.0000 (  3612 PWs)   bands (ev):

   -82.3176 -45.8456 -45.8454 -45.8454 -16.0704 -15.8392 -15.8155  -6.4513
    -6.3478  -6.3351  -6.3127  -5.9669   0.5698   1.1308   1.9989   2.4605
     2.9414   3.1423   3.1845   3.2003   3.4131   5.2786   5.3302   5.3399
     5.4538   5.4694   8.3503  10.4967  13.6533  15.1434  15.9851  17.1333

     occupation numbers 
     1.0000   1.0000   1.0000   1.0000   1.0000   1.0000   1.0000   1.0000
     1.0000   1.0000   1.0000   1.0000   1.0000   1.0000   1.0000   1.0000
     1.0000   1.0000   1.0000   1.0000   1.0000   1.0000   1.0000   1.0000
     1.0000   1.0000   1.0000   0.0000   0.0000   0.0000   0.0000   0.0000

          k = 0.2766 0.1383 0.1383 (  3623 PWs)   bands (ev):

   -82.3176 -45.8457 -45.8455 -45.8455 -16.0355 -15.8334 -15.8141  -6.4750
    -6.3481  -6.3471  -6.3242  -6.1160   0.0754   1.6784   2.1563   2.4322
     2.8343   3.0121   3.2895   3.3414   3.4612   5.2656   5.3116   5.3697
     5.4505   5.4883   8.6369  10.6466  13.6730  15.0253  15.0418  17.2002

     occupation numbers 
     1.0000   1.0000   1.0000   1.0000   1.0000   1.0000   1.0000   1.0000
     1.0000   1.0000   1.0000   1.0000   1.0000   1.0000   1.0000   1.0000
     1.0000   1.0000   1.0000   1.0000   1.0000   1.0000   1.0000   1.0000
     1.0000   1.0000   1.0000   0.0000   0.0000   0.0000   0.0000   0.0000

          k = 0.2766 0.1383 0.2766 (  3620 PWs)   bands (ev):

   -82.3176 -45.8457 -45.8456 -45.8454 -15.9707 -15.8173 -15.8085  -6.6184
    -6.3726  -6.3471  -6.3470  -6.3093  -0.3179   1.9784   2.3554   2.5724
     2.7343   3.0269   3.3176   3.4458   3.6009   5.2859   5.3281   5.3616
     5.4705   5.4968   9.3802  10.9463  13.1844  14.1879  15.0089  16.6043

     occupation numbers 
     1.0000   1.0000   1.0000   1.0000   1.0000   1.0000   1.0000   1.0000
     1.0000   1.0000   1.0000   1.0000   1.0000   1.0000   1.0000   1.0000
     1.0000   1.0000   1.0000   1.0000   1.0000   1.0000   1.0000   1.0000
     1.0000   1.0000   0.5802   0.0000   0.0000   0.0000   0.0000   0.0000

          k = 0.2766 0.1383-0.4149 (  3606 PWs)   bands (ev):

   -82.3176 -45.8456 -45.8455 -45.8453 -15.9433 -15.8126 -15.7961  -6.7472
    -6.3848  -6.3583  -6.3467  -6.3446  -0.4390   2.0618   2.3167   2.6624
     2.6773   3.2215   3.2929   3.4727   3.6401   5.3010   5.3424   5.4019
     5.4555   5.4850  10.0067  10.8725  13.1595  13.4354  15.4089  16.0469

     occupation numbers 
     1.0000   1.0000   1.0000   1.0000   1.0000   1.0000   1.0000   1.0000
     1.0000   1.0000   1.0000   1.0000   1.0000   1.0000   1.0000   1.0000
     1.0000   1.0000   1.0000   1.0000   1.0000   1.0000   1.0000   1.0000
     1.0000   1.0000   0.0000   0.0000   0.0000   0.0000   0.0000   0.0000

          k = 0.2766 0.1383-0.2766 (  3620 PWs)   bands (ev):

   -82.3176 -45.8457 -45.8456 -45.8454 -15.9707 -15.8173 -15.8085  -6.6184
    -6.3726  -6.3471  -6.3469  -6.3093  -0.3179   1.9784   2.3554   2.5724
     2.7343   3.0269   3.3176   3.4458   3.6009   5.2859   5.3281   5.3616
     5.4705   5.4968   9.3802  10.9463  13.1844  14.1879  15.0089  16.6043

     occupation numbers 
     1.0000   1.0000   1.0000   1.0000   1.0000   1.0000   1.0000   1.0000
     1.0000   1.0000   1.0000   1.0000   1.0000   1.0000   1.0000   1.0000
     1.0000   1.0000   1.0000   1.0000   1.0000   1.0000   1.0000   1.0000
     1.0000   1.0000   0.5802   0.0000   0.0000   0.0000   0.0000   0.0000

          k = 0.2766 0.1383-0.1383 (  3623 PWs)   bands (ev):

   -82.3176 -45.8457 -45.8455 -45.8455 -16.0355 -15.8334 -15.8141  -6.4750
    -6.3481  -6.3471  -6.3242  -6.1160   0.0754   1.6785   2.1563   2.4322
     2.8343   3.0121   3.2895   3.3414   3.4612   5.2656   5.3116   5.3697
     5.4505   5.4883   8.6369  10.6466  13.6730  15.0253  15.0418  17.2002

     occupation numbers 
     1.0000   1.0000   1.0000   1.0000   1.0000   1.0000   1.0000   1.0000
     1.0000   1.0000   1.0000   1.0000   1.0000   1.0000   1.0000   1.0000
     1.0000   1.0000   1.0000   1.0000   1.0000   1.0000   1.0000   1.0000
     1.0000   1.0000   1.0000   0.0000   0.0000   0.0000   0.0000   0.0000

          k = 0.2766 0.2766 0.0000 (  3604 PWs)   bands (ev):

   -82.3176 -45.8455 -45.8454 -45.8453 -16.0091 -15.8202 -15.8094  -6.6185
    -6.3730  -6.3348  -6.3346  -6.1542   0.2304   1.2268   2.3317   2.5673
     2.8588   3.1066   3.1070   3.3284   3.5889   5.2858   5.3935   5.4176
     5.4670   5.4754   9.1841  10.8509  12.9588  14.1564  16.0355  16.9413

     occupation numbers 
     1.0000   1.0000   1.0000   1.0000   1.0000   1.0000   1.0000   1.0000
     1.0000   1.0000   1.0000   1.0000   1.0000   1.0000   1.0000   1.0000
     1.0000   1.0000   1.0000   1.0000   1.0000   1.0000   1.0000   1.0000
     1.0000   1.0000   1.0008   0.0000   0.0000   0.0000   0.0000   0.0000

          k = 0.2766 0.2766 0.1383 (  3620 PWs)   bands (ev):

   -82.3176 -45.8457 -45.8456 -45.8454 -15.9707 -15.8173 -15.8085  -6.6184
    -6.3726  -6.3471  -6.3470  -6.3093  -0.3179   1.9784   2.3554   2.5724
     2.7343   3.0269   3.3176   3.4458   3.6009   5.2859   5.3281   5.3616
     5.4705   5.4968   9.3802  10.9463  13.1844  14.1879  15.0089  16.6043

     occupation numbers 
     1.0000   1.0000   1.0000   1.0000   1.0000   1.0000   1.0000   1.0000
     1.0000   1.0000   1.0000   1.0000   1.0000   1.0000   1.0000   1.0000
     1.0000   1.0000   1.0000   1.0000   1.0000   1.0000   1.0000   1.0000
     1.0000   1.0000   0.5802   0.0000   0.0000   0.0000   0.0000   0.0000

          k = 0.2766 0.2766 0.2766 (  3614 PWs)   bands (ev):

   -82.3176 -45.8456 -45.8456 -45.8455 -15.8965 -15.8069 -15.8065  -6.6179
    -6.6179  -6.3722  -6.3707  -6.3707  -0.8085   2.3890   2.5616   2.5626
     2.9764   2.9785   3.5591   3.5597   3.6532   5.2814   5.2856   5.2859
     5.4572   5.4572   9.8123  11.2600  13.8204  13.8221  14.0848  16.0326

     occupation numbers 
     1.0000   1.0000   1.0000   1.0000   1.0000   1.0000   1.0000   1.0000
     1.0000   1.0000   1.0000   1.0000   1.0000   1.0000   1.0000   1.0000
     1.0000   1.0000   1.0000   1.0000   1.0000   1.0000   1.0000   1.0000
     1.0000   1.0000   0.0000   0.0000   0.0000   0.0000   0.0000   0.0000

          k = 0.2766 0.2766-0.4149 (  3608 PWs)   bands (ev):

   -82.3176 -45.8456 -45.8455 -45.8455 -15.8655 -15.8058 -15.7939  -6.7706
    -6.6176  -6.3840  -6.3826  -6.3706  -0.9646   2.3959   2.5484   2.5599
     2.9757   3.4377   3.5444   3.5823   3.6965   5.2586   5.2830   5.3119
     5.3934   5.4433  10.0356  11.5955  13.2666  13.8340  14.7270  14.8658

     occupation numbers 
     1.0000   1.0000   1.0000   1.0000   1.0000   1.0000   1.0000   1.0000
     1.0000   1.0000   1.0000   1.0000   1.0000   1.0000   1.0000   1.0000
     1.0000   1.0000   1.0000   1.0000   1.0000   1.0000   1.0000   1.0000
     1.0000   1.0000   0.0000   0.0000   0.0000   0.0000   0.0000   0.0000

          k = 0.2766 0.2766-0.2766 (  3614 PWs)   bands (ev):

   -82.3176 -45.8456 -45.8456 -45.8455 -15.8965 -15.8067 -15.8067  -6.6179
    -6.6179  -6.3722  -6.3707  -6.3707  -0.8085   2.3890   2.5621   2.5621
     2.9774   2.9774   3.5594   3.5594   3.6532   5.2814   5.2857   5.2857
     5.4572   5.4572   9.8123  11.2600  13.8212  13.8212  14.0848  16.0353

     occupation numbers 
     1.0000   1.0000   1.0000   1.0000   1.0000   1.0000   1.0000   1.0000
     1.0000   1.0000   1.0000   1.0000   1.0000   1.0000   1.0000   1.0000
     1.0000   1.0000   1.0000   1.0000   1.0000   1.0000   1.0000   1.0000
     1.0000   1.0000   0.0000   0.0000   0.0000   0.0000   0.0000   0.0000

          k = 0.2766 0.2766-0.1383 (  3620 PWs)   bands (ev):

   -82.3176 -45.8457 -45.8456 -45.8454 -15.9707 -15.8173 -15.8085  -6.6184
    -6.3726  -6.3471  -6.3469  -6.3093  -0.3179   1.9784   2.3554   2.5724
     2.7343   3.0269   3.3176   3.4458   3.6009   5.2859   5.3281   5.3616
     5.4705   5.4968   9.3802  10.9463  13.1844  14.1879  15.0089  16.6043

     occupation numbers 
     1.0000   1.0000   1.0000   1.0000   1.0000   1.0000   1.0000   1.0000
     1.0000   1.0000   1.0000   1.0000   1.0000   1.0000   1.0000   1.0000
     1.0000   1.0000   1.0000   1.0000   1.0000   1.0000   1.0000   1.0000
     1.0000   1.0000   0.5802   0.0000   0.0000   0.0000   0.0000   0.0000

          k = 0.2766-0.4149-0.0000 (  3604 PWs)   bands (ev):

   -82.3176 -45.8455 -45.8455 -45.8454 -15.9828 -15.8143 -15.7972  -6.7446
    -6.3853  -6.3457  -6.3346  -6.1996   0.1290   1.2763   2.2731   2.7499
     2.8222   3.0717   3.0868   3.4498   3.6205   5.3122   5.3745   5.4370
     5.4722   5.5340   9.9813  10.6300  13.0936  13.2204  16.0884  16.9137

     occupation numbers 
     1.0000   1.0000   1.0000   1.0000   1.0000   1.0000   1.0000   1.0000
     1.0000   1.0000   1.0000   1.0000   1.0000   1.0000   1.0000   1.0000
     1.0000   1.0000   1.0000   1.0000   1.0000   1.0000   1.0000   1.0000
     1.0000   1.0000   0.0000   0.0000   0.0000   0.0000   0.0000   0.0000

          k = 0.2766-0.4149 0.1383 (  3606 PWs)   bands (ev):

   -82.3176 -45.8456 -45.8455 -45.8453 -15.9433 -15.8126 -15.7961  -6.7472
    -6.3848  -6.3583  -6.3467  -6.3447  -0.4390   2.0619   2.3167   2.6624
     2.6773   3.2215   3.2929   3.4726   3.6401   5.3010   5.3424   5.4019
     5.4555   5.4850  10.0067  10.8725  13.1595  13.4354  15.4089  16.0469

     occupation numbers 
     1.0000   1.0000   1.0000   1.0000   1.0000   1.0000   1.0000   1.0000
     1.0000   1.0000   1.0000   1.0000   1.0000   1.0000   1.0000   1.0000
     1.0000   1.0000   1.0000   1.0000   1.0000   1.0000   1.0000   1.0000
     1.0000   1.0000   0.0000   0.0000   0.0000   0.0000   0.0000   0.0000

          k = 0.2766-0.4149 0.2766 (  3608 PWs)   bands (ev):

   -82.3176 -45.8456 -45.8455 -45.8455 -15.8655 -15.8058 -15.7939  -6.7706
    -6.6176  -6.3840  -6.3826  -6.3706  -0.9646   2.3959   2.5484   2.5599
     2.9758   3.4377   3.5444   3.5823   3.6965   5.2586   5.2830   5.3119
     5.3934   5.4433  10.0356  11.5955  13.2666  13.8340  14.7270  14.8658

     occupation numbers 
     1.0000   1.0000   1.0000   1.0000   1.0000   1.0000   1.0000   1.0000
     1.0000   1.0000   1.0000   1.0000   1.0000   1.0000   1.0000   1.0000
     1.0000   1.0000   1.0000   1.0000   1.0000   1.0000   1.0000   1.0000
     1.0000   1.0000   0.0000   0.0000   0.0000   0.0000   0.0000   0.0000

          k = 0.2766-0.4149-0.4149 (  3612 PWs)   bands (ev):

   -82.3176 -45.8457 -45.8456 -45.8456 -15.8349 -15.7929 -15.7929  -6.8394
    -6.6967  -6.3956  -6.3826  -6.3826  -1.1339   2.4153   2.5265   2.5265
     3.2219   3.6211   3.6212   3.6636   3.7563   5.1988   5.2738   5.2738
     5.3830   5.4073  10.0380  12.4286  13.2521  13.2521  14.7666  15.0333

     occupation numbers 
     1.0000   1.0000   1.0000   1.0000   1.0000   1.0000   1.0000   1.0000
     1.0000   1.0000   1.0000   1.0000   1.0000   1.0000   1.0000   1.0000
     1.0000   1.0000   1.0000   1.0000   1.0000   1.0000   1.0000   1.0000
     1.0000   1.0000   0.0000   0.0000   0.0000   0.0000   0.0000   0.0000

          k = 0.2766-0.4149-0.2766 (  3608 PWs)   bands (ev):

   -82.3176 -45.8456 -45.8455 -45.8455 -15.8655 -15.8058 -15.7939  -6.7706
    -6.6176  -6.3840  -6.3826  -6.3706  -0.9646   2.3959   2.5484   2.5599
     2.9758   3.4377   3.5444   3.5823   3.6965   5.2586   5.2830   5.3119
     5.3934   5.4433  10.0356  11.5955  13.2666  13.8340  14.7270  14.8658

     occupation numbers 
     1.0000   1.0000   1.0000   1.0000   1.0000   1.0000   1.0000   1.0000
     1.0000   1.0000   1.0000   1.0000   1.0000   1.0000   1.0000   1.0000
     1.0000   1.0000   1.0000   1.0000   1.0000   1.0000   1.0000   1.0000
     1.0000   1.0000   0.0000   0.0000   0.0000   0.0000   0.0000   0.0000

          k = 0.2766-0.4149-0.1383 (  3606 PWs)   bands (ev):

   -82.3176 -45.8456 -45.8455 -45.8453 -15.9433 -15.8126 -15.7961  -6.7472
    -6.3848  -6.3583  -6.3467  -6.3447  -0.4390   2.0619   2.3167   2.6624
     2.6773   3.2215   3.2929   3.4726   3.6401   5.3010   5.3424   5.4019
     5.4555   5.4850  10.0067  10.8725  13.1595  13.4354  15.4089  16.0469

     occupation numbers 
     1.0000   1.0000   1.0000   1.0000   1.0000   1.0000   1.0000   1.0000
     1.0000   1.0000   1.0000   1.0000   1.0000   1.0000   1.0000   1.0000
     1.0000   1.0000   1.0000   1.0000   1.0000   1.0000   1.0000   1.0000
     1.0000   1.0000   0.0000   0.0000   0.0000   0.0000   0.0000   0.0000

          k = 0.2766-0.2766-0.0000 (  3604 PWs)   bands (ev):

   -82.3176 -45.8455 -45.8454 -45.8453 -16.0091 -15.8202 -15.8094  -6.6185
    -6.3730  -6.3348  -6.3346  -6.1542   0.2304   1.2268   2.3317   2.5673
     2.8588   3.1067   3.1070   3.3284   3.5889   5.2858   5.3935   5.4176
     5.4670   5.4754   9.1841  10.8509  12.9588  14.1564  16.0355  16.9413

     occupation numbers 
     1.0000   1.0000   1.0000   1.0000   1.0000   1.0000   1.0000   1.0000
     1.0000   1.0000   1.0000   1.0000   1.0000   1.0000   1.0000   1.0000
     1.0000   1.0000   1.0000   1.0000   1.0000   1.0000   1.0000   1.0000
     1.0000   1.0000   1.0008   0.0000   0.0000   0.0000   0.0000   0.0000

          k = 0.2766-0.2766 0.1383 (  3620 PWs)   bands (ev):

   -82.3176 -45.8457 -45.8456 -45.8454 -15.9707 -15.8173 -15.8085  -6.6184
    -6.3726  -6.3471  -6.3469  -6.3093  -0.3179   1.9784   2.3554   2.5724
     2.7343   3.0269   3.3176   3.4458   3.6009   5.2859   5.3281   5.3616
     5.4705   5.4968   9.3802  10.9463  13.1844  14.1879  15.0089  16.6043

     occupation numbers 
     1.0000   1.0000   1.0000   1.0000   1.0000   1.0000   1.0000   1.0000
     1.0000   1.0000   1.0000   1.0000   1.0000   1.0000   1.0000   1.0000
     1.0000   1.0000   1.0000   1.0000   1.0000   1.0000   1.0000   1.0000
     1.0000   1.0000   0.5802   0.0000   0.0000   0.0000   0.0000   0.0000

          k = 0.2766-0.2766 0.2766 (  3614 PWs)   bands (ev):

   -82.3176 -45.8456 -45.8456 -45.8455 -15.8965 -15.8067 -15.8066  -6.6179
    -6.6179  -6.3722  -6.3707  -6.3707  -0.8085   2.3890   2.5619   2.5623
     2.9771   2.9778   3.5593   3.5595   3.6532   5.2814   5.2857   5.2858
     5.4572   5.4572   9.8123  11.2600  13.8209  13.8215  14.0848  16.0350

     occupation numbers 
     1.0000   1.0000   1.0000   1.0000   1.0000   1.0000   1.0000   1.0000
     1.0000   1.0000   1.0000   1.0000   1.0000   1.0000   1.0000   1.0000
     1.0000   1.0000   1.0000   1.0000   1.0000   1.0000   1.0000   1.0000
     1.0000   1.0000   0.0000   0.0000   0.0000   0.0000   0.0000   0.0000

          k = 0.2766-0.2766-0.4149 (  3608 PWs)   bands (ev):

   -82.3176 -45.8456 -45.8455 -45.8455 -15.8655 -15.8058 -15.7939  -6.7706
    -6.6176  -6.3840  -6.3826  -6.3706  -0.9646   2.3959   2.5484   2.5599
     2.9757   3.4377   3.5444   3.5823   3.6965   5.2586   5.2830   5.3119
     5.3934   5.4433  10.0356  11.5955  13.2666  13.8340  14.7270  14.8658

     occupation numbers 
     1.0000   1.0000   1.0000   1.0000   1.0000   1.0000   1.0000   1.0000
     1.0000   1.0000   1.0000   1.0000   1.0000   1.0000   1.0000   1.0000
     1.0000   1.0000   1.0000   1.0000   1.0000   1.0000   1.0000   1.0000
     1.0000   1.0000   0.0000   0.0000   0.0000   0.0000   0.0000   0.0000

          k = 0.2766-0.2766-0.2766 (  3614 PWs)   bands (ev):

   -82.3176 -45.8456 -45.8456 -45.8455 -15.8965 -15.8068 -15.8066  -6.6179
    -6.6179  -6.3722  -6.3707  -6.3707  -0.8085   2.3890   2.5617   2.5624
     2.9768   2.9781   3.5592   3.5596   3.6532   5.2814   5.2856   5.2858
     5.4572   5.4572   9.8123  11.2600  13.8207  13.8218  14.0848  16.0335

     occupation numbers 
     1.0000   1.0000   1.0000   1.0000   1.0000   1.0000   1.0000   1.0000
     1.0000   1.0000   1.0000   1.0000   1.0000   1.0000   1.0000   1.0000
     1.0000   1.0000   1.0000   1.0000   1.0000   1.0000   1.0000   1.0000
     1.0000   1.0000   0.0000   0.0000   0.0000   0.0000   0.0000   0.0000

          k = 0.2766-0.2766-0.1383 (  3620 PWs)   bands (ev):

   -82.3176 -45.8457 -45.8456 -45.8454 -15.9707 -15.8173 -15.8085  -6.6184
    -6.3726  -6.3471  -6.3469  -6.3093  -0.3179   1.9784   2.3554   2.5724
     2.7343   3.0269   3.3176   3.4458   3.6009   5.2859   5.3281   5.3616
     5.4705   5.4968   9.3802  10.9463  13.1844  14.1879  15.0089  16.6043

     occupation numbers 
     1.0000   1.0000   1.0000   1.0000   1.0000   1.0000   1.0000   1.0000
     1.0000   1.0000   1.0000   1.0000   1.0000   1.0000   1.0000   1.0000
     1.0000   1.0000   1.0000   1.0000   1.0000   1.0000   1.0000   1.0000
     1.0000   1.0000   0.5802   0.0000   0.0000   0.0000   0.0000   0.0000

          k = 0.2766-0.1383 0.0000 (  3612 PWs)   bands (ev):

   -82.3176 -45.8456 -45.8454 -45.8454 -16.0704 -15.8392 -15.8155  -6.4513
    -6.3478  -6.3351  -6.3127  -5.9669   0.5698   1.1308   1.9989   2.4605
     2.9414   3.1423   3.1845   3.2003   3.4131   5.2786   5.3302   5.3399
     5.4538   5.4694   8.3503  10.4967  13.6533  15.1434  15.9851  17.1333

     occupation numbers 
     1.0000   1.0000   1.0000   1.0000   1.0000   1.0000   1.0000   1.0000
     1.0000   1.0000   1.0000   1.0000   1.0000   1.0000   1.0000   1.0000
     1.0000   1.0000   1.0000   1.0000   1.0000   1.0000   1.0000   1.0000
     1.0000   1.0000   1.0000   0.0000   0.0000   0.0000   0.0000   0.0000

          k = 0.2766-0.1383 0.1383 (  3623 PWs)   bands (ev):

   -82.3176 -45.8457 -45.8455 -45.8455 -16.0355 -15.8334 -15.8141  -6.4750
    -6.3481  -6.3471  -6.3242  -6.1160   0.0754   1.6784   2.1563   2.4322
     2.8343   3.0121   3.2895   3.3414   3.4612   5.2656   5.3116   5.3697
     5.4505   5.4883   8.6369  10.6466  13.6730  15.0253  15.0418  17.2002

     occupation numbers 
     1.0000   1.0000   1.0000   1.0000   1.0000   1.0000   1.0000   1.0000
     1.0000   1.0000   1.0000   1.0000   1.0000   1.0000   1.0000   1.0000
     1.0000   1.0000   1.0000   1.0000   1.0000   1.0000   1.0000   1.0000
     1.0000   1.0000   1.0000   0.0000   0.0000   0.0000   0.0000   0.0000

          k = 0.2766-0.1383 0.2766 (  3620 PWs)   bands (ev):

   -82.3176 -45.8457 -45.8456 -45.8454 -15.9707 -15.8173 -15.8085  -6.6184
    -6.3726  -6.3471  -6.3470  -6.3093  -0.3179   1.9784   2.3554   2.5724
     2.7343   3.0269   3.3176   3.4458   3.6009   5.2859   5.3281   5.3616
     5.4705   5.4968   9.3802  10.9463  13.1844  14.1879  15.0089  16.6043

     occupation numbers 
     1.0000   1.0000   1.0000   1.0000   1.0000   1.0000   1.0000   1.0000
     1.0000   1.0000   1.0000   1.0000   1.0000   1.0000   1.0000   1.0000
     1.0000   1.0000   1.0000   1.0000   1.0000   1.0000   1.0000   1.0000
     1.0000   1.0000   0.5802   0.0000   0.0000   0.0000   0.0000   0.0000

          k = 0.2766-0.1383-0.4149 (  3606 PWs)   bands (ev):

   -82.3176 -45.8456 -45.8455 -45.8453 -15.9433 -15.8126 -15.7961  -6.7472
    -6.3848  -6.3583  -6.3467  -6.3446  -0.4390   2.0618   2.3167   2.6624
     2.6773   3.2215   3.2929   3.4727   3.6401   5.3010   5.3424   5.4019
     5.4555   5.4850  10.0067  10.8725  13.1595  13.4354  15.4089  16.0469

     occupation numbers 
     1.0000   1.0000   1.0000   1.0000   1.0000   1.0000   1.0000   1.0000
     1.0000   1.0000   1.0000   1.0000   1.0000   1.0000   1.0000   1.0000
     1.0000   1.0000   1.0000   1.0000   1.0000   1.0000   1.0000   1.0000
     1.0000   1.0000   0.0000   0.0000   0.0000   0.0000   0.0000   0.0000

          k = 0.2766-0.1383-0.2766 (  3620 PWs)   bands (ev):

   -82.3176 -45.8457 -45.8456 -45.8454 -15.9707 -15.8173 -15.8085  -6.6184
    -6.3726  -6.3471  -6.3470  -6.3093  -0.3179   1.9784   2.3554   2.5724
     2.7343   3.0269   3.3176   3.4458   3.6009   5.2859   5.3281   5.3616
     5.4705   5.4968   9.3802  10.9463  13.1844  14.1879  15.0089  16.6043

     occupation numbers 
     1.0000   1.0000   1.0000   1.0000   1.0000   1.0000   1.0000   1.0000
     1.0000   1.0000   1.0000   1.0000   1.0000   1.0000   1.0000   1.0000
     1.0000   1.0000   1.0000   1.0000   1.0000   1.0000   1.0000   1.0000
     1.0000   1.0000   0.5802   0.0000   0.0000   0.0000   0.0000   0.0000

          k = 0.2766-0.1383-0.1383 (  3623 PWs)   bands (ev):

   -82.3176 -45.8457 -45.8455 -45.8455 -16.0355 -15.8334 -15.8141  -6.4750
    -6.3481  -6.3471  -6.3242  -6.1160   0.0754   1.6784   2.1563   2.4322
     2.8343   3.0121   3.2895   3.3414   3.4612   5.2656   5.3116   5.3697
     5.4505   5.4883   8.6369  10.6466  13.6730  15.0253  15.0418  17.2002

     occupation numbers 
     1.0000   1.0000   1.0000   1.0000   1.0000   1.0000   1.0000   1.0000
     1.0000   1.0000   1.0000   1.0000   1.0000   1.0000   1.0000   1.0000
     1.0000   1.0000   1.0000   1.0000   1.0000   1.0000   1.0000   1.0000
     1.0000   1.0000   1.0000   0.0000   0.0000   0.0000   0.0000   0.0000

          k =-0.4149-0.0000-0.0000 (  3588 PWs)   bands (ev):

   -82.3176 -45.8454 -45.8452 -45.8452 -16.0754 -15.8454 -15.8021  -6.5928
    -6.3459  -6.3459  -6.3008  -5.8236   1.1213   1.1213   1.4787   2.3156
     3.0006   3.1312   3.1312   3.2127   3.2127   5.2729   5.2878   5.4132
     5.5313   5.5313   9.4048   9.4650  13.8005  16.1394  16.1394  17.3374

     occupation numbers 
     1.0000   1.0000   1.0000   1.0000   1.0000   1.0000   1.0000   1.0000
     1.0000   1.0000   1.0000   1.0000   1.0000   1.0000   1.0000   1.0000
     1.0000   1.0000   1.0000   1.0000   1.0000   1.0000   1.0000   1.0000
     1.0000   1.0000   0.3253   0.0295   0.0000   0.0000   0.0000   0.0000

          k =-0.4149-0.0000 0.1383 (  3614 PWs)   bands (ev):

   -82.3176 -45.8456 -45.8454 -45.8454 -16.0423 -15.8380 -15.8005  -6.6253
    -6.3593  -6.3459  -6.3125  -5.9708   0.5340   1.1716   2.2247   2.3150
     2.8707   3.1126   3.1684   3.1825   3.4037   5.3275   5.3411   5.4113
     5.4536   5.5321   9.5993   9.7259  13.7513  14.6906  16.1234  17.1919

     occupation numbers 
     1.0000   1.0000   1.0000   1.0000   1.0000   1.0000   1.0000   1.0000
     1.0000   1.0000   1.0000   1.0000   1.0000   1.0000   1.0000   1.0000
     1.0000   1.0000   1.0000   1.0000   1.0000   1.0000   1.0000   1.0000
     1.0000   1.0000   0.0000   0.0000   0.0000   0.0000   0.0000   0.0000

          k =-0.4149 0.0000 0.2766 (  3604 PWs)   bands (ev):

   -82.3176 -45.8455 -45.8455 -45.8454 -15.9828 -15.8143 -15.7972  -6.7446
    -6.3853  -6.3457  -6.3346  -6.1996   0.1290   1.2763   2.2731   2.7499
     2.8222   3.0717   3.0868   3.4498   3.6204   5.3122   5.3745   5.4370
     5.4722   5.5340   9.9813  10.6300  13.0936  13.2204  16.0884  16.9137

     occupation numbers 
     1.0000   1.0000   1.0000   1.0000   1.0000   1.0000   1.0000   1.0000
     1.0000   1.0000   1.0000   1.0000   1.0000   1.0000   1.0000   1.0000
     1.0000   1.0000   1.0000   1.0000   1.0000   1.0000   1.0000   1.0000
     1.0000   1.0000   0.0000   0.0000   0.0000   0.0000   0.0000   0.0000

          k =-0.4149-0.0000-0.4149 (  3628 PWs)   bands (ev):

   -82.3176 -45.8458 -45.8458 -45.8456 -15.9586 -15.7956 -15.7956  -6.8400
    -6.3986  -6.3458  -6.3458  -6.2733   0.0061   1.3308   2.2378   2.8376
     2.8376   3.0489   3.0489   3.6607   3.7057   5.2474   5.3737   5.4722
     5.5350   5.5350  10.3048  11.6221  12.3319  12.3319  16.0691  16.7806

     occupation numbers 
     1.0000   1.0000   1.0000   1.0000   1.0000   1.0000   1.0000   1.0000
     1.0000   1.0000   1.0000   1.0000   1.0000   1.0000   1.0000   1.0000
     1.0000   1.0000   1.0000   1.0000   1.0000   1.0000   1.0000   1.0000
     1.0000   1.0000   0.0000   0.0000   0.0000   0.0000   0.0000   0.0000

          k =-0.4149 0.1383-0.0000 (  3614 PWs)   bands (ev):

   -82.3176 -45.8456 -45.8454 -45.8454 -16.0423 -15.8380 -15.8005  -6.6253
    -6.3593  -6.3459  -6.3125  -5.9708   0.5340   1.1716   2.2247   2.3150
     2.8707   3.1126   3.1684   3.1825   3.4037   5.3275   5.3411   5.4113
     5.4536   5.5321   9.5993   9.7259  13.7513  14.6906  16.1234  17.1914

     occupation numbers 
     1.0000   1.0000   1.0000   1.0000   1.0000   1.0000   1.0000   1.0000
     1.0000   1.0000   1.0000   1.0000   1.0000   1.0000   1.0000   1.0000
     1.0000   1.0000   1.0000   1.0000   1.0000   1.0000   1.0000   1.0000
     1.0000   1.0000   0.0000   0.0000   0.0000   0.0000   0.0000   0.0000

          k =-0.4149 0.1383 0.1383 (  3608 PWs)   bands (ev):

   -82.3176 -45.8455 -45.8454 -45.8454 -16.0072 -15.8325 -15.7990  -6.6478
    -6.3596  -6.3582  -6.3238  -6.1157  -0.0004   1.7262   2.3269   2.4073
     2.7585   3.0788   3.2613   3.2729   3.4670   5.2913   5.4075   5.4301
     5.4332   5.4731   9.7128  10.0219  13.8005  14.2918  15.4808  16.4457

     occupation numbers 
     1.0000   1.0000   1.0000   1.0000   1.0000   1.0000   1.0000   1.0000
     1.0000   1.0000   1.0000   1.0000   1.0000   1.0000   1.0000   1.0000
     1.0000   1.0000   1.0000   1.0000   1.0000   1.0000   1.0000   1.0000
     1.0000   1.0000   0.0000   0.0000   0.0000   0.0000   0.0000   0.0000

          k =-0.4149 0.1383 0.2766 (  3606 PWs)   bands (ev):

   -82.3176 -45.8456 -45.8455 -45.8453 -15.9433 -15.8126 -15.7961  -6.7472
    -6.3848  -6.3583  -6.3468  -6.3446  -0.4390   2.0618   2.3167   2.6624
     2.6773   3.2215   3.2929   3.4727   3.6401   5.3010   5.3424   5.4019
     5.4555   5.4850  10.0067  10.8725  13.1595  13.4354  15.4089  16.0469

     occupation numbers 
     1.0000   1.0000   1.0000   1.0000   1.0000   1.0000   1.0000   1.0000
     1.0000   1.0000   1.0000   1.0000   1.0000   1.0000   1.0000   1.0000
     1.0000   1.0000   1.0000   1.0000   1.0000   1.0000   1.0000   1.0000
     1.0000   1.0000   0.0000   0.0000   0.0000   0.0000   0.0000   0.0000

          k =-0.4149 0.1383-0.4149 (  3616 PWs)   bands (ev):

   -82.3176 -45.8456 -45.8456 -45.8456 -15.9182 -15.7947 -15.7947  -6.8398
    -6.4134  -6.3975  -6.3581  -6.3581  -0.5759   2.1593   2.2952   2.6702
     2.6702   3.2971   3.2971   3.6617   3.7222   5.2341   5.3775   5.4510
     5.4522   5.4522  10.2190  11.8191  12.5779  12.5779  15.5347  16.2220

     occupation numbers 
     1.0000   1.0000   1.0000   1.0000   1.0000   1.0000   1.0000   1.0000
     1.0000   1.0000   1.0000   1.0000   1.0000   1.0000   1.0000   1.0000
     1.0000   1.0000   1.0000   1.0000   1.0000   1.0000   1.0000   1.0000
     1.0000   1.0000   0.0000   0.0000   0.0000   0.0000   0.0000   0.0000

          k =-0.4149 0.1383-0.2766 (  3606 PWs)   bands (ev):

   -82.3176 -45.8456 -45.8455 -45.8453 -15.9433 -15.8126 -15.7961  -6.7472
    -6.3848  -6.3583  -6.3468  -6.3446  -0.4390   2.0618   2.3167   2.6624
     2.6773   3.2215   3.2929   3.4727   3.6401   5.3010   5.3424   5.4019
     5.4555   5.4850  10.0067  10.8725  13.1595  13.4354  15.4089  16.0469

     occupation numbers 
     1.0000   1.0000   1.0000   1.0000   1.0000   1.0000   1.0000   1.0000
     1.0000   1.0000   1.0000   1.0000   1.0000   1.0000   1.0000   1.0000
     1.0000   1.0000   1.0000   1.0000   1.0000   1.0000   1.0000   1.0000
     1.0000   1.0000   0.0000   0.0000   0.0000   0.0000   0.0000   0.0000

          k =-0.4149 0.1383-0.1383 (  3608 PWs)   bands (ev):

   -82.3176 -45.8455 -45.8454 -45.8454 -16.0072 -15.8325 -15.7990  -6.6478
    -6.3596  -6.3582  -6.3238  -6.1157  -0.0004   1.7262   2.3269   2.4073
     2.7585   3.0788   3.2613   3.2729   3.4670   5.2913   5.4075   5.4301
     5.4332   5.4731   9.7128  10.0219  13.8005  14.2918  15.4808  16.4457

     occupation numbers 
     1.0000   1.0000   1.0000   1.0000   1.0000   1.0000   1.0000   1.0000
     1.0000   1.0000   1.0000   1.0000   1.0000   1.0000   1.0000   1.0000
     1.0000   1.0000   1.0000   1.0000   1.0000   1.0000   1.0000   1.0000
     1.0000   1.0000   0.0000   0.0000   0.0000   0.0000   0.0000   0.0000

          k =-0.4149 0.2766 0.0000 (  3604 PWs)   bands (ev):

   -82.3176 -45.8455 -45.8455 -45.8454 -15.9828 -15.8143 -15.7972  -6.7446
    -6.3853  -6.3457  -6.3346  -6.1996   0.1290   1.2763   2.2731   2.7499
     2.8222   3.0717   3.0868   3.4498   3.6205   5.3122   5.3745   5.4370
     5.4722   5.5340   9.9813  10.6300  13.0936  13.2204  16.0884  16.9137

     occupation numbers 
     1.0000   1.0000   1.0000   1.0000   1.0000   1.0000   1.0000   1.0000
     1.0000   1.0000   1.0000   1.0000   1.0000   1.0000   1.0000   1.0000
     1.0000   1.0000   1.0000   1.0000   1.0000   1.0000   1.0000   1.0000
     1.0000   1.0000   0.0000   0.0000   0.0000   0.0000   0.0000   0.0000

          k =-0.4149 0.2766 0.1383 (  3606 PWs)   bands (ev):

   -82.3176 -45.8456 -45.8455 -45.8453 -15.9433 -15.8126 -15.7961  -6.7472
    -6.3848  -6.3583  -6.3467  -6.3446  -0.4390   2.0619   2.3167   2.6624
     2.6773   3.2215   3.2929   3.4727   3.6401   5.3010   5.3424   5.4019
     5.4555   5.4850  10.0067  10.8725  13.1595  13.4354  15.4089  16.0469

     occupation numbers 
     1.0000   1.0000   1.0000   1.0000   1.0000   1.0000   1.0000   1.0000
     1.0000   1.0000   1.0000   1.0000   1.0000   1.0000   1.0000   1.0000
     1.0000   1.0000   1.0000   1.0000   1.0000   1.0000   1.0000   1.0000
     1.0000   1.0000   0.0000   0.0000   0.0000   0.0000   0.0000   0.0000

          k =-0.4149 0.2766 0.2766 (  3608 PWs)   bands (ev):

   -82.3176 -45.8456 -45.8455 -45.8455 -15.8655 -15.8058 -15.7939  -6.7706
    -6.6176  -6.3840  -6.3826  -6.3706  -0.9646   2.3959   2.5484   2.5599
     2.9757   3.4377   3.5444   3.5823   3.6965   5.2586   5.2830   5.3119
     5.3934   5.4433  10.0356  11.5955  13.2666  13.8340  14.7270  14.8658

     occupation numbers 
     1.0000   1.0000   1.0000   1.0000   1.0000   1.0000   1.0000   1.0000
     1.0000   1.0000   1.0000   1.0000   1.0000   1.0000   1.0000   1.0000
     1.0000   1.0000   1.0000   1.0000   1.0000   1.0000   1.0000   1.0000
     1.0000   1.0000   0.0000   0.0000   0.0000   0.0000   0.0000   0.0000

          k =-0.4149 0.2766-0.4149 (  3612 PWs)   bands (ev):

   -82.3176 -45.8457 -45.8456 -45.8456 -15.8349 -15.7929 -15.7929  -6.8394
    -6.6967  -6.3956  -6.3826  -6.3826  -1.1339   2.4153   2.5265   2.5265
     3.2219   3.6212   3.6212   3.6636   3.7563   5.1988   5.2738   5.2738
     5.3830   5.4073  10.0380  12.4286  13.2521  13.2521  14.7666  15.0333

     occupation numbers 
     1.0000   1.0000   1.0000   1.0000   1.0000   1.0000   1.0000   1.0000
     1.0000   1.0000   1.0000   1.0000   1.0000   1.0000   1.0000   1.0000
     1.0000   1.0000   1.0000   1.0000   1.0000   1.0000   1.0000   1.0000
     1.0000   1.0000   0.0000   0.0000   0.0000   0.0000   0.0000   0.0000

          k =-0.4149 0.2766-0.2766 (  3608 PWs)   bands (ev):

   -82.3176 -45.8456 -45.8455 -45.8455 -15.8655 -15.8058 -15.7939  -6.7706
    -6.6176  -6.3840  -6.3826  -6.3706  -0.9646   2.3959   2.5484   2.5599
     2.9758   3.4377   3.5444   3.5823   3.6965   5.2586   5.2830   5.3119
     5.3934   5.4433  10.0356  11.5955  13.2666  13.8340  14.7270  14.8658

     occupation numbers 
     1.0000   1.0000   1.0000   1.0000   1.0000   1.0000   1.0000   1.0000
     1.0000   1.0000   1.0000   1.0000   1.0000   1.0000   1.0000   1.0000
     1.0000   1.0000   1.0000   1.0000   1.0000   1.0000   1.0000   1.0000
     1.0000   1.0000   0.0000   0.0000   0.0000   0.0000   0.0000   0.0000

          k =-0.4149 0.2766-0.1383 (  3606 PWs)   bands (ev):

   -82.3176 -45.8456 -45.8455 -45.8453 -15.9433 -15.8126 -15.7961  -6.7472
    -6.3848  -6.3583  -6.3468  -6.3446  -0.4390   2.0619   2.3167   2.6624
     2.6773   3.2215   3.2929   3.4727   3.6401   5.3010   5.3424   5.4019
     5.4555   5.4850  10.0067  10.8725  13.1595  13.4354  15.4089  16.0469

     occupation numbers 
     1.0000   1.0000   1.0000   1.0000   1.0000   1.0000   1.0000   1.0000
     1.0000   1.0000   1.0000   1.0000   1.0000   1.0000   1.0000   1.0000
     1.0000   1.0000   1.0000   1.0000   1.0000   1.0000   1.0000   1.0000
     1.0000   1.0000   0.0000   0.0000   0.0000   0.0000   0.0000   0.0000

          k =-0.4149-0.4149-0.0000 (  3628 PWs)   bands (ev):

   -82.3176 -45.8458 -45.8458 -45.8456 -15.9586 -15.7956 -15.7956  -6.8400
    -6.3986  -6.3458  -6.3458  -6.2733   0.0061   1.3308   2.2378   2.8376
     2.8376   3.0489   3.0489   3.6607   3.7057   5.2474   5.3737   5.4722
     5.5350   5.5350  10.3048  11.6221  12.3319  12.3319  16.0691  16.7806

     occupation numbers 
     1.0000   1.0000   1.0000   1.0000   1.0000   1.0000   1.0000   1.0000
     1.0000   1.0000   1.0000   1.0000   1.0000   1.0000   1.0000   1.0000
     1.0000   1.0000   1.0000   1.0000   1.0000   1.0000   1.0000   1.0000
     1.0000   1.0000   0.0000   0.0000   0.0000   0.0000   0.0000   0.0000

          k =-0.4149-0.4149 0.1383 (  3616 PWs)   bands (ev):

   -82.3176 -45.8456 -45.8456 -45.8456 -15.9182 -15.7947 -15.7947  -6.8398
    -6.4134  -6.3975  -6.3581  -6.3581  -0.5759   2.1594   2.2952   2.6702
     2.6702   3.2971   3.2971   3.6617   3.7222   5.2341   5.3775   5.4510
     5.4522   5.4522  10.2190  11.8190  12.5779  12.5779  15.5347  16.2220

     occupation numbers 
     1.0000   1.0000   1.0000   1.0000   1.0000   1.0000   1.0000   1.0000
     1.0000   1.0000   1.0000   1.0000   1.0000   1.0000   1.0000   1.0000
     1.0000   1.0000   1.0000   1.0000   1.0000   1.0000   1.0000   1.0000
     1.0000   1.0000   0.0000   0.0000   0.0000   0.0000   0.0000   0.0000

          k =-0.4149-0.4149 0.2766 (  3612 PWs)   bands (ev):

   -82.3176 -45.8457 -45.8456 -45.8456 -15.8349 -15.7929 -15.7929  -6.8394
    -6.6967  -6.3956  -6.3826  -6.3826  -1.1339   2.4153   2.5265   2.5265
     3.2219   3.6211   3.6211   3.6636   3.7563   5.1988   5.2738   5.2738
     5.3830   5.4073  10.0380  12.4286  13.2521  13.2521  14.7666  15.0334

     occupation numbers 
     1.0000   1.0000   1.0000   1.0000   1.0000   1.0000   1.0000   1.0000
     1.0000   1.0000   1.0000   1.0000   1.0000   1.0000   1.0000   1.0000
     1.0000   1.0000   1.0000   1.0000   1.0000   1.0000   1.0000   1.0000
     1.0000   1.0000   0.0000   0.0000   0.0000   0.0000   0.0000   0.0000

          k =-0.4149-0.4149-0.4149 (  3544 PWs)   bands (ev):

   -82.3175 -45.8450 -45.8450 -45.8450 -15.7919 -15.7919 -15.7919  -6.8388
    -6.8388  -6.3944  -6.3944  -6.3944  -1.3157   2.4784   2.4784   2.4784
     3.6647   3.6647   3.7742   3.7742   3.7742   5.1732   5.1732   5.1732
     5.3850   5.3850   9.9427  13.1317  14.0854  14.0854  14.0854  14.4654

     occupation numbers 
     1.0000   1.0000   1.0000   1.0000   1.0000   1.0000   1.0000   1.0000
     1.0000   1.0000   1.0000   1.0000   1.0000   1.0000   1.0000   1.0000
     1.0000   1.0000   1.0000   1.0000   1.0000   1.0000   1.0000   1.0000
     1.0000   1.0000   0.0000   0.0000   0.0000   0.0000   0.0000   0.0000

     the Fermi energy is     9.3970 ev

!    total energy              =   -1146.36922121 Ry
     total all-electron energy =    -22995.171361 Ry
     estimated scf accuracy    <          6.8E-12 Ry
     smearing contrib. (-TS)   =      -0.00019188 Ry
     internal energy E=F+TS    =   -1146.36902933 Ry

     The total energy is F=E-TS. E is the sum of the following terms:
     one-electron contribution =    -260.84336752 Ry
     hartree contribution      =     164.42862322 Ry
     xc contribution           =    -123.97211224 Ry
     ewald contribution        =    -372.78820980 Ry
     one-center paw contrib.   =    -553.19396299 Ry
      -> PAW hartree energy AE =     234.35551550 Ry
      -> PAW hartree energy PS =    -231.86165741 Ry
      -> PAW xc energy AE      =    -297.48982127 Ry
      -> PAW xc energy PS      =      47.98527339 Ry
      -> total E_H with PAW    =     166.92248131 Ry
      -> total E_XC with PAW   =    -373.47666013 Ry

     convergence has been achieved in  15 iterations

     Forces acting on atoms (cartesian axes, Ry/au):

     atom    1 type  1   force =     0.00000077    0.00000155    0.00000232
     atom    2 type  2   force =    -0.00000058   -0.00000118   -0.00000172
     atom    3 type  3   force =     0.00000405    0.00000197   -0.00001570
     atom    4 type  3   force =    -0.00000523    0.00000809    0.00000296
     atom    5 type  3   force =     0.00000099   -0.00001042    0.00001214
     The non-local contrib.  to forces
     atom    1 type  1   force =     0.00003331    0.00006660    0.00009993
     atom    2 type  2   force =     0.00001480    0.00002954    0.00004444
     atom    3 type  3   force =    -0.00036082   -0.00001553    0.00037536
     atom    4 type  3   force =     0.00012501   -0.00072150   -0.00002361
     atom    5 type  3   force =    -0.00000791    0.00024989   -0.00108256
     The ionic contribution  to forces
     atom    1 type  1   force =     0.00316883    0.00633612    0.00950571
     atom    2 type  2   force =    -0.00289316   -0.00578546   -0.00867919
     atom    3 type  3   force =    -0.00064832   -0.00046300    0.00181130
     atom    4 type  3   force =     0.00060408   -0.00129677   -0.00069357
     atom    5 type  3   force =    -0.00023143    0.00120911   -0.00194424
     The local contribution  to forces
     atom    1 type  1   force =    -0.00319842   -0.00639528   -0.00959448
     atom    2 type  2   force =     0.00287868    0.00575652    0.00863572
     atom    3 type  3   force =     0.00101207    0.00048061   -0.00220127
     atom    4 type  3   force =    -0.00073395    0.00202412    0.00072031
     atom    5 type  3   force =     0.00024038   -0.00146870    0.00303559
     The core correction contribution to forces
     atom    1 type  1   force =    -0.00000292   -0.00000584   -0.00000877
     atom    2 type  2   force =    -0.00000088   -0.00000175   -0.00000264
     atom    3 type  3   force =     0.00000113   -0.00000009   -0.00000105
     atom    4 type  3   force =    -0.00000035    0.00000226   -0.00000013
     atom    5 type  3   force =    -0.00000004   -0.00000070    0.00000339
     The Hubbard contrib.    to forces
     atom    1 type  1   force =     0.00000000    0.00000000    0.00000000
     atom    2 type  2   force =     0.00000000    0.00000000    0.00000000
     atom    3 type  3   force =     0.00000000    0.00000000    0.00000000
     atom    4 type  3   force =     0.00000000    0.00000000    0.00000000
     atom    5 type  3   force =     0.00000000    0.00000000    0.00000000
     The SCF correction term to forces
     atom    1 type  1   force =    -0.00000001   -0.00000002   -0.00000003
     atom    2 type  2   force =    -0.00000000   -0.00000001   -0.00000001
     atom    3 type  3   force =     0.00000000    0.00000000    0.00000000
     atom    4 type  3   force =     0.00000000    0.00000000    0.00000001
     atom    5 type  3   force =     0.00000000    0.00000000    0.00000001

     Total force =     0.000025     Total SCF correction =     0.000000


     Computing stress (Cartesian axis) and pressure

          total   stress  (Ry/bohr**3)                   (kbar)     P=       42.27
   0.00028737  -0.00000000  -0.00000000           42.27       -0.00       -0.00
  -0.00000000   0.00028737  -0.00000000           -0.00       42.27       -0.00
  -0.00000000  -0.00000000   0.00028736           -0.00       -0.00       42.27

     kinetic stress (kbar)  39170.27      0.00      0.00
                                0.00  39170.27      0.00
                                0.00      0.00  39170.26

     local   stress (kbar) -19347.86     -0.00     -0.00
                               -0.00 -19347.84     -0.00
                               -0.00     -0.00 -19347.86

     nonloc. stress (kbar)   7864.61      0.00      0.00
                                0.00   7864.61      0.00
                                0.00      0.00   7864.61

     hartree stress (kbar)  15385.82      0.00      0.00
                                0.00  15385.81      0.00
                                0.00      0.00  15385.81

     exc-cor stress (kbar)   6419.61     -0.00     -0.00
                               -0.00   6419.61     -0.00
                               -0.00     -0.00   6419.61

     corecor stress (kbar) -14567.86      0.00      0.00
                                0.00 -14567.86      0.00
                                0.00      0.00 -14567.86

     ewald   stress (kbar) -34882.30      0.00      0.00
                                0.00 -34882.32      0.00
                                0.00      0.00 -34882.30

     hubbard stress (kbar)      0.00      0.00      0.00
                                0.00      0.00      0.00
                                0.00      0.00      0.00

     DFT-D   stress (kbar)      0.00      0.00      0.00
                                0.00      0.00      0.00
                                0.00      0.00      0.00

     XDM     stress (kbar)      0.00      0.00      0.00
                                0.00      0.00      0.00
                                0.00      0.00      0.00

     dft-nl  stress (kbar)      0.00      0.00      0.00
                                0.00      0.00      0.00
                                0.00      0.00      0.00

     TS-vdW  stress (kbar)      0.00      0.00      0.00
                                0.00      0.00      0.00
                                0.00      0.00      0.00

     MDB     stress (kbar)      0.00      0.00      0.00
                                0.00      0.00      0.00
                                0.00      0.00      0.00

     3D-RISM stress (kbar)      0.00      0.00      0.00
                                0.00      0.00      0.00
                                0.00      0.00      0.00

     Energy error            =      2.3E-02 Ry
     Gradient error          =      1.6E-05 Ry/Bohr
     Cell gradient error     =      4.2E+01 kbar

     number of scf cycles    =   4
     number of bfgs steps    =   3

     enthalpy           old  =   -1146.3463157650 Ry
     enthalpy           new  =   -1146.3692212120 Ry

     CASE: enthalpy          _new < enthalpy          _old

     new trust radius        =       0.0622058182 bohr
     new conv_thr            =            1.6E-12 Ry

     new unit-cell volume =    545.69038 a.u.^3 (    80.86297 Ang^3 )
     density =      5.74330 g/cm^3

CELL_PARAMETERS (angstrom)
   4.324307543  -0.000000085  -0.000000126
  -0.000000085   4.324307292  -0.000000252
  -0.000000126  -0.000000252   4.324307527

ATOMIC_POSITIONS (crystal)
Ag               0.0000060218        0.0000120458        0.0000180708
In               0.4999852739        0.4999705725        0.4999558067
F                0.5001127806        0.5000063340       -0.0000217684
F               -0.0000072537        0.5002255398        0.5000095416
F                0.5000031775       -0.0000144921        0.5003383494



     Writing config-only to output data dir ./output/aginf3_broken.save/ :
     XML data file
     NEW-OLD atomic charge density approx. for the potential

     Check: negative core charge=   -0.000014

     total cpu time spent up to now is    11833.1 secs

     Self-consistent Calculation

     iteration #  1     ecut=    80.00 Ry     beta= 0.30
     Davidson diagonalization with overlap

---- Real-time Memory Report at c_bands before calling an iterative solver
           112 MiB given to the printing process from OS
             0 MiB allocation reported by mallinfo(arena+hblkhd)
         57388 MiB available memory on the node where the printing process lives
------------------
     ethr =  1.00E-06,  avg # of iterations =  6.6

     total cpu time spent up to now is    12198.2 secs

     total energy              =   -1146.37172774 Ry
     estimated scf accuracy    <       0.00164161 Ry

     iteration #  2     ecut=    80.00 Ry     beta= 0.30
     Davidson diagonalization with overlap

---- Real-time Memory Report at c_bands before calling an iterative solver
           112 MiB given to the printing process from OS
             0 MiB allocation reported by mallinfo(arena+hblkhd)
         57390 MiB available memory on the node where the printing process lives
------------------
     ethr =  3.10E-06,  avg # of iterations =  4.0

     total cpu time spent up to now is    12437.1 secs

     total energy              =   -1146.37158511 Ry
     estimated scf accuracy    <       0.00020463 Ry

     iteration #  3     ecut=    80.00 Ry     beta= 0.30
     Davidson diagonalization with overlap

---- Real-time Memory Report at c_bands before calling an iterative solver
           112 MiB given to the printing process from OS
             0 MiB allocation reported by mallinfo(arena+hblkhd)
         57392 MiB available memory on the node where the printing process lives
------------------
     ethr =  3.86E-07,  avg # of iterations =  4.0

     total cpu time spent up to now is    12675.1 secs

     total energy              =   -1146.37208523 Ry
     estimated scf accuracy    <       0.00005123 Ry

     iteration #  4     ecut=    80.00 Ry     beta= 0.30
     Davidson diagonalization with overlap

---- Real-time Memory Report at c_bands before calling an iterative solver
           112 MiB given to the printing process from OS
             0 MiB allocation reported by mallinfo(arena+hblkhd)
         57397 MiB available memory on the node where the printing process lives
------------------
     ethr =  9.67E-08,  avg # of iterations =  4.0

     total cpu time spent up to now is    12910.9 secs

     total energy              =   -1146.37254053 Ry
     estimated scf accuracy    <       0.00002651 Ry

     iteration #  5     ecut=    80.00 Ry     beta= 0.30
     Davidson diagonalization with overlap

---- Real-time Memory Report at c_bands before calling an iterative solver
           112 MiB given to the printing process from OS
             0 MiB allocation reported by mallinfo(arena+hblkhd)
         57400 MiB available memory on the node where the printing process lives
------------------
     ethr =  5.00E-08,  avg # of iterations =  4.0

     total cpu time spent up to now is    13138.0 secs

     total energy              =   -1146.37277379 Ry
     estimated scf accuracy    <       0.00001267 Ry

     iteration #  6     ecut=    80.00 Ry     beta= 0.30
     Davidson diagonalization with overlap

---- Real-time Memory Report at c_bands before calling an iterative solver
           112 MiB given to the printing process from OS
             0 MiB allocation reported by mallinfo(arena+hblkhd)
         57392 MiB available memory on the node where the printing process lives
------------------
     ethr =  2.39E-08,  avg # of iterations =  4.8

     total cpu time spent up to now is    13409.5 secs

     total energy              =   -1146.37286570 Ry
     estimated scf accuracy    <       0.00000050 Ry

     iteration #  7     ecut=    80.00 Ry     beta= 0.30
     Davidson diagonalization with overlap

---- Real-time Memory Report at c_bands before calling an iterative solver
           112 MiB given to the printing process from OS
             0 MiB allocation reported by mallinfo(arena+hblkhd)
         57248 MiB available memory on the node where the printing process lives
------------------
     ethr =  9.35E-10,  avg # of iterations =  4.0

     total cpu time spent up to now is    13635.7 secs

     total energy              =   -1146.37286648 Ry
     estimated scf accuracy    <       0.00000018 Ry

     iteration #  8     ecut=    80.00 Ry     beta= 0.30
     Davidson diagonalization with overlap

---- Real-time Memory Report at c_bands before calling an iterative solver
           112 MiB given to the printing process from OS
             0 MiB allocation reported by mallinfo(arena+hblkhd)
         57250 MiB available memory on the node where the printing process lives
------------------
     ethr =  3.34E-10,  avg # of iterations =  4.0

     total cpu time spent up to now is    13865.6 secs

     total energy              =   -1146.37286681 Ry
     estimated scf accuracy    <          3.7E-09 Ry

     iteration #  9     ecut=    80.00 Ry     beta= 0.30
     Davidson diagonalization with overlap

---- Real-time Memory Report at c_bands before calling an iterative solver
           112 MiB given to the printing process from OS
             0 MiB allocation reported by mallinfo(arena+hblkhd)
         57251 MiB available memory on the node where the printing process lives
------------------
     ethr =  7.03E-12,  avg # of iterations =  4.0

     total cpu time spent up to now is    14083.2 secs

     total energy              =   -1146.37286682 Ry
     estimated scf accuracy    <          2.6E-09 Ry

     iteration # 10     ecut=    80.00 Ry     beta= 0.30
     Davidson diagonalization with overlap

---- Real-time Memory Report at c_bands before calling an iterative solver
           112 MiB given to the printing process from OS
             0 MiB allocation reported by mallinfo(arena+hblkhd)
         57234 MiB available memory on the node where the printing process lives
------------------
     ethr =  4.98E-12,  avg # of iterations =  4.0

     total cpu time spent up to now is    14299.0 secs

     total energy              =   -1146.37286682 Ry
     estimated scf accuracy    <          2.4E-10 Ry

     iteration # 11     ecut=    80.00 Ry     beta= 0.30
     Davidson diagonalization with overlap

---- Real-time Memory Report at c_bands before calling an iterative solver
           112 MiB given to the printing process from OS
             0 MiB allocation reported by mallinfo(arena+hblkhd)
         57253 MiB available memory on the node where the printing process lives
------------------
     ethr =  4.53E-13,  avg # of iterations =  2.2

     total cpu time spent up to now is    14443.9 secs

     total energy              =   -1146.37286682 Ry
     estimated scf accuracy    <          1.1E-11 Ry

     iteration # 12     ecut=    80.00 Ry     beta= 0.30
     Davidson diagonalization with overlap

---- Real-time Memory Report at c_bands before calling an iterative solver
           112 MiB given to the printing process from OS
             0 MiB allocation reported by mallinfo(arena+hblkhd)
         57253 MiB available memory on the node where the printing process lives
------------------
     ethr =  1.00E-13,  avg # of iterations =  3.9

     total cpu time spent up to now is    14642.1 secs

     total energy              =   -1146.37286682 Ry
     estimated scf accuracy    <          2.1E-11 Ry

     iteration # 13     ecut=    80.00 Ry     beta= 0.30
     Davidson diagonalization with overlap

---- Real-time Memory Report at c_bands before calling an iterative solver
           112 MiB given to the printing process from OS
             0 MiB allocation reported by mallinfo(arena+hblkhd)
         57247 MiB available memory on the node where the printing process lives
------------------
     ethr =  1.00E-13,  avg # of iterations =  1.1

     total cpu time spent up to now is    14741.0 secs

     End of self-consistent calculation

          k = 0.0000 0.0000 0.0000 (  3695 PWs)   bands (ev):

   -82.9165 -46.4438 -46.4438 -46.4438 -16.4914 -16.1743 -16.1743  -6.8023
    -6.8023  -6.8023  -6.3801  -6.3801   0.6906   0.6906   0.6906   2.8426
     2.8426   2.8426   2.9316   2.9316   2.9316   4.5361   4.5361   4.6767
     4.6767   4.6767   5.5699   9.2528  15.0088  15.0088  15.0088  17.4537

     occupation numbers 
     1.0000   1.0000   1.0000   1.0000   1.0000   1.0000   1.0000   1.0000
     1.0000   1.0000   1.0000   1.0000   1.0000   1.0000   1.0000   1.0000
     1.0000   1.0000   1.0000   1.0000   1.0000   1.0000   1.0000   1.0000
     1.0000   1.0000   1.0000   0.0000   0.0000   0.0000   0.0000   0.0000

          k = 0.0000 0.0000 0.1364 (  3635 PWs)   bands (ev):

   -82.9165 -46.4432 -46.4432 -46.4428 -16.4626 -16.1734 -16.1672  -6.8107
    -6.8107  -6.8017  -6.5526  -6.3798   0.7251   0.7251   0.7806   2.5816
     2.8278   2.8278   2.8492   2.8967   2.8967   4.5753   4.6169   4.6781
     4.7433   4.7433   6.1459   9.4464  14.0955  15.0663  15.0663  17.6696

     occupation numbers 
     1.0000   1.0000   1.0000   1.0000   1.0000   1.0000   1.0000   1.0000
     1.0000   1.0000   1.0000   1.0000   1.0000   1.0000   1.0000   1.0000
     1.0000   1.0000   1.0000   1.0000   1.0000   1.0000   1.0000   1.0000
     1.0000   1.0000   1.0000   0.0000   0.0000   0.0000   0.0000   0.0000

          k = 0.0000 0.0000 0.2729 (  3619 PWs)   bands (ev):

   -82.9164 -46.4431 -46.4431 -46.4428 -16.4071 -16.1717 -16.1494  -6.8820
    -6.8289  -6.8289  -6.8008  -6.3798   0.7945   0.7945   0.9615   2.1756
     2.7039   2.7840   2.7840   2.8485   2.8485   4.6546   4.6807   4.7579
     4.8678   4.8678   7.3973   9.5827  13.1433  15.2501  15.2501  17.1044

     occupation numbers 
     1.0000   1.0000   1.0000   1.0000   1.0000   1.0000   1.0000   1.0000
     1.0000   1.0000   1.0000   1.0000   1.0000   1.0000   1.0000   1.0000
     1.0000   1.0000   1.0000   1.0000   1.0000   1.0000   1.0000   1.0000
     1.0000   1.0000   1.0000   0.0000   0.0000   0.0000   0.0000   0.0000

          k =-0.0000-0.0000-0.4093 (  3588 PWs)   bands (ev):

   -82.9164 -46.4426 -46.4426 -46.4426 -16.3812 -16.1709 -16.1378  -7.0400
    -6.8377  -6.8377  -6.8003  -6.3795   0.8295   0.8295   1.0616   1.9919
     2.6387   2.7575   2.7575   2.8322   2.8322   4.6821   4.6947   4.8211
     4.9272   4.9272   8.6737   8.8344  13.1200  15.4336  15.4336  16.5351

     occupation numbers 
     1.0000   1.0000   1.0000   1.0000   1.0000   1.0000   1.0000   1.0000
     1.0000   1.0000   1.0000   1.0000   1.0000   1.0000   1.0000   1.0000
     1.0000   1.0000   1.0000   1.0000   1.0000   1.0000   1.0000   1.0000
     1.0000   1.0000   1.0100   0.0058   0.0000   0.0000   0.0000   0.0000

          k = 0.0000 0.1364 0.0000 (  3635 PWs)   bands (ev):

   -82.9165 -46.4432 -46.4432 -46.4428 -16.4626 -16.1734 -16.1672  -6.8107
    -6.8107  -6.8017  -6.5526  -6.3798   0.7251   0.7251   0.7806   2.5816
     2.8278   2.8278   2.8492   2.8967   2.8967   4.5753   4.6169   4.6781
     4.7433   4.7433   6.1459   9.4464  14.0955  15.0663  15.0663  17.6697

     occupation numbers 
     1.0000   1.0000   1.0000   1.0000   1.0000   1.0000   1.0000   1.0000
     1.0000   1.0000   1.0000   1.0000   1.0000   1.0000   1.0000   1.0000
     1.0000   1.0000   1.0000   1.0000   1.0000   1.0000   1.0000   1.0000
     1.0000   1.0000   1.0000   0.0000   0.0000   0.0000   0.0000   0.0000

          k = 0.0000 0.1364 0.1364 (  3627 PWs)   bands (ev):

   -82.9164 -46.4432 -46.4431 -46.4429 -16.4334 -16.1692 -16.1640  -6.8205
    -6.8107  -6.8103  -6.6299  -6.4694   0.4159   0.7624   1.2141   2.3825
     2.7233   2.8132   2.8501   2.8586   2.9905   4.6232   4.6315   4.7398
     4.7488   4.7918   6.6063   9.6211  13.7617  14.6495  15.1142  17.1967

     occupation numbers 
     1.0000   1.0000   1.0000   1.0000   1.0000   1.0000   1.0000   1.0000
     1.0000   1.0000   1.0000   1.0000   1.0000   1.0000   1.0000   1.0000
     1.0000   1.0000   1.0000   1.0000   1.0000   1.0000   1.0000   1.0000
     1.0000   1.0000   1.0000   0.0000   0.0000   0.0000   0.0000   0.0000

          k = 0.0000 0.1364 0.2729 (  3612 PWs)   bands (ev):

   -82.9164 -46.4432 -46.4429 -46.4427 -16.3774 -16.1661 -16.1480  -6.9187
    -6.8392  -6.8288  -6.8101  -6.5008   0.2514   0.8381   1.6326   2.1166
     2.5799   2.7671   2.8059   2.8170   3.0248   4.6881   4.7397   4.7462
     4.8552   4.8689   7.7108   9.7525  12.9830  14.4414  15.2697  16.3059

     occupation numbers 
     1.0000   1.0000   1.0000   1.0000   1.0000   1.0000   1.0000   1.0000
     1.0000   1.0000   1.0000   1.0000   1.0000   1.0000   1.0000   1.0000
     1.0000   1.0000   1.0000   1.0000   1.0000   1.0000   1.0000   1.0000
     1.0000   1.0000   1.0000   0.0000   0.0000   0.0000   0.0000   0.0000

          k =-0.0000 0.1364-0.4093 (  3614 PWs)   bands (ev):

   -82.9164 -46.4433 -46.4430 -46.4427 -16.3515 -16.1652 -16.1364  -7.0697
    -6.8489  -6.8378  -6.8100  -6.5042   0.2070   0.8765   1.8309   1.9872
     2.5138   2.7380   2.7884   2.7953   3.0164   4.7317   4.7473   4.8174
     4.8540   4.9281   8.9656   8.9862  13.0583  13.9762  15.4252  16.4061

     occupation numbers 
     1.0000   1.0000   1.0000   1.0000   1.0000   1.0000   1.0000   1.0000
     1.0000   1.0000   1.0000   1.0000   1.0000   1.0000   1.0000   1.0000
     1.0000   1.0000   1.0000   1.0000   1.0000   1.0000   1.0000   1.0000
     1.0000   1.0000   0.0000   0.0000   0.0000   0.0000   0.0000   0.0000

          k =-0.0000 0.1364-0.2729 (  3612 PWs)   bands (ev):

   -82.9164 -46.4432 -46.4429 -46.4427 -16.3774 -16.1661 -16.1480  -6.9187
    -6.8392  -6.8288  -6.8101  -6.5008   0.2514   0.8381   1.6326   2.1166
     2.5799   2.7671   2.8059   2.8170   3.0248   4.6881   4.7397   4.7462
     4.8552   4.8689   7.7108   9.7525  12.9830  14.4414  15.2697  16.3059

     occupation numbers 
     1.0000   1.0000   1.0000   1.0000   1.0000   1.0000   1.0000   1.0000
     1.0000   1.0000   1.0000   1.0000   1.0000   1.0000   1.0000   1.0000
     1.0000   1.0000   1.0000   1.0000   1.0000   1.0000   1.0000   1.0000
     1.0000   1.0000   1.0000   0.0000   0.0000   0.0000   0.0000   0.0000

          k =-0.0000 0.1364-0.1364 (  3627 PWs)   bands (ev):

   -82.9164 -46.4432 -46.4431 -46.4429 -16.4334 -16.1692 -16.1640  -6.8205
    -6.8107  -6.8103  -6.6299  -6.4694   0.4159   0.7624   1.2141   2.3825
     2.7233   2.8132   2.8501   2.8586   2.9905   4.6232   4.6315   4.7398
     4.7488   4.7918   6.6063   9.6211  13.7617  14.6495  15.1142  17.1967

     occupation numbers 
     1.0000   1.0000   1.0000   1.0000   1.0000   1.0000   1.0000   1.0000
     1.0000   1.0000   1.0000   1.0000   1.0000   1.0000   1.0000   1.0000
     1.0000   1.0000   1.0000   1.0000   1.0000   1.0000   1.0000   1.0000
     1.0000   1.0000   1.0000   0.0000   0.0000   0.0000   0.0000   0.0000

          k = 0.0000 0.2729 0.0000 (  3619 PWs)   bands (ev):

   -82.9164 -46.4431 -46.4431 -46.4428 -16.4071 -16.1717 -16.1494  -6.8820
    -6.8289  -6.8289  -6.8008  -6.3798   0.7945   0.7945   0.9615   2.1756
     2.7039   2.7840   2.7840   2.8485   2.8485   4.6546   4.6807   4.7579
     4.8678   4.8678   7.3973   9.5827  13.1433  15.2501  15.2501  17.1037

     occupation numbers 
     1.0000   1.0000   1.0000   1.0000   1.0000   1.0000   1.0000   1.0000
     1.0000   1.0000   1.0000   1.0000   1.0000   1.0000   1.0000   1.0000
     1.0000   1.0000   1.0000   1.0000   1.0000   1.0000   1.0000   1.0000
     1.0000   1.0000   1.0000   0.0000   0.0000   0.0000   0.0000   0.0000

          k = 0.0000 0.2729 0.1364 (  3612 PWs)   bands (ev):

   -82.9164 -46.4432 -46.4429 -46.4427 -16.3774 -16.1661 -16.1480  -6.9187
    -6.8392  -6.8288  -6.8101  -6.5008   0.2514   0.8381   1.6326   2.1166
     2.5799   2.7671   2.8059   2.8170   3.0248   4.6881   4.7397   4.7462
     4.8552   4.8689   7.7108   9.7525  12.9830  14.4414  15.2697  16.3059

     occupation numbers 
     1.0000   1.0000   1.0000   1.0000   1.0000   1.0000   1.0000   1.0000
     1.0000   1.0000   1.0000   1.0000   1.0000   1.0000   1.0000   1.0000
     1.0000   1.0000   1.0000   1.0000   1.0000   1.0000   1.0000   1.0000
     1.0000   1.0000   1.0000   0.0000   0.0000   0.0000   0.0000   0.0000

          k = 0.0000 0.2729 0.2729 (  3604 PWs)   bands (ev):

   -82.9164 -46.4430 -46.4429 -46.4427 -16.3217 -16.1515 -16.1431  -7.0669
    -6.8601  -6.8285  -6.8283  -6.6587  -0.0976   0.9280   1.9950   2.1949
     2.5035   2.7290   2.7297   2.9086   3.1864   4.6951   4.7945   4.8203
     4.8666   4.8751   8.5334  10.0823  12.3075  13.4506  15.3385  16.1457

     occupation numbers 
     1.0000   1.0000   1.0000   1.0000   1.0000   1.0000   1.0000   1.0000
     1.0000   1.0000   1.0000   1.0000   1.0000   1.0000   1.0000   1.0000
     1.0000   1.0000   1.0000   1.0000   1.0000   1.0000   1.0000   1.0000
     1.0000   1.0000   1.0014   0.0000   0.0000   0.0000   0.0000   0.0000

          k =-0.0000 0.2729-0.4093 (  3604 PWs)   bands (ev):

   -82.9164 -46.4431 -46.4429 -46.4426 -16.2972 -16.1468 -16.1337  -7.1774
    -6.8703  -6.8375  -6.8284  -6.6971  -0.2042   0.9745   1.9386   2.3847
     2.4727   2.6949   2.7081   2.9930   3.2206   4.7199   4.7780   4.8347
     4.8719   4.9303   9.3351   9.8634  12.4267  12.5135  15.4067  16.1570

     occupation numbers 
     1.0000   1.0000   1.0000   1.0000   1.0000   1.0000   1.0000   1.0000
     1.0000   1.0000   1.0000   1.0000   1.0000   1.0000   1.0000   1.0000
     1.0000   1.0000   1.0000   1.0000   1.0000   1.0000   1.0000   1.0000
     1.0000   1.0000   0.0000   0.0000   0.0000   0.0000   0.0000   0.0000

          k =-0.0000 0.2729-0.2729 (  3604 PWs)   bands (ev):

   -82.9164 -46.4430 -46.4429 -46.4427 -16.3217 -16.1515 -16.1431  -7.0669
    -6.8601  -6.8285  -6.8283  -6.6587  -0.0976   0.9280   1.9950   2.1949
     2.5035   2.7291   2.7295   2.9086   3.1864   4.6951   4.7945   4.8203
     4.8666   4.8751   8.5334  10.0823  12.3075  13.4506  15.3385  16.1457

     occupation numbers 
     1.0000   1.0000   1.0000   1.0000   1.0000   1.0000   1.0000   1.0000
     1.0000   1.0000   1.0000   1.0000   1.0000   1.0000   1.0000   1.0000
     1.0000   1.0000   1.0000   1.0000   1.0000   1.0000   1.0000   1.0000
     1.0000   1.0000   1.0014   0.0000   0.0000   0.0000   0.0000   0.0000

          k = 0.0000 0.2729-0.1364 (  3612 PWs)   bands (ev):

   -82.9164 -46.4432 -46.4429 -46.4427 -16.3774 -16.1661 -16.1480  -6.9187
    -6.8392  -6.8288  -6.8101  -6.5008   0.2514   0.8381   1.6326   2.1166
     2.5799   2.7671   2.8059   2.8170   3.0248   4.6881   4.7397   4.7462
     4.8552   4.8689   7.7108   9.7525  12.9830  14.4414  15.2697  16.3059

     occupation numbers 
     1.0000   1.0000   1.0000   1.0000   1.0000   1.0000   1.0000   1.0000
     1.0000   1.0000   1.0000   1.0000   1.0000   1.0000   1.0000   1.0000
     1.0000   1.0000   1.0000   1.0000   1.0000   1.0000   1.0000   1.0000
     1.0000   1.0000   1.0000   0.0000   0.0000   0.0000   0.0000   0.0000

          k =-0.0000-0.4093-0.0000 (  3588 PWs)   bands (ev):

   -82.9164 -46.4426 -46.4426 -46.4426 -16.3812 -16.1709 -16.1378  -7.0400
    -6.8377  -6.8377  -6.8003  -6.3795   0.8295   0.8295   1.0616   1.9919
     2.6387   2.7575   2.7575   2.8322   2.8322   4.6821   4.6947   4.8211
     4.9272   4.9272   8.6737   8.8344  13.1200  15.4336  15.4336  16.5351

     occupation numbers 
     1.0000   1.0000   1.0000   1.0000   1.0000   1.0000   1.0000   1.0000
     1.0000   1.0000   1.0000   1.0000   1.0000   1.0000   1.0000   1.0000
     1.0000   1.0000   1.0000   1.0000   1.0000   1.0000   1.0000   1.0000
     1.0000   1.0000   1.0100   0.0058   0.0000   0.0000   0.0000   0.0000

          k =-0.0000-0.4093 0.1364 (  3614 PWs)   bands (ev):

   -82.9164 -46.4433 -46.4430 -46.4427 -16.3515 -16.1652 -16.1364  -7.0697
    -6.8489  -6.8378  -6.8100  -6.5042   0.2070   0.8765   1.8309   1.9872
     2.5139   2.7379   2.7884   2.7953   3.0164   4.7317   4.7473   4.8174
     4.8540   4.9281   8.9657   8.9862  13.0583  13.9762  15.4252  16.4060

     occupation numbers 
     1.0000   1.0000   1.0000   1.0000   1.0000   1.0000   1.0000   1.0000
     1.0000   1.0000   1.0000   1.0000   1.0000   1.0000   1.0000   1.0000
     1.0000   1.0000   1.0000   1.0000   1.0000   1.0000   1.0000   1.0000
     1.0000   1.0000   0.0000   0.0000   0.0000   0.0000   0.0000   0.0000

          k =-0.0000-0.4093 0.2729 (  3604 PWs)   bands (ev):

   -82.9164 -46.4431 -46.4429 -46.4426 -16.2972 -16.1468 -16.1337  -7.1774
    -6.8703  -6.8375  -6.8284  -6.6971  -0.2042   0.9745   1.9386   2.3847
     2.4727   2.6948   2.7081   2.9930   3.2206   4.7199   4.7780   4.8347
     4.8719   4.9303   9.3351   9.8634  12.4267  12.5135  15.4067  16.1570

     occupation numbers 
     1.0000   1.0000   1.0000   1.0000   1.0000   1.0000   1.0000   1.0000
     1.0000   1.0000   1.0000   1.0000   1.0000   1.0000   1.0000   1.0000
     1.0000   1.0000   1.0000   1.0000   1.0000   1.0000   1.0000   1.0000
     1.0000   1.0000   0.0000   0.0000   0.0000   0.0000   0.0000   0.0000

          k =-0.0000-0.4093-0.4093 (  3628 PWs)   bands (ev):

   -82.9164 -46.4433 -46.4433 -46.4433 -16.2744 -16.1323 -16.1323  -7.2623
    -6.8813  -6.8377  -6.8377  -6.7591  -0.3310   1.0258   1.9016   2.4896
     2.4896   2.6710   2.6710   3.1688   3.2999   4.6582   4.7767   4.8661
     4.9313   4.9313   9.6415  10.7677  11.6961  11.6961  15.3963  16.0368

     occupation numbers 
     1.0000   1.0000   1.0000   1.0000   1.0000   1.0000   1.0000   1.0000
     1.0000   1.0000   1.0000   1.0000   1.0000   1.0000   1.0000   1.0000
     1.0000   1.0000   1.0000   1.0000   1.0000   1.0000   1.0000   1.0000
     1.0000   1.0000   0.0000   0.0000   0.0000   0.0000   0.0000   0.0000

          k = 0.1364 0.0000 0.0000 (  3635 PWs)   bands (ev):

   -82.9165 -46.4432 -46.4432 -46.4428 -16.4626 -16.1734 -16.1672  -6.8107
    -6.8107  -6.8017  -6.5526  -6.3798   0.7251   0.7251   0.7805   2.5816
     2.8278   2.8278   2.8492   2.8967   2.8967   4.5753   4.6169   4.6781
     4.7433   4.7433   6.1459   9.4464  14.0955  15.0663  15.0663  17.6697

     occupation numbers 
     1.0000   1.0000   1.0000   1.0000   1.0000   1.0000   1.0000   1.0000
     1.0000   1.0000   1.0000   1.0000   1.0000   1.0000   1.0000   1.0000
     1.0000   1.0000   1.0000   1.0000   1.0000   1.0000   1.0000   1.0000
     1.0000   1.0000   1.0000   0.0000   0.0000   0.0000   0.0000   0.0000

          k = 0.1364 0.0000 0.1364 (  3627 PWs)   bands (ev):

   -82.9164 -46.4432 -46.4431 -46.4429 -16.4334 -16.1692 -16.1640  -6.8205
    -6.8107  -6.8103  -6.6299  -6.4694   0.4159   0.7624   1.2141   2.3825
     2.7233   2.8132   2.8501   2.8586   2.9905   4.6232   4.6315   4.7398
     4.7488   4.7918   6.6063   9.6211  13.7617  14.6495  15.1142  17.1967

     occupation numbers 
     1.0000   1.0000   1.0000   1.0000   1.0000   1.0000   1.0000   1.0000
     1.0000   1.0000   1.0000   1.0000   1.0000   1.0000   1.0000   1.0000
     1.0000   1.0000   1.0000   1.0000   1.0000   1.0000   1.0000   1.0000
     1.0000   1.0000   1.0000   0.0000   0.0000   0.0000   0.0000   0.0000

          k = 0.1364 0.0000 0.2729 (  3612 PWs)   bands (ev):

   -82.9164 -46.4432 -46.4429 -46.4427 -16.3774 -16.1661 -16.1480  -6.9187
    -6.8392  -6.8288  -6.8101  -6.5008   0.2514   0.8381   1.6326   2.1166
     2.5799   2.7671   2.8059   2.8171   3.0248   4.6881   4.7397   4.7462
     4.8552   4.8689   7.7108   9.7525  12.9830  14.4414  15.2697  16.3059

     occupation numbers 
     1.0000   1.0000   1.0000   1.0000   1.0000   1.0000   1.0000   1.0000
     1.0000   1.0000   1.0000   1.0000   1.0000   1.0000   1.0000   1.0000
     1.0000   1.0000   1.0000   1.0000   1.0000   1.0000   1.0000   1.0000
     1.0000   1.0000   1.0000   0.0000   0.0000   0.0000   0.0000   0.0000

          k = 0.1364-0.0000-0.4093 (  3614 PWs)   bands (ev):

   -82.9164 -46.4433 -46.4430 -46.4427 -16.3515 -16.1652 -16.1364  -7.0697
    -6.8489  -6.8378  -6.8100  -6.5042   0.2070   0.8765   1.8310   1.9872
     2.5138   2.7380   2.7884   2.7953   3.0164   4.7317   4.7473   4.8174
     4.8540   4.9281   8.9656   8.9862  13.0583  13.9762  15.4252  16.4058

     occupation numbers 
     1.0000   1.0000   1.0000   1.0000   1.0000   1.0000   1.0000   1.0000
     1.0000   1.0000   1.0000   1.0000   1.0000   1.0000   1.0000   1.0000
     1.0000   1.0000   1.0000   1.0000   1.0000   1.0000   1.0000   1.0000
     1.0000   1.0000   0.0000   0.0000   0.0000   0.0000   0.0000   0.0000

          k = 0.1364-0.0000-0.2729 (  3612 PWs)   bands (ev):

   -82.9164 -46.4432 -46.4429 -46.4427 -16.3774 -16.1661 -16.1480  -6.9187
    -6.8392  -6.8288  -6.8101  -6.5008   0.2514   0.8381   1.6326   2.1166
     2.5799   2.7671   2.8059   2.8171   3.0248   4.6881   4.7397   4.7462
     4.8552   4.8689   7.7108   9.7525  12.9830  14.4414  15.2697  16.3059

     occupation numbers 
     1.0000   1.0000   1.0000   1.0000   1.0000   1.0000   1.0000   1.0000
     1.0000   1.0000   1.0000   1.0000   1.0000   1.0000   1.0000   1.0000
     1.0000   1.0000   1.0000   1.0000   1.0000   1.0000   1.0000   1.0000
     1.0000   1.0000   1.0000   0.0000   0.0000   0.0000   0.0000   0.0000

          k = 0.1364-0.0000-0.1364 (  3627 PWs)   bands (ev):

   -82.9164 -46.4432 -46.4431 -46.4429 -16.4334 -16.1692 -16.1640  -6.8205
    -6.8107  -6.8103  -6.6299  -6.4694   0.4159   0.7624   1.2141   2.3825
     2.7233   2.8132   2.8501   2.8586   2.9905   4.6232   4.6315   4.7398
     4.7488   4.7918   6.6063   9.6211  13.7617  14.6495  15.1142  17.1967

     occupation numbers 
     1.0000   1.0000   1.0000   1.0000   1.0000   1.0000   1.0000   1.0000
     1.0000   1.0000   1.0000   1.0000   1.0000   1.0000   1.0000   1.0000
     1.0000   1.0000   1.0000   1.0000   1.0000   1.0000   1.0000   1.0000
     1.0000   1.0000   1.0000   0.0000   0.0000   0.0000   0.0000   0.0000

          k = 0.1364 0.1364 0.0000 (  3627 PWs)   bands (ev):

   -82.9164 -46.4432 -46.4431 -46.4429 -16.4334 -16.1692 -16.1640  -6.8205
    -6.8107  -6.8103  -6.6299  -6.4694   0.4159   0.7624   1.2141   2.3826
     2.7233   2.8132   2.8501   2.8586   2.9906   4.6232   4.6315   4.7398
     4.7488   4.7918   6.6063   9.6211  13.7617  14.6495  15.1142  17.1967

     occupation numbers 
     1.0000   1.0000   1.0000   1.0000   1.0000   1.0000   1.0000   1.0000
     1.0000   1.0000   1.0000   1.0000   1.0000   1.0000   1.0000   1.0000
     1.0000   1.0000   1.0000   1.0000   1.0000   1.0000   1.0000   1.0000
     1.0000   1.0000   1.0000   0.0000   0.0000   0.0000   0.0000   0.0000

          k = 0.1364 0.1364 0.1364 (  3620 PWs)   bands (ev):

   -82.9164 -46.4431 -46.4431 -46.4428 -16.4035 -16.1634 -16.1630  -6.8203
    -6.8200  -6.8200  -6.6297  -6.6297   0.0565   1.2536   1.2555   2.2647
     2.6556   2.6565   2.9257   2.9262   3.0372   4.6334   4.6336   4.7383
     4.8222   4.8225   6.9994   9.7750  13.9115  13.9139  14.9567  16.8401

     occupation numbers 
     1.0000   1.0000   1.0000   1.0000   1.0000   1.0000   1.0000   1.0000
     1.0000   1.0000   1.0000   1.0000   1.0000   1.0000   1.0000   1.0000
     1.0000   1.0000   1.0000   1.0000   1.0000   1.0000   1.0000   1.0000
     1.0000   1.0000   1.0000   0.0000   0.0000   0.0000   0.0000   0.0000

          k = 0.1364 0.1364 0.2729 (  3623 PWs)   bands (ev):

   -82.9164 -46.4433 -46.4431 -46.4429 -16.3464 -16.1616 -16.1468  -6.9399
    -6.8396  -6.8387  -6.8197  -6.6294  -0.2097   1.3384   1.7844   2.0887
     2.4758   2.6371   2.9043   2.9485   3.0734   4.6749   4.7213   4.7743
     4.8511   4.8878   7.9928   9.8954  12.9997  14.3176  14.3437  16.4147

     occupation numbers 
     1.0000   1.0000   1.0000   1.0000   1.0000   1.0000   1.0000   1.0000
     1.0000   1.0000   1.0000   1.0000   1.0000   1.0000   1.0000   1.0000
     1.0000   1.0000   1.0000   1.0000   1.0000   1.0000   1.0000   1.0000
     1.0000   1.0000   1.0000   0.0000   0.0000   0.0000   0.0000   0.0000

          k = 0.1364 0.1364-0.4093 (  3608 PWs)   bands (ev):

   -82.9164 -46.4430 -46.4429 -46.4427 -16.3203 -16.1608 -16.1352  -7.0901
    -6.8491  -6.8479  -6.8194  -6.6292  -0.2897   1.3824   1.9963   2.0142
     2.4036   2.6835   2.8788   2.8884   3.0771   4.6983   4.8122   4.8303
     4.8345   4.8734   9.0763   9.2745  13.0988  13.5886  14.7898  15.6628

     occupation numbers 
     1.0000   1.0000   1.0000   1.0000   1.0000   1.0000   1.0000   1.0000
     1.0000   1.0000   1.0000   1.0000   1.0000   1.0000   1.0000   1.0000
     1.0000   1.0000   1.0000   1.0000   1.0000   1.0000   1.0000   1.0000
     1.0000   1.0000   0.0000   0.0000   0.0000   0.0000   0.0000   0.0000

          k = 0.1364 0.1364-0.2729 (  3623 PWs)   bands (ev):

   -82.9164 -46.4433 -46.4431 -46.4429 -16.3464 -16.1616 -16.1468  -6.9399
    -6.8396  -6.8387  -6.8197  -6.6294  -0.2097   1.3384   1.7844   2.0887
     2.4758   2.6371   2.9043   2.9485   3.0734   4.6749   4.7213   4.7743
     4.8511   4.8878   7.9928   9.8954  12.9997  14.3176  14.3437  16.4147

     occupation numbers 
     1.0000   1.0000   1.0000   1.0000   1.0000   1.0000   1.0000   1.0000
     1.0000   1.0000   1.0000   1.0000   1.0000   1.0000   1.0000   1.0000
     1.0000   1.0000   1.0000   1.0000   1.0000   1.0000   1.0000   1.0000
     1.0000   1.0000   1.0000   0.0000   0.0000   0.0000   0.0000   0.0000

          k = 0.1364 0.1364-0.1364 (  3620 PWs)   bands (ev):

   -82.9164 -46.4431 -46.4431 -46.4428 -16.4035 -16.1632 -16.1632  -6.8203
    -6.8200  -6.8200  -6.6297  -6.6297   0.0565   1.2545   1.2545   2.2647
     2.6561   2.6561   2.9260   2.9260   3.0372   4.6335   4.6335   4.7383
     4.8224   4.8224   6.9994   9.7750  13.9127  13.9127  14.9567  16.8401

     occupation numbers 
     1.0000   1.0000   1.0000   1.0000   1.0000   1.0000   1.0000   1.0000
     1.0000   1.0000   1.0000   1.0000   1.0000   1.0000   1.0000   1.0000
     1.0000   1.0000   1.0000   1.0000   1.0000   1.0000   1.0000   1.0000
     1.0000   1.0000   1.0000   0.0000   0.0000   0.0000   0.0000   0.0000

          k = 0.1364 0.2729 0.0000 (  3612 PWs)   bands (ev):

   -82.9164 -46.4432 -46.4429 -46.4427 -16.3774 -16.1661 -16.1480  -6.9187
    -6.8392  -6.8288  -6.8101  -6.5008   0.2514   0.8381   1.6326   2.1166
     2.5799   2.7671   2.8059   2.8171   3.0248   4.6881   4.7397   4.7462
     4.8552   4.8689   7.7108   9.7525  12.9830  14.4414  15.2697  16.3059

     occupation numbers 
     1.0000   1.0000   1.0000   1.0000   1.0000   1.0000   1.0000   1.0000
     1.0000   1.0000   1.0000   1.0000   1.0000   1.0000   1.0000   1.0000
     1.0000   1.0000   1.0000   1.0000   1.0000   1.0000   1.0000   1.0000
     1.0000   1.0000   1.0000   0.0000   0.0000   0.0000   0.0000   0.0000

          k = 0.1364 0.2729 0.1364 (  3623 PWs)   bands (ev):

   -82.9164 -46.4433 -46.4431 -46.4429 -16.3464 -16.1616 -16.1468  -6.9399
    -6.8396  -6.8387  -6.8197  -6.6294  -0.2097   1.3384   1.7844   2.0887
     2.4758   2.6371   2.9043   2.9485   3.0734   4.6749   4.7213   4.7743
     4.8511   4.8878   7.9928   9.8954  12.9997  14.3176  14.3437  16.4147

     occupation numbers 
     1.0000   1.0000   1.0000   1.0000   1.0000   1.0000   1.0000   1.0000
     1.0000   1.0000   1.0000   1.0000   1.0000   1.0000   1.0000   1.0000
     1.0000   1.0000   1.0000   1.0000   1.0000   1.0000   1.0000   1.0000
     1.0000   1.0000   1.0000   0.0000   0.0000   0.0000   0.0000   0.0000

          k = 0.1364 0.2729 0.2729 (  3620 PWs)   bands (ev):

   -82.9164 -46.4433 -46.4431 -46.4429 -16.2880 -16.1492 -16.1423  -7.0669
    -6.8598  -6.8386  -6.8386  -6.7953  -0.5954   1.6120   2.0174   2.2052
     2.3800   2.6275   2.9294   3.0353   3.2011   4.6950   4.7334   4.7669
     4.8704   4.8943   8.7290  10.1772  12.5251  13.4792  14.3117  15.8454

     occupation numbers 
     1.0000   1.0000   1.0000   1.0000   1.0000   1.0000   1.0000   1.0000
     1.0000   1.0000   1.0000   1.0000   1.0000   1.0000   1.0000   1.0000
     1.0000   1.0000   1.0000   1.0000   1.0000   1.0000   1.0000   1.0000
     1.0000   1.0000   0.4973   0.0000   0.0000   0.0000   0.0000   0.0000

          k = 0.1364 0.2729-0.4093 (  3606 PWs)   bands (ev):

   -82.9164 -46.4431 -46.4428 -46.4428 -16.2626 -16.1454 -16.1327  -7.1797
    -6.8699  -6.8480  -6.8383  -6.8255  -0.7170   1.6872   1.9803   2.3065
     2.3272   2.8080   2.9091   3.0346   3.2400   4.7098   4.7466   4.8034
     4.8572   4.8822   9.3617  10.1002  12.4938  12.7220  14.7267  15.2839

     occupation numbers 
     1.0000   1.0000   1.0000   1.0000   1.0000   1.0000   1.0000   1.0000
     1.0000   1.0000   1.0000   1.0000   1.0000   1.0000   1.0000   1.0000
     1.0000   1.0000   1.0000   1.0000   1.0000   1.0000   1.0000   1.0000
     1.0000   1.0000   0.0000   0.0000   0.0000   0.0000   0.0000   0.0000

          k = 0.1364 0.2729-0.2729 (  3620 PWs)   bands (ev):

   -82.9164 -46.4433 -46.4431 -46.4429 -16.2880 -16.1491 -16.1423  -7.0669
    -6.8598  -6.8386  -6.8386  -6.7953  -0.5954   1.6120   2.0174   2.2052
     2.3800   2.6275   2.9294   3.0353   3.2011   4.6950   4.7334   4.7669
     4.8704   4.8943   8.7290  10.1772  12.5251  13.4792  14.3117  15.8454

     occupation numbers 
     1.0000   1.0000   1.0000   1.0000   1.0000   1.0000   1.0000   1.0000
     1.0000   1.0000   1.0000   1.0000   1.0000   1.0000   1.0000   1.0000
     1.0000   1.0000   1.0000   1.0000   1.0000   1.0000   1.0000   1.0000
     1.0000   1.0000   0.4973   0.0000   0.0000   0.0000   0.0000   0.0000

          k = 0.1364 0.2729-0.1364 (  3623 PWs)   bands (ev):

   -82.9164 -46.4433 -46.4431 -46.4429 -16.3464 -16.1616 -16.1468  -6.9399
    -6.8396  -6.8387  -6.8197  -6.6294  -0.2097   1.3384   1.7844   2.0887
     2.4758   2.6371   2.9043   2.9485   3.0734   4.6749   4.7213   4.7743
     4.8511   4.8878   7.9928   9.8954  12.9997  14.3176  14.3437  16.4147

     occupation numbers 
     1.0000   1.0000   1.0000   1.0000   1.0000   1.0000   1.0000   1.0000
     1.0000   1.0000   1.0000   1.0000   1.0000   1.0000   1.0000   1.0000
     1.0000   1.0000   1.0000   1.0000   1.0000   1.0000   1.0000   1.0000
     1.0000   1.0000   1.0000   0.0000   0.0000   0.0000   0.0000   0.0000

          k = 0.1364-0.4093-0.0000 (  3614 PWs)   bands (ev):

   -82.9164 -46.4433 -46.4430 -46.4427 -16.3515 -16.1652 -16.1364  -7.0697
    -6.8489  -6.8378  -6.8100  -6.5042   0.2070   0.8765   1.8309   1.9872
     2.5138   2.7380   2.7884   2.7953   3.0164   4.7317   4.7473   4.8174
     4.8539   4.9281   8.9657   8.9862  13.0583  13.9762  15.4252  16.4061

     occupation numbers 
     1.0000   1.0000   1.0000   1.0000   1.0000   1.0000   1.0000   1.0000
     1.0000   1.0000   1.0000   1.0000   1.0000   1.0000   1.0000   1.0000
     1.0000   1.0000   1.0000   1.0000   1.0000   1.0000   1.0000   1.0000
     1.0000   1.0000   0.0000   0.0000   0.0000   0.0000   0.0000   0.0000

          k = 0.1364-0.4093 0.1364 (  3608 PWs)   bands (ev):

   -82.9164 -46.4430 -46.4429 -46.4427 -16.3203 -16.1608 -16.1352  -7.0901
    -6.8491  -6.8479  -6.8194  -6.6292  -0.2897   1.3824   1.9963   2.0142
     2.4036   2.6835   2.8788   2.8883   3.0771   4.6983   4.8122   4.8303
     4.8345   4.8734   9.0763   9.2745  13.0988  13.5886  14.7898  15.6628

     occupation numbers 
     1.0000   1.0000   1.0000   1.0000   1.0000   1.0000   1.0000   1.0000
     1.0000   1.0000   1.0000   1.0000   1.0000   1.0000   1.0000   1.0000
     1.0000   1.0000   1.0000   1.0000   1.0000   1.0000   1.0000   1.0000
     1.0000   1.0000   0.0000   0.0000   0.0000   0.0000   0.0000   0.0000

          k = 0.1364-0.4093 0.2729 (  3606 PWs)   bands (ev):

   -82.9164 -46.4431 -46.4428 -46.4428 -16.2626 -16.1454 -16.1327  -7.1797
    -6.8699  -6.8480  -6.8383  -6.8255  -0.7170   1.6872   1.9803   2.3065
     2.3272   2.8080   2.9091   3.0346   3.2400   4.7098   4.7466   4.8034
     4.8572   4.8822   9.3617  10.1002  12.4938  12.7220  14.7267  15.2839

     occupation numbers 
     1.0000   1.0000   1.0000   1.0000   1.0000   1.0000   1.0000   1.0000
     1.0000   1.0000   1.0000   1.0000   1.0000   1.0000   1.0000   1.0000
     1.0000   1.0000   1.0000   1.0000   1.0000   1.0000   1.0000   1.0000
     1.0000   1.0000   0.0000   0.0000   0.0000   0.0000   0.0000   0.0000

          k = 0.1364-0.4093-0.4093 (  3616 PWs)   bands (ev):

   -82.9164 -46.4433 -46.4430 -46.4430 -16.2391 -16.1315 -16.1315  -7.2621
    -6.8840  -6.8804  -6.8478  -6.8478  -0.8532   1.7751   1.9567   2.3213
     2.3213   2.9135   2.9135   3.1698   3.3162   4.6463   4.7789   4.8457
     4.8545   4.8545   9.5660  10.9651  11.9318  11.9318  14.8609  15.4675

     occupation numbers 
     1.0000   1.0000   1.0000   1.0000   1.0000   1.0000   1.0000   1.0000
     1.0000   1.0000   1.0000   1.0000   1.0000   1.0000   1.0000   1.0000
     1.0000   1.0000   1.0000   1.0000   1.0000   1.0000   1.0000   1.0000
     1.0000   1.0000   0.0000   0.0000   0.0000   0.0000   0.0000   0.0000

          k = 0.1364-0.4093-0.2729 (  3606 PWs)   bands (ev):

   -82.9164 -46.4431 -46.4428 -46.4428 -16.2626 -16.1454 -16.1327  -7.1797
    -6.8699  -6.8480  -6.8383  -6.8255  -0.7170   1.6872   1.9803   2.3065
     2.3272   2.8080   2.9091   3.0346   3.2400   4.7098   4.7466   4.8034
     4.8572   4.8822   9.3617  10.1002  12.4938  12.7220  14.7267  15.2839

     occupation numbers 
     1.0000   1.0000   1.0000   1.0000   1.0000   1.0000   1.0000   1.0000
     1.0000   1.0000   1.0000   1.0000   1.0000   1.0000   1.0000   1.0000
     1.0000   1.0000   1.0000   1.0000   1.0000   1.0000   1.0000   1.0000
     1.0000   1.0000   0.0000   0.0000   0.0000   0.0000   0.0000   0.0000

          k = 0.1364-0.4093-0.1364 (  3608 PWs)   bands (ev):

   -82.9164 -46.4430 -46.4429 -46.4427 -16.3203 -16.1608 -16.1352  -7.0901
    -6.8491  -6.8479  -6.8194  -6.6292  -0.2897   1.3824   1.9963   2.0142
     2.4036   2.6835   2.8788   2.8883   3.0771   4.6983   4.8122   4.8303
     4.8345   4.8734   9.0763   9.2745  13.0988  13.5886  14.7898  15.6628

     occupation numbers 
     1.0000   1.0000   1.0000   1.0000   1.0000   1.0000   1.0000   1.0000
     1.0000   1.0000   1.0000   1.0000   1.0000   1.0000   1.0000   1.0000
     1.0000   1.0000   1.0000   1.0000   1.0000   1.0000   1.0000   1.0000
     1.0000   1.0000   0.0000   0.0000   0.0000   0.0000   0.0000   0.0000

          k = 0.1364-0.2729-0.0000 (  3612 PWs)   bands (ev):

   -82.9164 -46.4432 -46.4429 -46.4427 -16.3774 -16.1661 -16.1480  -6.9187
    -6.8392  -6.8288  -6.8101  -6.5008   0.2514   0.8381   1.6326   2.1166
     2.5799   2.7671   2.8059   2.8171   3.0248   4.6881   4.7397   4.7462
     4.8552   4.8689   7.7108   9.7525  12.9830  14.4414  15.2697  16.3059

     occupation numbers 
     1.0000   1.0000   1.0000   1.0000   1.0000   1.0000   1.0000   1.0000
     1.0000   1.0000   1.0000   1.0000   1.0000   1.0000   1.0000   1.0000
     1.0000   1.0000   1.0000   1.0000   1.0000   1.0000   1.0000   1.0000
     1.0000   1.0000   1.0000   0.0000   0.0000   0.0000   0.0000   0.0000

          k = 0.1364-0.2729 0.1364 (  3623 PWs)   bands (ev):

   -82.9164 -46.4433 -46.4431 -46.4429 -16.3464 -16.1616 -16.1468  -6.9399
    -6.8396  -6.8387  -6.8197  -6.6294  -0.2097   1.3384   1.7844   2.0887
     2.4758   2.6371   2.9043   2.9485   3.0734   4.6749   4.7213   4.7743
     4.8511   4.8878   7.9928   9.8954  12.9997  14.3176  14.3437  16.4147

     occupation numbers 
     1.0000   1.0000   1.0000   1.0000   1.0000   1.0000   1.0000   1.0000
     1.0000   1.0000   1.0000   1.0000   1.0000   1.0000   1.0000   1.0000
     1.0000   1.0000   1.0000   1.0000   1.0000   1.0000   1.0000   1.0000
     1.0000   1.0000   1.0000   0.0000   0.0000   0.0000   0.0000   0.0000

          k = 0.1364-0.2729 0.2729 (  3620 PWs)   bands (ev):

   -82.9164 -46.4433 -46.4431 -46.4429 -16.2880 -16.1491 -16.1423  -7.0669
    -6.8598  -6.8386  -6.8386  -6.7953  -0.5954   1.6120   2.0174   2.2052
     2.3800   2.6275   2.9294   3.0353   3.2011   4.6950   4.7334   4.7669
     4.8704   4.8943   8.7290  10.1772  12.5251  13.4792  14.3117  15.8454

     occupation numbers 
     1.0000   1.0000   1.0000   1.0000   1.0000   1.0000   1.0000   1.0000
     1.0000   1.0000   1.0000   1.0000   1.0000   1.0000   1.0000   1.0000
     1.0000   1.0000   1.0000   1.0000   1.0000   1.0000   1.0000   1.0000
     1.0000   1.0000   0.4973   0.0000   0.0000   0.0000   0.0000   0.0000

          k = 0.1364-0.2729-0.4093 (  3606 PWs)   bands (ev):

   -82.9164 -46.4431 -46.4428 -46.4428 -16.2626 -16.1454 -16.1327  -7.1797
    -6.8699  -6.8480  -6.8383  -6.8255  -0.7170   1.6872   1.9803   2.3065
     2.3272   2.8080   2.9091   3.0346   3.2400   4.7098   4.7466   4.8034
     4.8572   4.8822   9.3617  10.1002  12.4938  12.7220  14.7267  15.2839

     occupation numbers 
     1.0000   1.0000   1.0000   1.0000   1.0000   1.0000   1.0000   1.0000
     1.0000   1.0000   1.0000   1.0000   1.0000   1.0000   1.0000   1.0000
     1.0000   1.0000   1.0000   1.0000   1.0000   1.0000   1.0000   1.0000
     1.0000   1.0000   0.0000   0.0000   0.0000   0.0000   0.0000   0.0000

          k = 0.1364-0.2729-0.2729 (  3620 PWs)   bands (ev):

   -82.9164 -46.4433 -46.4431 -46.4429 -16.2880 -16.1492 -16.1423  -7.0669
    -6.8598  -6.8386  -6.8386  -6.7953  -0.5954   1.6120   2.0174   2.2052
     2.3800   2.6275   2.9294   3.0353   3.2011   4.6950   4.7334   4.7669
     4.8704   4.8943   8.7290  10.1772  12.5251  13.4792  14.3117  15.8454

     occupation numbers 
     1.0000   1.0000   1.0000   1.0000   1.0000   1.0000   1.0000   1.0000
     1.0000   1.0000   1.0000   1.0000   1.0000   1.0000   1.0000   1.0000
     1.0000   1.0000   1.0000   1.0000   1.0000   1.0000   1.0000   1.0000
     1.0000   1.0000   0.4973   0.0000   0.0000   0.0000   0.0000   0.0000

          k = 0.1364-0.2729-0.1364 (  3623 PWs)   bands (ev):

   -82.9164 -46.4433 -46.4431 -46.4429 -16.3464 -16.1616 -16.1468  -6.9399
    -6.8396  -6.8387  -6.8197  -6.6294  -0.2097   1.3384   1.7844   2.0887
     2.4758   2.6371   2.9043   2.9485   3.0734   4.6749   4.7213   4.7743
     4.8511   4.8878   7.9928   9.8954  12.9997  14.3176  14.3437  16.4147

     occupation numbers 
     1.0000   1.0000   1.0000   1.0000   1.0000   1.0000   1.0000   1.0000
     1.0000   1.0000   1.0000   1.0000   1.0000   1.0000   1.0000   1.0000
     1.0000   1.0000   1.0000   1.0000   1.0000   1.0000   1.0000   1.0000
     1.0000   1.0000   1.0000   0.0000   0.0000   0.0000   0.0000   0.0000

          k = 0.1364-0.1364-0.0000 (  3627 PWs)   bands (ev):

   -82.9164 -46.4432 -46.4431 -46.4429 -16.4334 -16.1692 -16.1640  -6.8205
    -6.8107  -6.8103  -6.6299  -6.4694   0.4159   0.7624   1.2141   2.3826
     2.7233   2.8132   2.8501   2.8586   2.9906   4.6232   4.6315   4.7398
     4.7488   4.7918   6.6063   9.6211  13.7617  14.6495  15.1142  17.1967

     occupation numbers 
     1.0000   1.0000   1.0000   1.0000   1.0000   1.0000   1.0000   1.0000
     1.0000   1.0000   1.0000   1.0000   1.0000   1.0000   1.0000   1.0000
     1.0000   1.0000   1.0000   1.0000   1.0000   1.0000   1.0000   1.0000
     1.0000   1.0000   1.0000   0.0000   0.0000   0.0000   0.0000   0.0000

          k = 0.1364-0.1364 0.1364 (  3620 PWs)   bands (ev):

   -82.9164 -46.4431 -46.4431 -46.4428 -16.4035 -16.1633 -16.1631  -6.8203
    -6.8200  -6.8200  -6.6297  -6.6297   0.0565   1.2542   1.2549   2.2647
     2.6559   2.6562   2.9259   2.9260   3.0372   4.6334   4.6335   4.7383
     4.8223   4.8224   6.9994   9.7750  13.9123  13.9131  14.9567  16.8401

     occupation numbers 
     1.0000   1.0000   1.0000   1.0000   1.0000   1.0000   1.0000   1.0000
     1.0000   1.0000   1.0000   1.0000   1.0000   1.0000   1.0000   1.0000
     1.0000   1.0000   1.0000   1.0000   1.0000   1.0000   1.0000   1.0000
     1.0000   1.0000   1.0000   0.0000   0.0000   0.0000   0.0000   0.0000

          k = 0.1364-0.1364 0.2729 (  3623 PWs)   bands (ev):

   -82.9164 -46.4433 -46.4431 -46.4429 -16.3464 -16.1616 -16.1468  -6.9399
    -6.8396  -6.8387  -6.8197  -6.6294  -0.2097   1.3384   1.7844   2.0887
     2.4758   2.6371   2.9043   2.9485   3.0734   4.6749   4.7213   4.7743
     4.8511   4.8878   7.9928   9.8954  12.9997  14.3176  14.3437  16.4147

     occupation numbers 
     1.0000   1.0000   1.0000   1.0000   1.0000   1.0000   1.0000   1.0000
     1.0000   1.0000   1.0000   1.0000   1.0000   1.0000   1.0000   1.0000
     1.0000   1.0000   1.0000   1.0000   1.0000   1.0000   1.0000   1.0000
     1.0000   1.0000   1.0000   0.0000   0.0000   0.0000   0.0000   0.0000

          k = 0.1364-0.1364-0.4093 (  3608 PWs)   bands (ev):

   -82.9164 -46.4430 -46.4429 -46.4427 -16.3203 -16.1608 -16.1352  -7.0901
    -6.8491  -6.8479  -6.8194  -6.6292  -0.2897   1.3824   1.9963   2.0142
     2.4036   2.6835   2.8788   2.8884   3.0771   4.6983   4.8122   4.8303
     4.8345   4.8734   9.0763   9.2745  13.0988  13.5886  14.7898  15.6628

     occupation numbers 
     1.0000   1.0000   1.0000   1.0000   1.0000   1.0000   1.0000   1.0000
     1.0000   1.0000   1.0000   1.0000   1.0000   1.0000   1.0000   1.0000
     1.0000   1.0000   1.0000   1.0000   1.0000   1.0000   1.0000   1.0000
     1.0000   1.0000   0.0000   0.0000   0.0000   0.0000   0.0000   0.0000

          k = 0.1364-0.1364-0.2729 (  3623 PWs)   bands (ev):

   -82.9164 -46.4433 -46.4431 -46.4429 -16.3464 -16.1616 -16.1468  -6.9399
    -6.8396  -6.8387  -6.8197  -6.6294  -0.2097   1.3384   1.7844   2.0887
     2.4758   2.6371   2.9043   2.9485   3.0734   4.6749   4.7213   4.7743
     4.8511   4.8878   7.9928   9.8954  12.9997  14.3176  14.3437  16.4147

     occupation numbers 
     1.0000   1.0000   1.0000   1.0000   1.0000   1.0000   1.0000   1.0000
     1.0000   1.0000   1.0000   1.0000   1.0000   1.0000   1.0000   1.0000
     1.0000   1.0000   1.0000   1.0000   1.0000   1.0000   1.0000   1.0000
     1.0000   1.0000   1.0000   0.0000   0.0000   0.0000   0.0000   0.0000

          k = 0.1364-0.1364-0.1364 (  3620 PWs)   bands (ev):

   -82.9164 -46.4431 -46.4431 -46.4428 -16.4035 -16.1633 -16.1631  -6.8203
    -6.8200  -6.8200  -6.6297  -6.6297   0.0565   1.2539   1.2552   2.2647
     2.6557   2.6564   2.9258   2.9261   3.0372   4.6334   4.6336   4.7383
     4.8223   4.8225   6.9994   9.7750  13.9119  13.9135  14.9567  16.8401

     occupation numbers 
     1.0000   1.0000   1.0000   1.0000   1.0000   1.0000   1.0000   1.0000
     1.0000   1.0000   1.0000   1.0000   1.0000   1.0000   1.0000   1.0000
     1.0000   1.0000   1.0000   1.0000   1.0000   1.0000   1.0000   1.0000
     1.0000   1.0000   1.0000   0.0000   0.0000   0.0000   0.0000   0.0000

          k = 0.2729 0.0000 0.0000 (  3619 PWs)   bands (ev):

   -82.9164 -46.4431 -46.4431 -46.4428 -16.4071 -16.1717 -16.1494  -6.8820
    -6.8289  -6.8289  -6.8008  -6.3798   0.7945   0.7945   0.9615   2.1756
     2.7039   2.7840   2.7840   2.8485   2.8485   4.6546   4.6807   4.7579
     4.8678   4.8678   7.3973   9.5827  13.1433  15.2501  15.2501  17.1042

     occupation numbers 
     1.0000   1.0000   1.0000   1.0000   1.0000   1.0000   1.0000   1.0000
     1.0000   1.0000   1.0000   1.0000   1.0000   1.0000   1.0000   1.0000
     1.0000   1.0000   1.0000   1.0000   1.0000   1.0000   1.0000   1.0000
     1.0000   1.0000   1.0000   0.0000   0.0000   0.0000   0.0000   0.0000

          k = 0.2729 0.0000 0.1364 (  3612 PWs)   bands (ev):

   -82.9164 -46.4432 -46.4429 -46.4427 -16.3774 -16.1661 -16.1480  -6.9187
    -6.8392  -6.8288  -6.8101  -6.5008   0.2514   0.8381   1.6326   2.1166
     2.5799   2.7671   2.8059   2.8170   3.0248   4.6881   4.7397   4.7462
     4.8552   4.8689   7.7108   9.7525  12.9830  14.4414  15.2697  16.3059

     occupation numbers 
     1.0000   1.0000   1.0000   1.0000   1.0000   1.0000   1.0000   1.0000
     1.0000   1.0000   1.0000   1.0000   1.0000   1.0000   1.0000   1.0000
     1.0000   1.0000   1.0000   1.0000   1.0000   1.0000   1.0000   1.0000
     1.0000   1.0000   1.0000   0.0000   0.0000   0.0000   0.0000   0.0000

          k = 0.2729 0.0000 0.2729 (  3604 PWs)   bands (ev):

   -82.9164 -46.4430 -46.4429 -46.4427 -16.3217 -16.1515 -16.1431  -7.0669
    -6.8601  -6.8285  -6.8283  -6.6587  -0.0976   0.9280   1.9950   2.1949
     2.5035   2.7291   2.7296   2.9086   3.1864   4.6951   4.7945   4.8203
     4.8666   4.8751   8.5334  10.0823  12.3075  13.4506  15.3385  16.1457

     occupation numbers 
     1.0000   1.0000   1.0000   1.0000   1.0000   1.0000   1.0000   1.0000
     1.0000   1.0000   1.0000   1.0000   1.0000   1.0000   1.0000   1.0000
     1.0000   1.0000   1.0000   1.0000   1.0000   1.0000   1.0000   1.0000
     1.0000   1.0000   1.0014   0.0000   0.0000   0.0000   0.0000   0.0000

          k = 0.2729-0.0000-0.4093 (  3604 PWs)   bands (ev):

   -82.9164 -46.4431 -46.4429 -46.4426 -16.2972 -16.1468 -16.1337  -7.1774
    -6.8703  -6.8375  -6.8284  -6.6971  -0.2042   0.9745   1.9386   2.3847
     2.4727   2.6949   2.7081   2.9930   3.2206   4.7199   4.7780   4.8347
     4.8719   4.9303   9.3351   9.8634  12.4267  12.5135  15.4067  16.1570

     occupation numbers 
     1.0000   1.0000   1.0000   1.0000   1.0000   1.0000   1.0000   1.0000
     1.0000   1.0000   1.0000   1.0000   1.0000   1.0000   1.0000   1.0000
     1.0000   1.0000   1.0000   1.0000   1.0000   1.0000   1.0000   1.0000
     1.0000   1.0000   0.0000   0.0000   0.0000   0.0000   0.0000   0.0000

          k = 0.2729-0.0000-0.2729 (  3604 PWs)   bands (ev):

   -82.9164 -46.4430 -46.4429 -46.4427 -16.3217 -16.1515 -16.1431  -7.0669
    -6.8601  -6.8285  -6.8283  -6.6587  -0.0976   0.9280   1.9950   2.1949
     2.5035   2.7291   2.7296   2.9086   3.1864   4.6951   4.7945   4.8203
     4.8666   4.8751   8.5334  10.0823  12.3075  13.4506  15.3385  16.1457

     occupation numbers 
     1.0000   1.0000   1.0000   1.0000   1.0000   1.0000   1.0000   1.0000
     1.0000   1.0000   1.0000   1.0000   1.0000   1.0000   1.0000   1.0000
     1.0000   1.0000   1.0000   1.0000   1.0000   1.0000   1.0000   1.0000
     1.0000   1.0000   1.0014   0.0000   0.0000   0.0000   0.0000   0.0000

          k = 0.2729-0.0000-0.1364 (  3612 PWs)   bands (ev):

   -82.9164 -46.4432 -46.4429 -46.4427 -16.3774 -16.1661 -16.1480  -6.9187
    -6.8392  -6.8288  -6.8101  -6.5008   0.2514   0.8381   1.6326   2.1166
     2.5799   2.7671   2.8059   2.8171   3.0248   4.6881   4.7397   4.7462
     4.8552   4.8689   7.7108   9.7525  12.9830  14.4414  15.2697  16.3059

     occupation numbers 
     1.0000   1.0000   1.0000   1.0000   1.0000   1.0000   1.0000   1.0000
     1.0000   1.0000   1.0000   1.0000   1.0000   1.0000   1.0000   1.0000
     1.0000   1.0000   1.0000   1.0000   1.0000   1.0000   1.0000   1.0000
     1.0000   1.0000   1.0000   0.0000   0.0000   0.0000   0.0000   0.0000

          k = 0.2729 0.1364 0.0000 (  3612 PWs)   bands (ev):

   -82.9164 -46.4432 -46.4429 -46.4427 -16.3774 -16.1661 -16.1480  -6.9187
    -6.8392  -6.8288  -6.8101  -6.5008   0.2514   0.8381   1.6326   2.1166
     2.5799   2.7671   2.8059   2.8170   3.0248   4.6881   4.7397   4.7462
     4.8552   4.8689   7.7108   9.7525  12.9830  14.4414  15.2697  16.3059

     occupation numbers 
     1.0000   1.0000   1.0000   1.0000   1.0000   1.0000   1.0000   1.0000
     1.0000   1.0000   1.0000   1.0000   1.0000   1.0000   1.0000   1.0000
     1.0000   1.0000   1.0000   1.0000   1.0000   1.0000   1.0000   1.0000
     1.0000   1.0000   1.0000   0.0000   0.0000   0.0000   0.0000   0.0000

          k = 0.2729 0.1364 0.1364 (  3623 PWs)   bands (ev):

   -82.9164 -46.4433 -46.4431 -46.4429 -16.3464 -16.1616 -16.1468  -6.9399
    -6.8396  -6.8387  -6.8197  -6.6294  -0.2097   1.3384   1.7844   2.0887
     2.4758   2.6371   2.9043   2.9485   3.0734   4.6749   4.7213   4.7743
     4.8511   4.8878   7.9928   9.8954  12.9997  14.3176  14.3437  16.4147

     occupation numbers 
     1.0000   1.0000   1.0000   1.0000   1.0000   1.0000   1.0000   1.0000
     1.0000   1.0000   1.0000   1.0000   1.0000   1.0000   1.0000   1.0000
     1.0000   1.0000   1.0000   1.0000   1.0000   1.0000   1.0000   1.0000
     1.0000   1.0000   1.0000   0.0000   0.0000   0.0000   0.0000   0.0000

          k = 0.2729 0.1364 0.2729 (  3620 PWs)   bands (ev):

   -82.9164 -46.4433 -46.4431 -46.4429 -16.2880 -16.1491 -16.1423  -7.0669
    -6.8598  -6.8386  -6.8386  -6.7953  -0.5954   1.6120   2.0174   2.2052
     2.3800   2.6275   2.9294   3.0353   3.2011   4.6950   4.7334   4.7669
     4.8704   4.8943   8.7290  10.1772  12.5251  13.4792  14.3117  15.8454

     occupation numbers 
     1.0000   1.0000   1.0000   1.0000   1.0000   1.0000   1.0000   1.0000
     1.0000   1.0000   1.0000   1.0000   1.0000   1.0000   1.0000   1.0000
     1.0000   1.0000   1.0000   1.0000   1.0000   1.0000   1.0000   1.0000
     1.0000   1.0000   0.4973   0.0000   0.0000   0.0000   0.0000   0.0000

          k = 0.2729 0.1364-0.4093 (  3606 PWs)   bands (ev):

   -82.9164 -46.4431 -46.4428 -46.4428 -16.2626 -16.1454 -16.1327  -7.1797
    -6.8699  -6.8480  -6.8383  -6.8255  -0.7170   1.6872   1.9803   2.3065
     2.3272   2.8080   2.9091   3.0346   3.2400   4.7098   4.7466   4.8034
     4.8572   4.8822   9.3617  10.1002  12.4938  12.7220  14.7267  15.2839

     occupation numbers 
     1.0000   1.0000   1.0000   1.0000   1.0000   1.0000   1.0000   1.0000
     1.0000   1.0000   1.0000   1.0000   1.0000   1.0000   1.0000   1.0000
     1.0000   1.0000   1.0000   1.0000   1.0000   1.0000   1.0000   1.0000
     1.0000   1.0000   0.0000   0.0000   0.0000   0.0000   0.0000   0.0000

          k = 0.2729 0.1364-0.2729 (  3620 PWs)   bands (ev):

   -82.9164 -46.4433 -46.4431 -46.4429 -16.2880 -16.1491 -16.1423  -7.0669
    -6.8598  -6.8386  -6.8386  -6.7953  -0.5954   1.6120   2.0174   2.2052
     2.3800   2.6275   2.9294   3.0353   3.2011   4.6950   4.7334   4.7669
     4.8704   4.8943   8.7290  10.1772  12.5251  13.4792  14.3117  15.8454

     occupation numbers 
     1.0000   1.0000   1.0000   1.0000   1.0000   1.0000   1.0000   1.0000
     1.0000   1.0000   1.0000   1.0000   1.0000   1.0000   1.0000   1.0000
     1.0000   1.0000   1.0000   1.0000   1.0000   1.0000   1.0000   1.0000
     1.0000   1.0000   0.4973   0.0000   0.0000   0.0000   0.0000   0.0000

          k = 0.2729 0.1364-0.1364 (  3623 PWs)   bands (ev):

   -82.9164 -46.4433 -46.4431 -46.4429 -16.3464 -16.1616 -16.1468  -6.9399
    -6.8396  -6.8387  -6.8197  -6.6294  -0.2097   1.3384   1.7844   2.0887
     2.4758   2.6371   2.9043   2.9485   3.0734   4.6749   4.7213   4.7743
     4.8511   4.8878   7.9928   9.8954  12.9997  14.3176  14.3437  16.4147

     occupation numbers 
     1.0000   1.0000   1.0000   1.0000   1.0000   1.0000   1.0000   1.0000
     1.0000   1.0000   1.0000   1.0000   1.0000   1.0000   1.0000   1.0000
     1.0000   1.0000   1.0000   1.0000   1.0000   1.0000   1.0000   1.0000
     1.0000   1.0000   1.0000   0.0000   0.0000   0.0000   0.0000   0.0000

          k = 0.2729 0.2729 0.0000 (  3604 PWs)   bands (ev):

   -82.9164 -46.4430 -46.4429 -46.4427 -16.3217 -16.1515 -16.1431  -7.0669
    -6.8601  -6.8285  -6.8283  -6.6587  -0.0976   0.9280   1.9950   2.1949
     2.5034   2.7291   2.7296   2.9086   3.1864   4.6951   4.7945   4.8203
     4.8666   4.8751   8.5334  10.0823  12.3075  13.4506  15.3385  16.1457

     occupation numbers 
     1.0000   1.0000   1.0000   1.0000   1.0000   1.0000   1.0000   1.0000
     1.0000   1.0000   1.0000   1.0000   1.0000   1.0000   1.0000   1.0000
     1.0000   1.0000   1.0000   1.0000   1.0000   1.0000   1.0000   1.0000
     1.0000   1.0000   1.0014   0.0000   0.0000   0.0000   0.0000   0.0000

          k = 0.2729 0.2729 0.1364 (  3620 PWs)   bands (ev):

   -82.9164 -46.4433 -46.4431 -46.4429 -16.2880 -16.1491 -16.1423  -7.0669
    -6.8598  -6.8386  -6.8386  -6.7953  -0.5954   1.6120   2.0174   2.2052
     2.3800   2.6275   2.9294   3.0353   3.2011   4.6950   4.7334   4.7669
     4.8704   4.8943   8.7290  10.1772  12.5251  13.4792  14.3117  15.8454

     occupation numbers 
     1.0000   1.0000   1.0000   1.0000   1.0000   1.0000   1.0000   1.0000
     1.0000   1.0000   1.0000   1.0000   1.0000   1.0000   1.0000   1.0000
     1.0000   1.0000   1.0000   1.0000   1.0000   1.0000   1.0000   1.0000
     1.0000   1.0000   0.4973   0.0000   0.0000   0.0000   0.0000   0.0000

          k = 0.2729 0.2729 0.2729 (  3614 PWs)   bands (ev):

   -82.9164 -46.4431 -46.4431 -46.4430 -16.2225 -16.1409 -16.1405  -7.0665
    -7.0665  -6.8594  -6.8583  -6.8582  -1.0615   2.0493   2.2078   2.2089
     2.5514   2.5534   3.1498   3.1502   3.2551   4.6919   4.6943   4.6946
     4.8559   4.8560   9.1674  10.4833  13.1407  13.1422  13.3626  15.2849

     occupation numbers 
     1.0000   1.0000   1.0000   1.0000   1.0000   1.0000   1.0000   1.0000
     1.0000   1.0000   1.0000   1.0000   1.0000   1.0000   1.0000   1.0000
     1.0000   1.0000   1.0000   1.0000   1.0000   1.0000   1.0000   1.0000
     1.0000   1.0000   0.0000   0.0000   0.0000   0.0000   0.0000   0.0000

          k = 0.2729 0.2729-0.4093 (  3608 PWs)   bands (ev):

   -82.9164 -46.4432 -46.4430 -46.4428 -16.1943 -16.1399 -16.1309  -7.2006
    -7.0663  -6.8693  -6.8681  -6.8581  -1.2130   2.0554   2.2007   2.2115
     2.5399   2.9626   3.1478   3.1763   3.2947   4.6706   4.6925   4.7229
     4.7924   4.8409   9.3976  10.8042  12.5982  13.1055  14.0507  14.1202

     occupation numbers 
     1.0000   1.0000   1.0000   1.0000   1.0000   1.0000   1.0000   1.0000
     1.0000   1.0000   1.0000   1.0000   1.0000   1.0000   1.0000   1.0000
     1.0000   1.0000   1.0000   1.0000   1.0000   1.0000   1.0000   1.0000
     1.0000   1.0000   0.0000   0.0000   0.0000   0.0000   0.0000   0.0000

          k = 0.2729 0.2729-0.2729 (  3614 PWs)   bands (ev):

   -82.9164 -46.4431 -46.4431 -46.4430 -16.2225 -16.1407 -16.1407  -7.0665
    -7.0665  -6.8594  -6.8582  -6.8582  -1.0615   2.0493   2.2084   2.2084
     2.5524   2.5524   3.1500   3.1500   3.2551   4.6919   4.6944   4.6944
     4.8560   4.8560   9.1674  10.4833  13.1414  13.1415  13.3626  15.2875

     occupation numbers 
     1.0000   1.0000   1.0000   1.0000   1.0000   1.0000   1.0000   1.0000
     1.0000   1.0000   1.0000   1.0000   1.0000   1.0000   1.0000   1.0000
     1.0000   1.0000   1.0000   1.0000   1.0000   1.0000   1.0000   1.0000
     1.0000   1.0000   0.0000   0.0000   0.0000   0.0000   0.0000   0.0000

          k = 0.2729 0.2729-0.1364 (  3620 PWs)   bands (ev):

   -82.9164 -46.4433 -46.4431 -46.4429 -16.2880 -16.1491 -16.1423  -7.0669
    -6.8598  -6.8386  -6.8386  -6.7953  -0.5954   1.6120   2.0174   2.2052
     2.3800   2.6275   2.9294   3.0353   3.2011   4.6950   4.7334   4.7669
     4.8704   4.8943   8.7290  10.1772  12.5251  13.4792  14.3117  15.8454

     occupation numbers 
     1.0000   1.0000   1.0000   1.0000   1.0000   1.0000   1.0000   1.0000
     1.0000   1.0000   1.0000   1.0000   1.0000   1.0000   1.0000   1.0000
     1.0000   1.0000   1.0000   1.0000   1.0000   1.0000   1.0000   1.0000
     1.0000   1.0000   0.4973   0.0000   0.0000   0.0000   0.0000   0.0000

          k = 0.2729-0.4093-0.0000 (  3604 PWs)   bands (ev):

   -82.9164 -46.4431 -46.4429 -46.4426 -16.2972 -16.1468 -16.1337  -7.1774
    -6.8703  -6.8375  -6.8284  -6.6971  -0.2042   0.9745   1.9386   2.3847
     2.4727   2.6949   2.7081   2.9930   3.2206   4.7199   4.7780   4.8347
     4.8719   4.9303   9.3351   9.8634  12.4267  12.5135  15.4067  16.1570

     occupation numbers 
     1.0000   1.0000   1.0000   1.0000   1.0000   1.0000   1.0000   1.0000
     1.0000   1.0000   1.0000   1.0000   1.0000   1.0000   1.0000   1.0000
     1.0000   1.0000   1.0000   1.0000   1.0000   1.0000   1.0000   1.0000
     1.0000   1.0000   0.0000   0.0000   0.0000   0.0000   0.0000   0.0000

          k = 0.2729-0.4093 0.1364 (  3606 PWs)   bands (ev):

   -82.9164 -46.4431 -46.4428 -46.4428 -16.2626 -16.1454 -16.1327  -7.1797
    -6.8699  -6.8480  -6.8383  -6.8255  -0.7170   1.6872   1.9803   2.3065
     2.3272   2.8080   2.9091   3.0346   3.2400   4.7098   4.7466   4.8034
     4.8572   4.8822   9.3617  10.1002  12.4938  12.7220  14.7267  15.2839

     occupation numbers 
     1.0000   1.0000   1.0000   1.0000   1.0000   1.0000   1.0000   1.0000
     1.0000   1.0000   1.0000   1.0000   1.0000   1.0000   1.0000   1.0000
     1.0000   1.0000   1.0000   1.0000   1.0000   1.0000   1.0000   1.0000
     1.0000   1.0000   0.0000   0.0000   0.0000   0.0000   0.0000   0.0000

          k = 0.2729-0.4093 0.2729 (  3608 PWs)   bands (ev):

   -82.9164 -46.4432 -46.4430 -46.4428 -16.1943 -16.1399 -16.1309  -7.2006
    -7.0663  -6.8693  -6.8681  -6.8581  -1.2130   2.0554   2.2007   2.2115
     2.5399   2.9626   3.1479   3.1763   3.2947   4.6706   4.6925   4.7229
     4.7924   4.8409   9.3976  10.8042  12.5982  13.1055  14.0508  14.1202

     occupation numbers 
     1.0000   1.0000   1.0000   1.0000   1.0000   1.0000   1.0000   1.0000
     1.0000   1.0000   1.0000   1.0000   1.0000   1.0000   1.0000   1.0000
     1.0000   1.0000   1.0000   1.0000   1.0000   1.0000   1.0000   1.0000
     1.0000   1.0000   0.0000   0.0000   0.0000   0.0000   0.0000   0.0000

          k = 0.2729-0.4093-0.4093 (  3612 PWs)   bands (ev):

   -82.9164 -46.4433 -46.4429 -46.4429 -16.1664 -16.1299 -16.1299  -7.2618
    -7.1355  -6.8789  -6.8681  -6.8681  -1.3758   2.0721   2.1802   2.1802
     2.7605   3.1716   3.2218   3.2218   3.3501   4.6144   4.6871   4.6871
     4.7813   4.8033   9.4063  11.5701  12.5795  12.5795  14.0942  14.2712

     occupation numbers 
     1.0000   1.0000   1.0000   1.0000   1.0000   1.0000   1.0000   1.0000
     1.0000   1.0000   1.0000   1.0000   1.0000   1.0000   1.0000   1.0000
     1.0000   1.0000   1.0000   1.0000   1.0000   1.0000   1.0000   1.0000
     1.0000   1.0000   0.0000   0.0000   0.0000   0.0000   0.0000   0.0000

          k = 0.2729-0.4093-0.2729 (  3608 PWs)   bands (ev):

   -82.9164 -46.4432 -46.4430 -46.4428 -16.1943 -16.1399 -16.1309  -7.2006
    -7.0663  -6.8693  -6.8681  -6.8581  -1.2130   2.0554   2.2007   2.2115
     2.5399   2.9626   3.1479   3.1763   3.2947   4.6706   4.6925   4.7229
     4.7924   4.8409   9.3976  10.8042  12.5982  13.1055  14.0508  14.1202

     occupation numbers 
     1.0000   1.0000   1.0000   1.0000   1.0000   1.0000   1.0000   1.0000
     1.0000   1.0000   1.0000   1.0000   1.0000   1.0000   1.0000   1.0000
     1.0000   1.0000   1.0000   1.0000   1.0000   1.0000   1.0000   1.0000
     1.0000   1.0000   0.0000   0.0000   0.0000   0.0000   0.0000   0.0000

          k = 0.2729-0.4093-0.1364 (  3606 PWs)   bands (ev):

   -82.9164 -46.4431 -46.4428 -46.4428 -16.2626 -16.1454 -16.1327  -7.1797
    -6.8699  -6.8480  -6.8383  -6.8255  -0.7170   1.6872   1.9803   2.3065
     2.3272   2.8080   2.9091   3.0346   3.2400   4.7098   4.7466   4.8034
     4.8572   4.8822   9.3617  10.1002  12.4938  12.7220  14.7267  15.2839

     occupation numbers 
     1.0000   1.0000   1.0000   1.0000   1.0000   1.0000   1.0000   1.0000
     1.0000   1.0000   1.0000   1.0000   1.0000   1.0000   1.0000   1.0000
     1.0000   1.0000   1.0000   1.0000   1.0000   1.0000   1.0000   1.0000
     1.0000   1.0000   0.0000   0.0000   0.0000   0.0000   0.0000   0.0000

          k = 0.2729-0.2729-0.0000 (  3604 PWs)   bands (ev):

   -82.9164 -46.4430 -46.4429 -46.4427 -16.3217 -16.1515 -16.1431  -7.0669
    -6.8601  -6.8285  -6.8283  -6.6587  -0.0976   0.9280   1.9950   2.1949
     2.5034   2.7291   2.7295   2.9086   3.1864   4.6951   4.7945   4.8203
     4.8666   4.8751   8.5334  10.0823  12.3075  13.4506  15.3385  16.1457

     occupation numbers 
     1.0000   1.0000   1.0000   1.0000   1.0000   1.0000   1.0000   1.0000
     1.0000   1.0000   1.0000   1.0000   1.0000   1.0000   1.0000   1.0000
     1.0000   1.0000   1.0000   1.0000   1.0000   1.0000   1.0000   1.0000
     1.0000   1.0000   1.0014   0.0000   0.0000   0.0000   0.0000   0.0000

          k = 0.2729-0.2729 0.1364 (  3620 PWs)   bands (ev):

   -82.9164 -46.4433 -46.4431 -46.4429 -16.2880 -16.1491 -16.1423  -7.0669
    -6.8598  -6.8386  -6.8386  -6.7953  -0.5954   1.6120   2.0174   2.2052
     2.3800   2.6275   2.9294   3.0353   3.2011   4.6950   4.7334   4.7669
     4.8704   4.8943   8.7290  10.1772  12.5251  13.4792  14.3117  15.8454

     occupation numbers 
     1.0000   1.0000   1.0000   1.0000   1.0000   1.0000   1.0000   1.0000
     1.0000   1.0000   1.0000   1.0000   1.0000   1.0000   1.0000   1.0000
     1.0000   1.0000   1.0000   1.0000   1.0000   1.0000   1.0000   1.0000
     1.0000   1.0000   0.4973   0.0000   0.0000   0.0000   0.0000   0.0000

          k = 0.2729-0.2729 0.2729 (  3614 PWs)   bands (ev):

   -82.9164 -46.4431 -46.4431 -46.4430 -16.2225 -16.1408 -16.1407  -7.0665
    -7.0665  -6.8594  -6.8582  -6.8582  -1.0615   2.0493   2.2082   2.2085
     2.5521   2.5527   3.1499   3.1501   3.2551   4.6919   4.6944   4.6945
     4.8560   4.8560   9.1674  10.4833  13.1412  13.1417  13.3626  15.2872

     occupation numbers 
     1.0000   1.0000   1.0000   1.0000   1.0000   1.0000   1.0000   1.0000
     1.0000   1.0000   1.0000   1.0000   1.0000   1.0000   1.0000   1.0000
     1.0000   1.0000   1.0000   1.0000   1.0000   1.0000   1.0000   1.0000
     1.0000   1.0000   0.0000   0.0000   0.0000   0.0000   0.0000   0.0000

          k = 0.2729-0.2729-0.4093 (  3608 PWs)   bands (ev):

   -82.9164 -46.4432 -46.4430 -46.4428 -16.1943 -16.1399 -16.1309  -7.2006
    -7.0663  -6.8693  -6.8681  -6.8581  -1.2130   2.0554   2.2007   2.2115
     2.5399   2.9626   3.1478   3.1763   3.2947   4.6706   4.6925   4.7229
     4.7924   4.8409   9.3976  10.8042  12.5982  13.1055  14.0507  14.1202

     occupation numbers 
     1.0000   1.0000   1.0000   1.0000   1.0000   1.0000   1.0000   1.0000
     1.0000   1.0000   1.0000   1.0000   1.0000   1.0000   1.0000   1.0000
     1.0000   1.0000   1.0000   1.0000   1.0000   1.0000   1.0000   1.0000
     1.0000   1.0000   0.0000   0.0000   0.0000   0.0000   0.0000   0.0000

          k = 0.2729-0.2729-0.2729 (  3614 PWs)   bands (ev):

   -82.9164 -46.4431 -46.4431 -46.4430 -16.2225 -16.1408 -16.1406  -7.0665
    -7.0665  -6.8594  -6.8582  -6.8582  -1.0615   2.0493   2.2080   2.2087
     2.5518   2.5530   3.1499   3.1502   3.2551   4.6919   4.6943   4.6945
     4.8559   4.8560   9.1674  10.4833  13.1409  13.1420  13.3626  15.2858

     occupation numbers 
     1.0000   1.0000   1.0000   1.0000   1.0000   1.0000   1.0000   1.0000
     1.0000   1.0000   1.0000   1.0000   1.0000   1.0000   1.0000   1.0000
     1.0000   1.0000   1.0000   1.0000   1.0000   1.0000   1.0000   1.0000
     1.0000   1.0000   0.0000   0.0000   0.0000   0.0000   0.0000   0.0000

          k = 0.2729-0.2729-0.1364 (  3620 PWs)   bands (ev):

   -82.9164 -46.4433 -46.4431 -46.4429 -16.2880 -16.1491 -16.1423  -7.0669
    -6.8598  -6.8386  -6.8386  -6.7953  -0.5954   1.6120   2.0174   2.2052
     2.3800   2.6275   2.9294   3.0353   3.2011   4.6950   4.7334   4.7669
     4.8704   4.8943   8.7290  10.1772  12.5251  13.4792  14.3117  15.8454

     occupation numbers 
     1.0000   1.0000   1.0000   1.0000   1.0000   1.0000   1.0000   1.0000
     1.0000   1.0000   1.0000   1.0000   1.0000   1.0000   1.0000   1.0000
     1.0000   1.0000   1.0000   1.0000   1.0000   1.0000   1.0000   1.0000
     1.0000   1.0000   0.4973   0.0000   0.0000   0.0000   0.0000   0.0000

          k = 0.2729-0.1364 0.0000 (  3612 PWs)   bands (ev):

   -82.9164 -46.4432 -46.4429 -46.4427 -16.3774 -16.1661 -16.1480  -6.9187
    -6.8392  -6.8288  -6.8101  -6.5008   0.2514   0.8381   1.6326   2.1166
     2.5799   2.7671   2.8059   2.8170   3.0248   4.6881   4.7397   4.7462
     4.8552   4.8689   7.7108   9.7525  12.9830  14.4414  15.2697  16.3059

     occupation numbers 
     1.0000   1.0000   1.0000   1.0000   1.0000   1.0000   1.0000   1.0000
     1.0000   1.0000   1.0000   1.0000   1.0000   1.0000   1.0000   1.0000
     1.0000   1.0000   1.0000   1.0000   1.0000   1.0000   1.0000   1.0000
     1.0000   1.0000   1.0000   0.0000   0.0000   0.0000   0.0000   0.0000

          k = 0.2729-0.1364 0.1364 (  3623 PWs)   bands (ev):

   -82.9164 -46.4433 -46.4431 -46.4429 -16.3464 -16.1616 -16.1468  -6.9399
    -6.8396  -6.8387  -6.8197  -6.6294  -0.2097   1.3384   1.7844   2.0887
     2.4758   2.6371   2.9043   2.9485   3.0734   4.6749   4.7213   4.7743
     4.8511   4.8878   7.9928   9.8954  12.9997  14.3176  14.3437  16.4147

     occupation numbers 
     1.0000   1.0000   1.0000   1.0000   1.0000   1.0000   1.0000   1.0000
     1.0000   1.0000   1.0000   1.0000   1.0000   1.0000   1.0000   1.0000
     1.0000   1.0000   1.0000   1.0000   1.0000   1.0000   1.0000   1.0000
     1.0000   1.0000   1.0000   0.0000   0.0000   0.0000   0.0000   0.0000

          k = 0.2729-0.1364 0.2729 (  3620 PWs)   bands (ev):

   -82.9164 -46.4433 -46.4431 -46.4429 -16.2880 -16.1491 -16.1423  -7.0669
    -6.8598  -6.8386  -6.8386  -6.7953  -0.5954   1.6120   2.0174   2.2052
     2.3800   2.6275   2.9294   3.0353   3.2011   4.6950   4.7334   4.7669
     4.8704   4.8943   8.7290  10.1772  12.5251  13.4792  14.3117  15.8454

     occupation numbers 
     1.0000   1.0000   1.0000   1.0000   1.0000   1.0000   1.0000   1.0000
     1.0000   1.0000   1.0000   1.0000   1.0000   1.0000   1.0000   1.0000
     1.0000   1.0000   1.0000   1.0000   1.0000   1.0000   1.0000   1.0000
     1.0000   1.0000   0.4973   0.0000   0.0000   0.0000   0.0000   0.0000

          k = 0.2729-0.1364-0.4093 (  3606 PWs)   bands (ev):

   -82.9164 -46.4431 -46.4428 -46.4428 -16.2626 -16.1454 -16.1327  -7.1797
    -6.8699  -6.8480  -6.8383  -6.8255  -0.7170   1.6872   1.9803   2.3065
     2.3272   2.8080   2.9091   3.0346   3.2400   4.7098   4.7466   4.8034
     4.8572   4.8822   9.3617  10.1002  12.4938  12.7220  14.7267  15.2839

     occupation numbers 
     1.0000   1.0000   1.0000   1.0000   1.0000   1.0000   1.0000   1.0000
     1.0000   1.0000   1.0000   1.0000   1.0000   1.0000   1.0000   1.0000
     1.0000   1.0000   1.0000   1.0000   1.0000   1.0000   1.0000   1.0000
     1.0000   1.0000   0.0000   0.0000   0.0000   0.0000   0.0000   0.0000

          k = 0.2729-0.1364-0.2729 (  3620 PWs)   bands (ev):

   -82.9164 -46.4433 -46.4431 -46.4429 -16.2880 -16.1491 -16.1423  -7.0669
    -6.8598  -6.8386  -6.8386  -6.7953  -0.5954   1.6120   2.0174   2.2052
     2.3800   2.6275   2.9294   3.0353   3.2011   4.6950   4.7334   4.7669
     4.8704   4.8943   8.7290  10.1772  12.5251  13.4792  14.3117  15.8454

     occupation numbers 
     1.0000   1.0000   1.0000   1.0000   1.0000   1.0000   1.0000   1.0000
     1.0000   1.0000   1.0000   1.0000   1.0000   1.0000   1.0000   1.0000
     1.0000   1.0000   1.0000   1.0000   1.0000   1.0000   1.0000   1.0000
     1.0000   1.0000   0.4973   0.0000   0.0000   0.0000   0.0000   0.0000

          k = 0.2729-0.1364-0.1364 (  3623 PWs)   bands (ev):

   -82.9164 -46.4433 -46.4431 -46.4429 -16.3464 -16.1616 -16.1468  -6.9399
    -6.8396  -6.8387  -6.8197  -6.6294  -0.2097   1.3384   1.7844   2.0887
     2.4758   2.6371   2.9043   2.9485   3.0734   4.6749   4.7213   4.7743
     4.8511   4.8878   7.9928   9.8954  12.9997  14.3176  14.3437  16.4147

     occupation numbers 
     1.0000   1.0000   1.0000   1.0000   1.0000   1.0000   1.0000   1.0000
     1.0000   1.0000   1.0000   1.0000   1.0000   1.0000   1.0000   1.0000
     1.0000   1.0000   1.0000   1.0000   1.0000   1.0000   1.0000   1.0000
     1.0000   1.0000   1.0000   0.0000   0.0000   0.0000   0.0000   0.0000

          k =-0.4093-0.0000-0.0000 (  3588 PWs)   bands (ev):

   -82.9164 -46.4426 -46.4426 -46.4426 -16.3812 -16.1709 -16.1378  -7.0400
    -6.8377  -6.8377  -6.8003  -6.3795   0.8295   0.8295   1.0616   1.9919
     2.6387   2.7575   2.7575   2.8322   2.8322   4.6821   4.6947   4.8211
     4.9272   4.9272   8.6737   8.8344  13.1200  15.4336  15.4336  16.5351

     occupation numbers 
     1.0000   1.0000   1.0000   1.0000   1.0000   1.0000   1.0000   1.0000
     1.0000   1.0000   1.0000   1.0000   1.0000   1.0000   1.0000   1.0000
     1.0000   1.0000   1.0000   1.0000   1.0000   1.0000   1.0000   1.0000
     1.0000   1.0000   1.0100   0.0058   0.0000   0.0000   0.0000   0.0000

          k =-0.4093-0.0000 0.1364 (  3614 PWs)   bands (ev):

   -82.9164 -46.4433 -46.4430 -46.4427 -16.3515 -16.1652 -16.1364  -7.0697
    -6.8489  -6.8378  -6.8100  -6.5042   0.2070   0.8765   1.8309   1.9872
     2.5139   2.7380   2.7884   2.7953   3.0164   4.7317   4.7473   4.8174
     4.8539   4.9281   8.9657   8.9862  13.0583  13.9762  15.4252  16.4061

     occupation numbers 
     1.0000   1.0000   1.0000   1.0000   1.0000   1.0000   1.0000   1.0000
     1.0000   1.0000   1.0000   1.0000   1.0000   1.0000   1.0000   1.0000
     1.0000   1.0000   1.0000   1.0000   1.0000   1.0000   1.0000   1.0000
     1.0000   1.0000   0.0000   0.0000   0.0000   0.0000   0.0000   0.0000

          k =-0.4093 0.0000 0.2729 (  3604 PWs)   bands (ev):

   -82.9164 -46.4431 -46.4429 -46.4426 -16.2972 -16.1468 -16.1337  -7.1774
    -6.8703  -6.8375  -6.8284  -6.6971  -0.2042   0.9745   1.9386   2.3847
     2.4727   2.6949   2.7081   2.9930   3.2206   4.7199   4.7780   4.8347
     4.8719   4.9303   9.3351   9.8634  12.4267  12.5135  15.4067  16.1570

     occupation numbers 
     1.0000   1.0000   1.0000   1.0000   1.0000   1.0000   1.0000   1.0000
     1.0000   1.0000   1.0000   1.0000   1.0000   1.0000   1.0000   1.0000
     1.0000   1.0000   1.0000   1.0000   1.0000   1.0000   1.0000   1.0000
     1.0000   1.0000   0.0000   0.0000   0.0000   0.0000   0.0000   0.0000

          k =-0.4093-0.0000-0.4093 (  3628 PWs)   bands (ev):

   -82.9164 -46.4433 -46.4433 -46.4433 -16.2744 -16.1323 -16.1323  -7.2623
    -6.8813  -6.8377  -6.8377  -6.7591  -0.3310   1.0258   1.9016   2.4896
     2.4896   2.6710   2.6710   3.1688   3.2999   4.6582   4.7767   4.8661
     4.9313   4.9313   9.6415  10.7677  11.6961  11.6961  15.3963  16.0368

     occupation numbers 
     1.0000   1.0000   1.0000   1.0000   1.0000   1.0000   1.0000   1.0000
     1.0000   1.0000   1.0000   1.0000   1.0000   1.0000   1.0000   1.0000
     1.0000   1.0000   1.0000   1.0000   1.0000   1.0000   1.0000   1.0000
     1.0000   1.0000   0.0000   0.0000   0.0000   0.0000   0.0000   0.0000

          k =-0.4093 0.1364-0.0000 (  3614 PWs)   bands (ev):

   -82.9164 -46.4433 -46.4430 -46.4427 -16.3515 -16.1652 -16.1364  -7.0697
    -6.8489  -6.8378  -6.8100  -6.5042   0.2070   0.8765   1.8309   1.9872
     2.5139   2.7379   2.7884   2.7953   3.0164   4.7317   4.7473   4.8174
     4.8539   4.9281   8.9657   8.9862  13.0583  13.9762  15.4252  16.4055

     occupation numbers 
     1.0000   1.0000   1.0000   1.0000   1.0000   1.0000   1.0000   1.0000
     1.0000   1.0000   1.0000   1.0000   1.0000   1.0000   1.0000   1.0000
     1.0000   1.0000   1.0000   1.0000   1.0000   1.0000   1.0000   1.0000
     1.0000   1.0000   0.0000   0.0000   0.0000   0.0000   0.0000   0.0000

          k =-0.4093 0.1364 0.1364 (  3608 PWs)   bands (ev):

   -82.9164 -46.4430 -46.4429 -46.4427 -16.3203 -16.1608 -16.1352  -7.0901
    -6.8491  -6.8479  -6.8194  -6.6292  -0.2897   1.3824   1.9963   2.0142
     2.4036   2.6835   2.8788   2.8883   3.0771   4.6983   4.8122   4.8303
     4.8345   4.8734   9.0763   9.2745  13.0988  13.5886  14.7898  15.6628

     occupation numbers 
     1.0000   1.0000   1.0000   1.0000   1.0000   1.0000   1.0000   1.0000
     1.0000   1.0000   1.0000   1.0000   1.0000   1.0000   1.0000   1.0000
     1.0000   1.0000   1.0000   1.0000   1.0000   1.0000   1.0000   1.0000
     1.0000   1.0000   0.0000   0.0000   0.0000   0.0000   0.0000   0.0000

          k =-0.4093 0.1364 0.2729 (  3606 PWs)   bands (ev):

   -82.9164 -46.4431 -46.4428 -46.4428 -16.2626 -16.1454 -16.1327  -7.1797
    -6.8699  -6.8480  -6.8383  -6.8255  -0.7170   1.6872   1.9803   2.3065
     2.3272   2.8080   2.9091   3.0346   3.2400   4.7098   4.7466   4.8034
     4.8572   4.8822   9.3617  10.1002  12.4938  12.7220  14.7267  15.2839

     occupation numbers 
     1.0000   1.0000   1.0000   1.0000   1.0000   1.0000   1.0000   1.0000
     1.0000   1.0000   1.0000   1.0000   1.0000   1.0000   1.0000   1.0000
     1.0000   1.0000   1.0000   1.0000   1.0000   1.0000   1.0000   1.0000
     1.0000   1.0000   0.0000   0.0000   0.0000   0.0000   0.0000   0.0000

          k =-0.4093 0.1364-0.4093 (  3616 PWs)   bands (ev):

   -82.9164 -46.4433 -46.4430 -46.4430 -16.2391 -16.1315 -16.1315  -7.2621
    -6.8840  -6.8804  -6.8478  -6.8478  -0.8532   1.7751   1.9567   2.3213
     2.3213   2.9135   2.9135   3.1698   3.3162   4.6463   4.7789   4.8457
     4.8545   4.8545   9.5660  10.9651  11.9318  11.9318  14.8609  15.4675

     occupation numbers 
     1.0000   1.0000   1.0000   1.0000   1.0000   1.0000   1.0000   1.0000
     1.0000   1.0000   1.0000   1.0000   1.0000   1.0000   1.0000   1.0000
     1.0000   1.0000   1.0000   1.0000   1.0000   1.0000   1.0000   1.0000
     1.0000   1.0000   0.0000   0.0000   0.0000   0.0000   0.0000   0.0000

          k =-0.4093 0.1364-0.2729 (  3606 PWs)   bands (ev):

   -82.9164 -46.4431 -46.4428 -46.4428 -16.2626 -16.1454 -16.1327  -7.1797
    -6.8699  -6.8480  -6.8383  -6.8255  -0.7170   1.6872   1.9803   2.3065
     2.3272   2.8080   2.9091   3.0346   3.2400   4.7098   4.7466   4.8034
     4.8572   4.8822   9.3617  10.1002  12.4938  12.7220  14.7267  15.2839

     occupation numbers 
     1.0000   1.0000   1.0000   1.0000   1.0000   1.0000   1.0000   1.0000
     1.0000   1.0000   1.0000   1.0000   1.0000   1.0000   1.0000   1.0000
     1.0000   1.0000   1.0000   1.0000   1.0000   1.0000   1.0000   1.0000
     1.0000   1.0000   0.0000   0.0000   0.0000   0.0000   0.0000   0.0000

          k =-0.4093 0.1364-0.1364 (  3608 PWs)   bands (ev):

   -82.9164 -46.4430 -46.4429 -46.4427 -16.3203 -16.1608 -16.1352  -7.0901
    -6.8491  -6.8479  -6.8194  -6.6292  -0.2897   1.3824   1.9963   2.0142
     2.4036   2.6835   2.8788   2.8883   3.0771   4.6983   4.8122   4.8303
     4.8345   4.8734   9.0763   9.2745  13.0988  13.5886  14.7898  15.6628

     occupation numbers 
     1.0000   1.0000   1.0000   1.0000   1.0000   1.0000   1.0000   1.0000
     1.0000   1.0000   1.0000   1.0000   1.0000   1.0000   1.0000   1.0000
     1.0000   1.0000   1.0000   1.0000   1.0000   1.0000   1.0000   1.0000
     1.0000   1.0000   0.0000   0.0000   0.0000   0.0000   0.0000   0.0000

          k =-0.4093 0.2729 0.0000 (  3604 PWs)   bands (ev):

   -82.9164 -46.4431 -46.4429 -46.4426 -16.2972 -16.1468 -16.1337  -7.1774
    -6.8703  -6.8375  -6.8284  -6.6971  -0.2042   0.9745   1.9386   2.3847
     2.4727   2.6949   2.7081   2.9930   3.2206   4.7199   4.7780   4.8347
     4.8719   4.9303   9.3351   9.8634  12.4267  12.5135  15.4067  16.1570

     occupation numbers 
     1.0000   1.0000   1.0000   1.0000   1.0000   1.0000   1.0000   1.0000
     1.0000   1.0000   1.0000   1.0000   1.0000   1.0000   1.0000   1.0000
     1.0000   1.0000   1.0000   1.0000   1.0000   1.0000   1.0000   1.0000
     1.0000   1.0000   0.0000   0.0000   0.0000   0.0000   0.0000   0.0000

          k =-0.4093 0.2729 0.1364 (  3606 PWs)   bands (ev):

   -82.9164 -46.4431 -46.4428 -46.4428 -16.2626 -16.1454 -16.1327  -7.1797
    -6.8699  -6.8480  -6.8383  -6.8255  -0.7170   1.6872   1.9803   2.3065
     2.3272   2.8080   2.9091   3.0346   3.2400   4.7098   4.7466   4.8034
     4.8572   4.8822   9.3617  10.1002  12.4938  12.7220  14.7267  15.2839

     occupation numbers 
     1.0000   1.0000   1.0000   1.0000   1.0000   1.0000   1.0000   1.0000
     1.0000   1.0000   1.0000   1.0000   1.0000   1.0000   1.0000   1.0000
     1.0000   1.0000   1.0000   1.0000   1.0000   1.0000   1.0000   1.0000
     1.0000   1.0000   0.0000   0.0000   0.0000   0.0000   0.0000   0.0000

          k =-0.4093 0.2729 0.2729 (  3608 PWs)   bands (ev):

   -82.9164 -46.4432 -46.4430 -46.4428 -16.1943 -16.1399 -16.1309  -7.2006
    -7.0663  -6.8693  -6.8681  -6.8581  -1.2130   2.0554   2.2007   2.2115
     2.5399   2.9626   3.1479   3.1763   3.2947   4.6706   4.6925   4.7229
     4.7924   4.8409   9.3976  10.8042  12.5982  13.1055  14.0508  14.1202

     occupation numbers 
     1.0000   1.0000   1.0000   1.0000   1.0000   1.0000   1.0000   1.0000
     1.0000   1.0000   1.0000   1.0000   1.0000   1.0000   1.0000   1.0000
     1.0000   1.0000   1.0000   1.0000   1.0000   1.0000   1.0000   1.0000
     1.0000   1.0000   0.0000   0.0000   0.0000   0.0000   0.0000   0.0000

          k =-0.4093 0.2729-0.4093 (  3612 PWs)   bands (ev):

   -82.9164 -46.4433 -46.4429 -46.4429 -16.1664 -16.1299 -16.1299  -7.2618
    -7.1355  -6.8789  -6.8681  -6.8681  -1.3758   2.0721   2.1802   2.1802
     2.7605   3.1716   3.2218   3.2218   3.3501   4.6144   4.6871   4.6871
     4.7813   4.8033   9.4063  11.5701  12.5795  12.5795  14.0942  14.2712

     occupation numbers 
     1.0000   1.0000   1.0000   1.0000   1.0000   1.0000   1.0000   1.0000
     1.0000   1.0000   1.0000   1.0000   1.0000   1.0000   1.0000   1.0000
     1.0000   1.0000   1.0000   1.0000   1.0000   1.0000   1.0000   1.0000
     1.0000   1.0000   0.0000   0.0000   0.0000   0.0000   0.0000   0.0000

          k =-0.4093 0.2729-0.2729 (  3608 PWs)   bands (ev):

   -82.9164 -46.4432 -46.4430 -46.4428 -16.1943 -16.1399 -16.1309  -7.2006
    -7.0663  -6.8693  -6.8681  -6.8581  -1.2130   2.0554   2.2007   2.2115
     2.5399   2.9626   3.1479   3.1763   3.2947   4.6706   4.6925   4.7229
     4.7924   4.8409   9.3976  10.8042  12.5982  13.1055  14.0508  14.1202

     occupation numbers 
     1.0000   1.0000   1.0000   1.0000   1.0000   1.0000   1.0000   1.0000
     1.0000   1.0000   1.0000   1.0000   1.0000   1.0000   1.0000   1.0000
     1.0000   1.0000   1.0000   1.0000   1.0000   1.0000   1.0000   1.0000
     1.0000   1.0000   0.0000   0.0000   0.0000   0.0000   0.0000   0.0000

          k =-0.4093 0.2729-0.1364 (  3606 PWs)   bands (ev):

   -82.9164 -46.4431 -46.4428 -46.4428 -16.2626 -16.1454 -16.1327  -7.1797
    -6.8699  -6.8480  -6.8383  -6.8255  -0.7170   1.6872   1.9803   2.3065
     2.3272   2.8080   2.9091   3.0346   3.2400   4.7098   4.7466   4.8034
     4.8572   4.8822   9.3617  10.1002  12.4938  12.7220  14.7267  15.2839

     occupation numbers 
     1.0000   1.0000   1.0000   1.0000   1.0000   1.0000   1.0000   1.0000
     1.0000   1.0000   1.0000   1.0000   1.0000   1.0000   1.0000   1.0000
     1.0000   1.0000   1.0000   1.0000   1.0000   1.0000   1.0000   1.0000
     1.0000   1.0000   0.0000   0.0000   0.0000   0.0000   0.0000   0.0000

          k =-0.4093-0.4093-0.0000 (  3628 PWs)   bands (ev):

   -82.9164 -46.4433 -46.4433 -46.4433 -16.2744 -16.1323 -16.1323  -7.2623
    -6.8813  -6.8377  -6.8377  -6.7591  -0.3310   1.0258   1.9016   2.4896
     2.4896   2.6710   2.6710   3.1688   3.2999   4.6582   4.7767   4.8661
     4.9313   4.9313   9.6415  10.7677  11.6961  11.6961  15.3963  16.0368

     occupation numbers 
     1.0000   1.0000   1.0000   1.0000   1.0000   1.0000   1.0000   1.0000
     1.0000   1.0000   1.0000   1.0000   1.0000   1.0000   1.0000   1.0000
     1.0000   1.0000   1.0000   1.0000   1.0000   1.0000   1.0000   1.0000
     1.0000   1.0000   0.0000   0.0000   0.0000   0.0000   0.0000   0.0000

          k =-0.4093-0.4093 0.1364 (  3616 PWs)   bands (ev):

   -82.9164 -46.4433 -46.4430 -46.4430 -16.2391 -16.1315 -16.1315  -7.2621
    -6.8840  -6.8804  -6.8478  -6.8478  -0.8532   1.7751   1.9568   2.3213
     2.3213   2.9135   2.9135   3.1698   3.3162   4.6463   4.7789   4.8457
     4.8545   4.8545   9.5660  10.9651  11.9318  11.9318  14.8609  15.4676

     occupation numbers 
     1.0000   1.0000   1.0000   1.0000   1.0000   1.0000   1.0000   1.0000
     1.0000   1.0000   1.0000   1.0000   1.0000   1.0000   1.0000   1.0000
     1.0000   1.0000   1.0000   1.0000   1.0000   1.0000   1.0000   1.0000
     1.0000   1.0000   0.0000   0.0000   0.0000   0.0000   0.0000   0.0000

          k =-0.4093-0.4093 0.2729 (  3612 PWs)   bands (ev):

   -82.9164 -46.4433 -46.4429 -46.4429 -16.1664 -16.1299 -16.1299  -7.2618
    -7.1355  -6.8789  -6.8681  -6.8681  -1.3758   2.0722   2.1802   2.1802
     2.7605   3.1716   3.2218   3.2218   3.3501   4.6144   4.6871   4.6871
     4.7813   4.8033   9.4063  11.5701  12.5794  12.5794  14.0942  14.2712

     occupation numbers 
     1.0000   1.0000   1.0000   1.0000   1.0000   1.0000   1.0000   1.0000
     1.0000   1.0000   1.0000   1.0000   1.0000   1.0000   1.0000   1.0000
     1.0000   1.0000   1.0000   1.0000   1.0000   1.0000   1.0000   1.0000
     1.0000   1.0000   0.0000   0.0000   0.0000   0.0000   0.0000   0.0000

          k =-0.4093-0.4093-0.4093 (  3544 PWs)   bands (ev):

   -82.9164 -46.4421 -46.4421 -46.4421 -16.1291 -16.1291 -16.1291  -7.2611
    -7.2611  -6.8778  -6.8778  -6.8778  -1.5492   2.1328   2.1328   2.1328
     3.1726   3.1726   3.3679   3.3679   3.3680   4.5912   4.5912   4.5912
     4.7817   4.7817   9.3220  12.2308  13.3614  13.3614  13.3615  13.7937

     occupation numbers 
     1.0000   1.0000   1.0000   1.0000   1.0000   1.0000   1.0000   1.0000
     1.0000   1.0000   1.0000   1.0000   1.0000   1.0000   1.0000   1.0000
     1.0000   1.0000   1.0000   1.0000   1.0000   1.0000   1.0000   1.0000
     1.0000   1.0000   0.0000   0.0000   0.0000   0.0000   0.0000   0.0000

     the Fermi energy is     8.7383 ev

!    total energy              =   -1146.37286682 Ry
     total all-electron energy =    -22995.175007 Ry
     estimated scf accuracy    <          1.5E-13 Ry
     smearing contrib. (-TS)   =      -0.00016889 Ry
     internal energy E=F+TS    =   -1146.37269793 Ry

     The total energy is F=E-TS. E is the sum of the following terms:
     one-electron contribution =    -269.07696536 Ry
     hartree contribution      =     167.58717581 Ry
     xc contribution           =    -123.90171539 Ry
     ewald contribution        =    -367.79108736 Ry
     one-center paw contrib.   =    -553.19010563 Ry
      -> PAW hartree energy AE =     233.50634406 Ry
      -> PAW hartree energy PS =    -231.01447132 Ry
      -> PAW xc energy AE      =    -297.43583132 Ry
      -> PAW xc energy PS      =      47.93327879 Ry
      -> total E_H with PAW    =     170.07904855 Ry
      -> total E_XC with PAW   =    -373.40426793 Ry

     convergence has been achieved in  13 iterations

     Forces acting on atoms (cartesian axes, Ry/au):

     atom    1 type  1   force =    -0.00000140   -0.00000279   -0.00000419
     atom    2 type  2   force =     0.00000171    0.00000340    0.00000512
     atom    3 type  3   force =     0.00000111   -0.00000094   -0.00000285
     atom    4 type  3   force =    -0.00000095    0.00000221   -0.00000141
     atom    5 type  3   force =    -0.00000047   -0.00000188    0.00000332
     The non-local contrib.  to forces
     atom    1 type  1   force =     0.00004328    0.00008655    0.00012986
     atom    2 type  2   force =     0.00001250    0.00002498    0.00003754
     atom    3 type  3   force =    -0.00035276   -0.00003375    0.00034616
     atom    4 type  3   force =     0.00011529   -0.00070539   -0.00005086
     atom    5 type  3   force =    -0.00001700    0.00023058   -0.00105833
     The ionic contribution  to forces
     atom    1 type  1   force =     0.00312171    0.00624230    0.00936492
     atom    2 type  2   force =    -0.00295998   -0.00591882   -0.00887995
     atom    3 type  3   force =    -0.00063393   -0.00044971    0.00209042
     atom    4 type  3   force =     0.00069699   -0.00126796   -0.00067400
     atom    5 type  3   force =    -0.00022480    0.00139419   -0.00190139
     The local contribution  to forces
     atom    1 type  1   force =    -0.00316306   -0.00632497   -0.00948896
     atom    2 type  2   force =     0.00294986    0.00589859    0.00884957
     atom    3 type  3   force =     0.00098666    0.00048249   -0.00243850
     atom    4 type  3   force =    -0.00081292    0.00197330    0.00072342
     atom    5 type  3   force =     0.00024132   -0.00162604    0.00295965
     The core correction contribution to forces
     atom    1 type  1   force =    -0.00000336   -0.00000671   -0.00001007
     atom    2 type  2   force =    -0.00000070   -0.00000140   -0.00000211
     atom    3 type  3   force =     0.00000111   -0.00000002   -0.00000099
     atom    4 type  3   force =    -0.00000033    0.00000222   -0.00000003
     atom    5 type  3   force =    -0.00000001   -0.00000066    0.00000333
     The Hubbard contrib.    to forces
     atom    1 type  1   force =     0.00000000    0.00000000    0.00000000
     atom    2 type  2   force =     0.00000000    0.00000000    0.00000000
     atom    3 type  3   force =     0.00000000    0.00000000    0.00000000
     atom    4 type  3   force =     0.00000000    0.00000000    0.00000000
     atom    5 type  3   force =     0.00000000    0.00000000    0.00000000
     The SCF correction term to forces
     atom    1 type  1   force =    -0.00000000   -0.00000001   -0.00000001
     atom    2 type  2   force =     0.00000000    0.00000000    0.00000000
     atom    3 type  3   force =    -0.00000000   -0.00000000   -0.00000000
     atom    4 type  3   force =    -0.00000000   -0.00000000   -0.00000000
     atom    5 type  3   force =     0.00000000   -0.00000000   -0.00000000

     Total force =     0.000010     Total SCF correction =     0.000000


     Computing stress (Cartesian axis) and pressure

          total   stress  (Ry/bohr**3)                   (kbar)     P=        8.43
   0.00005730  -0.00000000  -0.00000000            8.43       -0.00       -0.00
  -0.00000000   0.00005730  -0.00000000           -0.00        8.43       -0.00
  -0.00000000  -0.00000000   0.00005730           -0.00       -0.00        8.43

     kinetic stress (kbar)  37582.06      0.00      0.00
                                0.00  37582.06      0.00
                                0.00      0.00  37582.06

     local   stress (kbar) -19313.26     -0.00     -0.00
                               -0.00 -19313.24     -0.00
                               -0.00     -0.00 -19313.26

     nonloc. stress (kbar)   7549.45      0.00      0.00
                                0.00   7549.45      0.00
                                0.00      0.00   7549.45

     hartree stress (kbar)  15059.17      0.00      0.00
                                0.00  15059.16      0.00
                                0.00      0.00  15059.17

     exc-cor stress (kbar)   6169.40     -0.00     -0.00
                               -0.00   6169.40     -0.00
                               -0.00     -0.00   6169.40

     corecor stress (kbar) -13989.17      0.00      0.00
                                0.00 -13989.17      0.00
                                0.00      0.00 -13989.17

     ewald   stress (kbar) -33049.22      0.00      0.00
                                0.00 -33049.24      0.00
                                0.00      0.00 -33049.22

     hubbard stress (kbar)      0.00      0.00      0.00
                                0.00      0.00      0.00
                                0.00      0.00      0.00

     DFT-D   stress (kbar)      0.00      0.00      0.00
                                0.00      0.00      0.00
                                0.00      0.00      0.00

     XDM     stress (kbar)      0.00      0.00      0.00
                                0.00      0.00      0.00
                                0.00      0.00      0.00

     dft-nl  stress (kbar)      0.00      0.00      0.00
                                0.00      0.00      0.00
                                0.00      0.00      0.00

     TS-vdW  stress (kbar)      0.00      0.00      0.00
                                0.00      0.00      0.00
                                0.00      0.00      0.00

     MDB     stress (kbar)      0.00      0.00      0.00
                                0.00      0.00      0.00
                                0.00      0.00      0.00

     3D-RISM stress (kbar)      0.00      0.00      0.00
                                0.00      0.00      0.00
                                0.00      0.00      0.00

     Energy error            =      3.6E-03 Ry
     Gradient error          =      5.1E-06 Ry/Bohr
     Cell gradient error     =      8.4E+00 kbar

     number of scf cycles    =   5
     number of bfgs steps    =   4

     enthalpy           old  =   -1146.3692212120 Ry
     enthalpy           new  =   -1146.3728668239 Ry

     CASE: enthalpy          _new < enthalpy          _old

     new trust radius        =       0.0161359851 bohr
     new conv_thr            =            1.0E-12 Ry

     new unit-cell volume =    551.36396 a.u.^3 (    81.70371 Ang^3 )
     density =      5.68420 g/cm^3

CELL_PARAMETERS (angstrom)
   4.339242670  -0.000000108  -0.000000160
  -0.000000108   4.339242392  -0.000000319
  -0.000000160  -0.000000319   4.339242502

ATOMIC_POSITIONS (crystal)
Ag               0.0000057683        0.0000115381        0.0000173089
In               0.4999855134        0.4999710482        0.4999565271
F                0.5001132023        0.5000062773       -0.0000229056
F               -0.0000076325        0.5002263846        0.5000094547
F                0.5000031485       -0.0000152482        0.5003396149



     Writing config-only to output data dir ./output/aginf3_broken.save/ :
     XML data file
     NEW-OLD atomic charge density approx. for the potential

     Check: negative core charge=   -0.000015

     total cpu time spent up to now is    14754.8 secs

     Self-consistent Calculation

     iteration #  1     ecut=    80.00 Ry     beta= 0.30
     Davidson diagonalization with overlap

---- Real-time Memory Report at c_bands before calling an iterative solver
           112 MiB given to the printing process from OS
             0 MiB allocation reported by mallinfo(arena+hblkhd)
         57239 MiB available memory on the node where the printing process lives
------------------
     ethr =  1.00E-06,  avg # of iterations =  4.6

     total cpu time spent up to now is    15013.1 secs

     total energy              =   -1146.37294705 Ry
     estimated scf accuracy    <       0.00011033 Ry

     iteration #  2     ecut=    80.00 Ry     beta= 0.30
     Davidson diagonalization with overlap

---- Real-time Memory Report at c_bands before calling an iterative solver
           112 MiB given to the printing process from OS
             0 MiB allocation reported by mallinfo(arena+hblkhd)
         57238 MiB available memory on the node where the printing process lives
------------------
     ethr =  2.08E-07,  avg # of iterations =  3.9

     total cpu time spent up to now is    15226.3 secs

     total energy              =   -1146.37294682 Ry
     estimated scf accuracy    <       0.00001312 Ry

     iteration #  3     ecut=    80.00 Ry     beta= 0.30
     Davidson diagonalization with overlap

---- Real-time Memory Report at c_bands before calling an iterative solver
           112 MiB given to the printing process from OS
             0 MiB allocation reported by mallinfo(arena+hblkhd)
         57255 MiB available memory on the node where the printing process lives
------------------
     ethr =  2.47E-08,  avg # of iterations =  4.0

     total cpu time spent up to now is    15453.3 secs

     total energy              =   -1146.37298344 Ry
     estimated scf accuracy    <       0.00000405 Ry

     iteration #  4     ecut=    80.00 Ry     beta= 0.30
     Davidson diagonalization with overlap

---- Real-time Memory Report at c_bands before calling an iterative solver
           112 MiB given to the printing process from OS
             0 MiB allocation reported by mallinfo(arena+hblkhd)
         57248 MiB available memory on the node where the printing process lives
------------------
     ethr =  7.64E-09,  avg # of iterations =  4.0

     total cpu time spent up to now is    15685.1 secs

     total energy              =   -1146.37301462 Ry
     estimated scf accuracy    <       0.00000182 Ry

     iteration #  5     ecut=    80.00 Ry     beta= 0.30
     Davidson diagonalization with overlap

---- Real-time Memory Report at c_bands before calling an iterative solver
           112 MiB given to the printing process from OS
             0 MiB allocation reported by mallinfo(arena+hblkhd)
         57260 MiB available memory on the node where the printing process lives
------------------
     ethr =  3.44E-09,  avg # of iterations =  4.0

     total cpu time spent up to now is    15914.9 secs

     total energy              =   -1146.37303321 Ry
     estimated scf accuracy    <       0.00000096 Ry

     iteration #  6     ecut=    80.00 Ry     beta= 0.30
     Davidson diagonalization with overlap

---- Real-time Memory Report at c_bands before calling an iterative solver
           112 MiB given to the printing process from OS
             0 MiB allocation reported by mallinfo(arena+hblkhd)
         57247 MiB available memory on the node where the printing process lives
------------------
     ethr =  1.81E-09,  avg # of iterations =  4.9

     total cpu time spent up to now is    16179.8 secs

     total energy              =   -1146.37303934 Ry
     estimated scf accuracy    <       0.00000002 Ry

     iteration #  7     ecut=    80.00 Ry     beta= 0.30
     Davidson diagonalization with overlap

---- Real-time Memory Report at c_bands before calling an iterative solver
           112 MiB given to the printing process from OS
             0 MiB allocation reported by mallinfo(arena+hblkhd)
         57241 MiB available memory on the node where the printing process lives
------------------
     ethr =  4.64E-11,  avg # of iterations =  4.0

     total cpu time spent up to now is    16406.1 secs

     total energy              =   -1146.37303932 Ry
     estimated scf accuracy    <          8.3E-09 Ry

     iteration #  8     ecut=    80.00 Ry     beta= 0.30
     Davidson diagonalization with overlap

---- Real-time Memory Report at c_bands before calling an iterative solver
           112 MiB given to the printing process from OS
             0 MiB allocation reported by mallinfo(arena+hblkhd)
         57215 MiB available memory on the node where the printing process lives
------------------
     ethr =  1.56E-11,  avg # of iterations =  4.0

     total cpu time spent up to now is    16638.5 secs

     total energy              =   -1146.37303933 Ry
     estimated scf accuracy    <          3.2E-09 Ry

     iteration #  9     ecut=    80.00 Ry     beta= 0.30
     Davidson diagonalization with overlap

---- Real-time Memory Report at c_bands before calling an iterative solver
           112 MiB given to the printing process from OS
             0 MiB allocation reported by mallinfo(arena+hblkhd)
         57223 MiB available memory on the node where the printing process lives
------------------
     ethr =  6.08E-12,  avg # of iterations =  2.2

     total cpu time spent up to now is    16787.9 secs

     total energy              =   -1146.37303933 Ry
     estimated scf accuracy    <          3.3E-11 Ry

     iteration # 10     ecut=    80.00 Ry     beta= 0.30
     Davidson diagonalization with overlap

---- Real-time Memory Report at c_bands before calling an iterative solver
           112 MiB given to the printing process from OS
             0 MiB allocation reported by mallinfo(arena+hblkhd)
         57221 MiB available memory on the node where the printing process lives
------------------
     ethr =  1.00E-13,  avg # of iterations =  3.2

     total cpu time spent up to now is    16987.2 secs

     total energy              =   -1146.37303933 Ry
     estimated scf accuracy    <          1.2E-10 Ry

     iteration # 11     ecut=    80.00 Ry     beta= 0.30
     Davidson diagonalization with overlap

---- Real-time Memory Report at c_bands before calling an iterative solver
           112 MiB given to the printing process from OS
             0 MiB allocation reported by mallinfo(arena+hblkhd)
         57214 MiB available memory on the node where the printing process lives
------------------
     ethr =  1.00E-13,  avg # of iterations =  2.0

     total cpu time spent up to now is    17133.6 secs

     End of self-consistent calculation

          k = 0.0000 0.0000 0.0000 (  3695 PWs)   bands (ev):

   -83.0649 -46.5918 -46.5918 -46.5918 -16.5655 -16.2559 -16.2559  -6.9293
    -6.9293  -6.9293  -6.5205  -6.5205   0.6200   0.6200   0.6200   2.7493
     2.7493   2.7493   2.8380   2.8380   2.8380   4.3935   4.3935   4.5304
     4.5304   4.5304   5.4201   9.0741  14.8242  14.8242  14.8242  17.2830

     occupation numbers 
     1.0000   1.0000   1.0000   1.0000   1.0000   1.0000   1.0000   1.0000
     1.0000   1.0000   1.0000   1.0000   1.0000   1.0000   1.0000   1.0000
     1.0000   1.0000   1.0000   1.0000   1.0000   1.0000   1.0000   1.0000
     1.0000   1.0000   1.0000   0.0000   0.0000   0.0000   0.0000   0.0000

          k = 0.0000 0.0000 0.1360 (  3635 PWs)   bands (ev):

   -83.0648 -46.5910 -46.5910 -46.5906 -16.5375 -16.2550 -16.2493  -6.9373
    -6.9373  -6.9287  -6.6860  -6.5202   0.6539   0.6539   0.7021   2.4896
     2.7344   2.7344   2.7563   2.8029   2.8029   4.4317   4.4733   4.5317
     4.5962   4.5962   5.9946   9.2649  13.9224  14.8828  14.8828  17.4975

     occupation numbers 
     1.0000   1.0000   1.0000   1.0000   1.0000   1.0000   1.0000   1.0000
     1.0000   1.0000   1.0000   1.0000   1.0000   1.0000   1.0000   1.0000
     1.0000   1.0000   1.0000   1.0000   1.0000   1.0000   1.0000   1.0000
     1.0000   1.0000   1.0000   0.0000   0.0000   0.0000   0.0000   0.0000

          k = 0.0000 0.0000 0.2719 (  3619 PWs)   bands (ev):

   -83.0648 -46.5909 -46.5909 -46.5905 -16.4834 -16.2534 -16.2326  -7.0027
    -6.9547  -6.9547  -6.9279  -6.5202   0.7221   0.7221   0.8676   2.0897
     2.6127   2.6907   2.6907   2.7542   2.7542   4.5087   4.5342   4.6123
     4.7191   4.7191   7.2388   9.4004  12.9782  15.0701  15.0701  16.9038

     occupation numbers 
     1.0000   1.0000   1.0000   1.0000   1.0000   1.0000   1.0000   1.0000
     1.0000   1.0000   1.0000   1.0000   1.0000   1.0000   1.0000   1.0000
     1.0000   1.0000   1.0000   1.0000   1.0000   1.0000   1.0000   1.0000
     1.0000   1.0000   1.0000   0.0000   0.0000   0.0000   0.0000   0.0000

          k =-0.0000-0.0000-0.4079 (  3588 PWs)   bands (ev):

   -83.0648 -46.5904 -46.5904 -46.5903 -16.4580 -16.2526 -16.2218  -7.1549
    -6.9631  -6.9631  -6.9273  -6.5199   0.7566   0.7566   0.9587   1.9113
     2.5483   2.6643   2.6643   2.7376   2.7376   4.5356   4.5477   4.6744
     4.7776   4.7776   8.4906   8.6780  12.9516  15.2581  15.2581  16.3340

     occupation numbers 
     1.0000   1.0000   1.0000   1.0000   1.0000   1.0000   1.0000   1.0000
     1.0000   1.0000   1.0000   1.0000   1.0000   1.0000   1.0000   1.0000
     1.0000   1.0000   1.0000   1.0000   1.0000   1.0000   1.0000   1.0000
     1.0000   1.0000   1.0748   0.0037   0.0000   0.0000   0.0000   0.0000

          k = 0.0000 0.1360 0.0000 (  3635 PWs)   bands (ev):

   -83.0648 -46.5910 -46.5910 -46.5906 -16.5375 -16.2550 -16.2493  -6.9373
    -6.9373  -6.9287  -6.6860  -6.5202   0.6539   0.6539   0.7021   2.4896
     2.7344   2.7344   2.7563   2.8029   2.8029   4.4317   4.4733   4.5317
     4.5962   4.5962   5.9946   9.2649  13.9224  14.8828  14.8828  17.4975

     occupation numbers 
     1.0000   1.0000   1.0000   1.0000   1.0000   1.0000   1.0000   1.0000
     1.0000   1.0000   1.0000   1.0000   1.0000   1.0000   1.0000   1.0000
     1.0000   1.0000   1.0000   1.0000   1.0000   1.0000   1.0000   1.0000
     1.0000   1.0000   1.0000   0.0000   0.0000   0.0000   0.0000   0.0000

          k = 0.0000 0.1360 0.1360 (  3627 PWs)   bands (ev):

   -83.0648 -46.5910 -46.5909 -46.5907 -16.5091 -16.2511 -16.2462  -6.9466
    -6.9373  -6.9369  -6.7604  -6.6061   0.3408   0.6906   1.1323   2.2935
     2.6314   2.7196   2.7558   2.7648   2.8951   4.4787   4.4869   4.5926
     4.6018   4.6444   6.4529   9.4371  13.5899  14.4745  14.9321  16.9851

     occupation numbers 
     1.0000   1.0000   1.0000   1.0000   1.0000   1.0000   1.0000   1.0000
     1.0000   1.0000   1.0000   1.0000   1.0000   1.0000   1.0000   1.0000
     1.0000   1.0000   1.0000   1.0000   1.0000   1.0000   1.0000   1.0000
     1.0000   1.0000   1.0000   0.0000   0.0000   0.0000   0.0000   0.0000

          k = 0.0000 0.1360 0.2719 (  3612 PWs)   bands (ev):

   -83.0648 -46.5910 -46.5908 -46.5904 -16.4545 -16.2482 -16.2313  -7.0384
    -6.9645  -6.9545  -6.9368  -6.6362   0.1720   0.7650   1.5416   2.0314
     2.4898   2.6735   2.7117   2.7217   2.9281   4.5418   4.5934   4.5990
     4.7069   4.7202   7.5509   9.5677  12.8166  14.2667  15.0914  16.0987

     occupation numbers 
     1.0000   1.0000   1.0000   1.0000   1.0000   1.0000   1.0000   1.0000
     1.0000   1.0000   1.0000   1.0000   1.0000   1.0000   1.0000   1.0000
     1.0000   1.0000   1.0000   1.0000   1.0000   1.0000   1.0000   1.0000
     1.0000   1.0000   1.0000   0.0000   0.0000   0.0000   0.0000   0.0000

          k =-0.0000 0.1360-0.4079 (  3614 PWs)   bands (ev):

   -83.0648 -46.5911 -46.5908 -46.5904 -16.4292 -16.2473 -16.2205  -7.1839
    -6.9737  -6.9631  -6.9367  -6.6394   0.1255   0.8027   1.7335   1.9057
     2.4249   2.6445   2.6939   2.6991   2.9200   4.5841   4.6002   4.6702
     4.7054   4.7785   8.8008   8.8086  12.8867  13.7979  15.2515  16.2090

     occupation numbers 
     1.0000   1.0000   1.0000   1.0000   1.0000   1.0000   1.0000   1.0000
     1.0000   1.0000   1.0000   1.0000   1.0000   1.0000   1.0000   1.0000
     1.0000   1.0000   1.0000   1.0000   1.0000   1.0000   1.0000   1.0000
     1.0000   1.0000   0.0000   0.0000   0.0000   0.0000   0.0000   0.0000

          k =-0.0000 0.1360-0.2719 (  3612 PWs)   bands (ev):

   -83.0648 -46.5910 -46.5908 -46.5904 -16.4545 -16.2482 -16.2313  -7.0384
    -6.9645  -6.9545  -6.9368  -6.6362   0.1720   0.7650   1.5416   2.0314
     2.4898   2.6736   2.7117   2.7217   2.9281   4.5418   4.5934   4.5990
     4.7069   4.7202   7.5509   9.5677  12.8166  14.2667  15.0914  16.0987

     occupation numbers 
     1.0000   1.0000   1.0000   1.0000   1.0000   1.0000   1.0000   1.0000
     1.0000   1.0000   1.0000   1.0000   1.0000   1.0000   1.0000   1.0000
     1.0000   1.0000   1.0000   1.0000   1.0000   1.0000   1.0000   1.0000
     1.0000   1.0000   1.0000   0.0000   0.0000   0.0000   0.0000   0.0000

          k =-0.0000 0.1360-0.1360 (  3627 PWs)   bands (ev):

   -83.0648 -46.5910 -46.5909 -46.5907 -16.5091 -16.2511 -16.2462  -6.9466
    -6.9373  -6.9369  -6.7604  -6.6061   0.3408   0.6906   1.1323   2.2935
     2.6314   2.7196   2.7558   2.7648   2.8951   4.4787   4.4869   4.5926
     4.6018   4.6444   6.4529   9.4371  13.5899  14.4745  14.9321  16.9851

     occupation numbers 
     1.0000   1.0000   1.0000   1.0000   1.0000   1.0000   1.0000   1.0000
     1.0000   1.0000   1.0000   1.0000   1.0000   1.0000   1.0000   1.0000
     1.0000   1.0000   1.0000   1.0000   1.0000   1.0000   1.0000   1.0000
     1.0000   1.0000   1.0000   0.0000   0.0000   0.0000   0.0000   0.0000

          k = 0.0000 0.2719 0.0000 (  3619 PWs)   bands (ev):

   -83.0648 -46.5909 -46.5909 -46.5905 -16.4834 -16.2534 -16.2326  -7.0027
    -6.9547  -6.9546  -6.9279  -6.5202   0.7221   0.7221   0.8676   2.0897
     2.6127   2.6907   2.6907   2.7542   2.7542   4.5087   4.5342   4.6123
     4.7191   4.7191   7.2388   9.4004  12.9782  15.0701  15.0701  16.9023

     occupation numbers 
     1.0000   1.0000   1.0000   1.0000   1.0000   1.0000   1.0000   1.0000
     1.0000   1.0000   1.0000   1.0000   1.0000   1.0000   1.0000   1.0000
     1.0000   1.0000   1.0000   1.0000   1.0000   1.0000   1.0000   1.0000
     1.0000   1.0000   1.0000   0.0000   0.0000   0.0000   0.0000   0.0000

          k = 0.0000 0.2719 0.1360 (  3612 PWs)   bands (ev):

   -83.0648 -46.5910 -46.5908 -46.5904 -16.4545 -16.2482 -16.2313  -7.0384
    -6.9645  -6.9545  -6.9368  -6.6362   0.1720   0.7650   1.5416   2.0314
     2.4898   2.6735   2.7117   2.7217   2.9281   4.5418   4.5934   4.5990
     4.7069   4.7202   7.5509   9.5677  12.8166  14.2667  15.0914  16.0987

     occupation numbers 
     1.0000   1.0000   1.0000   1.0000   1.0000   1.0000   1.0000   1.0000
     1.0000   1.0000   1.0000   1.0000   1.0000   1.0000   1.0000   1.0000
     1.0000   1.0000   1.0000   1.0000   1.0000   1.0000   1.0000   1.0000
     1.0000   1.0000   1.0000   0.0000   0.0000   0.0000   0.0000   0.0000

          k = 0.0000 0.2719 0.2719 (  3604 PWs)   bands (ev):

   -83.0648 -46.5907 -46.5907 -46.5905 -16.4001 -16.2345 -16.2266  -7.1820
    -6.9843  -6.9543  -6.9541  -6.7873  -0.1788   0.8534   1.9115   2.1017
     2.4149   2.6350   2.6357   2.8049   3.0865   4.5487   4.6461   4.6724
     4.7179   4.7265   8.3708   9.8912  12.1456  13.2753  15.1647  15.9468

     occupation numbers 
     1.0000   1.0000   1.0000   1.0000   1.0000   1.0000   1.0000   1.0000
     1.0000   1.0000   1.0000   1.0000   1.0000   1.0000   1.0000   1.0000
     1.0000   1.0000   1.0000   1.0000   1.0000   1.0000   1.0000   1.0000
     1.0000   1.0000   1.0015   0.0000   0.0000   0.0000   0.0000   0.0000

          k =-0.0000 0.2719-0.4079 (  3604 PWs)   bands (ev):

   -83.0648 -46.5909 -46.5907 -46.5904 -16.3761 -16.2301 -16.2179  -7.2888
    -6.9940  -6.9629  -6.9541  -6.8241  -0.2866   0.8991   1.8557   2.2931
     2.3856   2.6010   2.6139   2.8806   3.1209   4.5732   4.6302   4.6856
     4.7233   4.7808   9.1747   9.6709  12.2608  12.3387  15.2369  15.9669

     occupation numbers 
     1.0000   1.0000   1.0000   1.0000   1.0000   1.0000   1.0000   1.0000
     1.0000   1.0000   1.0000   1.0000   1.0000   1.0000   1.0000   1.0000
     1.0000   1.0000   1.0000   1.0000   1.0000   1.0000   1.0000   1.0000
     1.0000   1.0000   0.0000   0.0000   0.0000   0.0000   0.0000   0.0000

          k =-0.0000 0.2719-0.2719 (  3604 PWs)   bands (ev):

   -83.0648 -46.5907 -46.5907 -46.5905 -16.4001 -16.2345 -16.2266  -7.1820
    -6.9843  -6.9543  -6.9541  -6.7873  -0.1788   0.8534   1.9115   2.1017
     2.4149   2.6351   2.6356   2.8049   3.0865   4.5487   4.6461   4.6724
     4.7179   4.7265   8.3708   9.8912  12.1456  13.2753  15.1647  15.9468

     occupation numbers 
     1.0000   1.0000   1.0000   1.0000   1.0000   1.0000   1.0000   1.0000
     1.0000   1.0000   1.0000   1.0000   1.0000   1.0000   1.0000   1.0000
     1.0000   1.0000   1.0000   1.0000   1.0000   1.0000   1.0000   1.0000
     1.0000   1.0000   1.0015   0.0000   0.0000   0.0000   0.0000   0.0000

          k = 0.0000 0.2719-0.1360 (  3612 PWs)   bands (ev):

   -83.0648 -46.5910 -46.5908 -46.5904 -16.4545 -16.2482 -16.2313  -7.0384
    -6.9645  -6.9545  -6.9368  -6.6362   0.1720   0.7650   1.5416   2.0314
     2.4898   2.6735   2.7117   2.7217   2.9281   4.5418   4.5934   4.5990
     4.7069   4.7202   7.5509   9.5677  12.8166  14.2667  15.0914  16.0987

     occupation numbers 
     1.0000   1.0000   1.0000   1.0000   1.0000   1.0000   1.0000   1.0000
     1.0000   1.0000   1.0000   1.0000   1.0000   1.0000   1.0000   1.0000
     1.0000   1.0000   1.0000   1.0000   1.0000   1.0000   1.0000   1.0000
     1.0000   1.0000   1.0000   0.0000   0.0000   0.0000   0.0000   0.0000

          k =-0.0000-0.4079-0.0000 (  3588 PWs)   bands (ev):

   -83.0648 -46.5904 -46.5904 -46.5903 -16.4580 -16.2526 -16.2218  -7.1549
    -6.9631  -6.9631  -6.9273  -6.5199   0.7566   0.7566   0.9587   1.9113
     2.5483   2.6643   2.6643   2.7376   2.7376   4.5356   4.5477   4.6744
     4.7776   4.7776   8.4906   8.6780  12.9516  15.2581  15.2581  16.3340

     occupation numbers 
     1.0000   1.0000   1.0000   1.0000   1.0000   1.0000   1.0000   1.0000
     1.0000   1.0000   1.0000   1.0000   1.0000   1.0000   1.0000   1.0000
     1.0000   1.0000   1.0000   1.0000   1.0000   1.0000   1.0000   1.0000
     1.0000   1.0000   1.0748   0.0037   0.0000   0.0000   0.0000   0.0000

          k =-0.0000-0.4079 0.1360 (  3614 PWs)   bands (ev):

   -83.0648 -46.5911 -46.5908 -46.5904 -16.4292 -16.2473 -16.2205  -7.1839
    -6.9737  -6.9631  -6.9367  -6.6394   0.1255   0.8027   1.7335   1.9057
     2.4249   2.6445   2.6939   2.6991   2.9200   4.5841   4.6002   4.6702
     4.7054   4.7785   8.8009   8.8085  12.8867  13.7979  15.2515  16.2089

     occupation numbers 
     1.0000   1.0000   1.0000   1.0000   1.0000   1.0000   1.0000   1.0000
     1.0000   1.0000   1.0000   1.0000   1.0000   1.0000   1.0000   1.0000
     1.0000   1.0000   1.0000   1.0000   1.0000   1.0000   1.0000   1.0000
     1.0000   1.0000   0.0000   0.0000   0.0000   0.0000   0.0000   0.0000

          k =-0.0000-0.4079 0.2719 (  3604 PWs)   bands (ev):

   -83.0648 -46.5909 -46.5907 -46.5904 -16.3761 -16.2301 -16.2178  -7.2888
    -6.9940  -6.9629  -6.9541  -6.8241  -0.2866   0.8991   1.8557   2.2931
     2.3856   2.6010   2.6139   2.8806   3.1209   4.5732   4.6302   4.6856
     4.7233   4.7808   9.1747   9.6709  12.2608  12.3387  15.2369  15.9669

     occupation numbers 
     1.0000   1.0000   1.0000   1.0000   1.0000   1.0000   1.0000   1.0000
     1.0000   1.0000   1.0000   1.0000   1.0000   1.0000   1.0000   1.0000
     1.0000   1.0000   1.0000   1.0000   1.0000   1.0000   1.0000   1.0000
     1.0000   1.0000   0.0000   0.0000   0.0000   0.0000   0.0000   0.0000

          k =-0.0000-0.4079-0.4079 (  3628 PWs)   bands (ev):

   -83.0648 -46.5912 -46.5911 -46.5911 -16.3537 -16.2166 -16.2166  -7.3710
    -7.0046  -6.9630  -6.9630  -6.8833  -0.4142   0.9495   1.8182   2.4029
     2.4029   2.5770   2.5770   3.0473   3.1987   4.5122   4.6288   4.7161
     4.7818   4.7818   9.4767  10.5543  11.5381  11.5381  15.2287  15.8498

     occupation numbers 
     1.0000   1.0000   1.0000   1.0000   1.0000   1.0000   1.0000   1.0000
     1.0000   1.0000   1.0000   1.0000   1.0000   1.0000   1.0000   1.0000
     1.0000   1.0000   1.0000   1.0000   1.0000   1.0000   1.0000   1.0000
     1.0000   1.0000   0.0000   0.0000   0.0000   0.0000   0.0000   0.0000

          k = 0.1360 0.0000 0.0000 (  3635 PWs)   bands (ev):

   -83.0648 -46.5910 -46.5910 -46.5906 -16.5375 -16.2550 -16.2493  -6.9373
    -6.9373  -6.9287  -6.6860  -6.5202   0.6539   0.6539   0.7021   2.4896
     2.7344   2.7344   2.7563   2.8029   2.8029   4.4317   4.4733   4.5317
     4.5962   4.5962   5.9946   9.2649  13.9224  14.8828  14.8828  17.4975

     occupation numbers 
     1.0000   1.0000   1.0000   1.0000   1.0000   1.0000   1.0000   1.0000
     1.0000   1.0000   1.0000   1.0000   1.0000   1.0000   1.0000   1.0000
     1.0000   1.0000   1.0000   1.0000   1.0000   1.0000   1.0000   1.0000
     1.0000   1.0000   1.0000   0.0000   0.0000   0.0000   0.0000   0.0000

          k = 0.1360 0.0000 0.1360 (  3627 PWs)   bands (ev):

   -83.0648 -46.5910 -46.5909 -46.5907 -16.5091 -16.2511 -16.2462  -6.9466
    -6.9373  -6.9369  -6.7604  -6.6061   0.3408   0.6906   1.1323   2.2935
     2.6314   2.7196   2.7558   2.7648   2.8951   4.4787   4.4869   4.5926
     4.6018   4.6444   6.4529   9.4371  13.5899  14.4745  14.9321  16.9851

     occupation numbers 
     1.0000   1.0000   1.0000   1.0000   1.0000   1.0000   1.0000   1.0000
     1.0000   1.0000   1.0000   1.0000   1.0000   1.0000   1.0000   1.0000
     1.0000   1.0000   1.0000   1.0000   1.0000   1.0000   1.0000   1.0000
     1.0000   1.0000   1.0000   0.0000   0.0000   0.0000   0.0000   0.0000

          k = 0.1360 0.0000 0.2719 (  3612 PWs)   bands (ev):

   -83.0648 -46.5910 -46.5908 -46.5904 -16.4545 -16.2482 -16.2313  -7.0384
    -6.9645  -6.9545  -6.9368  -6.6362   0.1720   0.7650   1.5416   2.0314
     2.4898   2.6735   2.7117   2.7217   2.9281   4.5418   4.5934   4.5990
     4.7069   4.7202   7.5509   9.5677  12.8166  14.2667  15.0914  16.0987

     occupation numbers 
     1.0000   1.0000   1.0000   1.0000   1.0000   1.0000   1.0000   1.0000
     1.0000   1.0000   1.0000   1.0000   1.0000   1.0000   1.0000   1.0000
     1.0000   1.0000   1.0000   1.0000   1.0000   1.0000   1.0000   1.0000
     1.0000   1.0000   1.0000   0.0000   0.0000   0.0000   0.0000   0.0000

          k = 0.1360-0.0000-0.4079 (  3614 PWs)   bands (ev):

   -83.0648 -46.5911 -46.5908 -46.5904 -16.4292 -16.2473 -16.2205  -7.1839
    -6.9737  -6.9631  -6.9367  -6.6394   0.1255   0.8027   1.7335   1.9057
     2.4249   2.6445   2.6939   2.6991   2.9200   4.5841   4.6002   4.6702
     4.7054   4.7785   8.8008   8.8086  12.8867  13.7979  15.2515  16.2087

     occupation numbers 
     1.0000   1.0000   1.0000   1.0000   1.0000   1.0000   1.0000   1.0000
     1.0000   1.0000   1.0000   1.0000   1.0000   1.0000   1.0000   1.0000
     1.0000   1.0000   1.0000   1.0000   1.0000   1.0000   1.0000   1.0000
     1.0000   1.0000   0.0000   0.0000   0.0000   0.0000   0.0000   0.0000

          k = 0.1360-0.0000-0.2719 (  3612 PWs)   bands (ev):

   -83.0648 -46.5910 -46.5908 -46.5904 -16.4545 -16.2482 -16.2313  -7.0384
    -6.9645  -6.9545  -6.9368  -6.6362   0.1720   0.7650   1.5416   2.0314
     2.4898   2.6735   2.7117   2.7217   2.9281   4.5418   4.5934   4.5990
     4.7069   4.7202   7.5509   9.5677  12.8166  14.2667  15.0914  16.0987

     occupation numbers 
     1.0000   1.0000   1.0000   1.0000   1.0000   1.0000   1.0000   1.0000
     1.0000   1.0000   1.0000   1.0000   1.0000   1.0000   1.0000   1.0000
     1.0000   1.0000   1.0000   1.0000   1.0000   1.0000   1.0000   1.0000
     1.0000   1.0000   1.0000   0.0000   0.0000   0.0000   0.0000   0.0000

          k = 0.1360-0.0000-0.1360 (  3627 PWs)   bands (ev):

   -83.0648 -46.5910 -46.5909 -46.5907 -16.5091 -16.2511 -16.2462  -6.9466
    -6.9373  -6.9369  -6.7604  -6.6061   0.3408   0.6906   1.1323   2.2935
     2.6314   2.7196   2.7558   2.7648   2.8951   4.4787   4.4869   4.5926
     4.6018   4.6444   6.4529   9.4371  13.5899  14.4745  14.9321  16.9851

     occupation numbers 
     1.0000   1.0000   1.0000   1.0000   1.0000   1.0000   1.0000   1.0000
     1.0000   1.0000   1.0000   1.0000   1.0000   1.0000   1.0000   1.0000
     1.0000   1.0000   1.0000   1.0000   1.0000   1.0000   1.0000   1.0000
     1.0000   1.0000   1.0000   0.0000   0.0000   0.0000   0.0000   0.0000

          k = 0.1360 0.1360 0.0000 (  3627 PWs)   bands (ev):

   -83.0648 -46.5910 -46.5909 -46.5907 -16.5091 -16.2511 -16.2462  -6.9466
    -6.9373  -6.9369  -6.7604  -6.6061   0.3408   0.6906   1.1323   2.2935
     2.6314   2.7196   2.7558   2.7648   2.8951   4.4787   4.4869   4.5926
     4.6018   4.6444   6.4529   9.4371  13.5899  14.4745  14.9321  16.9851

     occupation numbers 
     1.0000   1.0000   1.0000   1.0000   1.0000   1.0000   1.0000   1.0000
     1.0000   1.0000   1.0000   1.0000   1.0000   1.0000   1.0000   1.0000
     1.0000   1.0000   1.0000   1.0000   1.0000   1.0000   1.0000   1.0000
     1.0000   1.0000   1.0000   0.0000   0.0000   0.0000   0.0000   0.0000

          k = 0.1360 0.1360 0.1360 (  3620 PWs)   bands (ev):

   -83.0648 -46.5909 -46.5909 -46.5906 -16.4800 -16.2456 -16.2453  -6.9464
    -6.9462  -6.9462  -6.7603  -6.7602  -0.0140   1.1709   1.1728   2.1773
     2.5641   2.5651   2.8297   2.8302   2.9418   4.4883   4.4885   4.5912
     4.6744   4.6747   6.8439   9.5890  13.7390  13.7414  14.7809  16.6326

     occupation numbers 
     1.0000   1.0000   1.0000   1.0000   1.0000   1.0000   1.0000   1.0000
     1.0000   1.0000   1.0000   1.0000   1.0000   1.0000   1.0000   1.0000
     1.0000   1.0000   1.0000   1.0000   1.0000   1.0000   1.0000   1.0000
     1.0000   1.0000   1.0000   0.0000   0.0000   0.0000   0.0000   0.0000

          k = 0.1360 0.1360 0.2719 (  3623 PWs)   bands (ev):

   -83.0648 -46.5911 -46.5909 -46.5907 -16.4244 -16.2439 -16.2301  -7.0590
    -6.9648  -6.9640  -6.9459  -6.7600  -0.2811   1.2540   1.6918   2.0036
     2.3866   2.5439   2.8083   2.8508   2.9768   4.5285   4.5750   4.6268
     4.7026   4.7391   7.8318   9.7088  12.8324  14.1413  14.1699  16.2184

     occupation numbers 
     1.0000   1.0000   1.0000   1.0000   1.0000   1.0000   1.0000   1.0000
     1.0000   1.0000   1.0000   1.0000   1.0000   1.0000   1.0000   1.0000
     1.0000   1.0000   1.0000   1.0000   1.0000   1.0000   1.0000   1.0000
     1.0000   1.0000   1.0000   0.0000   0.0000   0.0000   0.0000   0.0000

          k = 0.1360 0.1360-0.4079 (  3608 PWs)   bands (ev):

   -83.0648 -46.5908 -46.5907 -46.5904 -16.3989 -16.2431 -16.2193  -7.2038
    -6.9738  -6.9728  -6.9456  -6.7597  -0.3621   1.2971   1.9141   1.9165
     2.3154   2.5859   2.7835   2.7925   2.9799   4.5513   4.6647   4.6817
     4.6862   4.7248   8.9184   9.0872  12.9251  13.4131  14.6182  15.4669

     occupation numbers 
     1.0000   1.0000   1.0000   1.0000   1.0000   1.0000   1.0000   1.0000
     1.0000   1.0000   1.0000   1.0000   1.0000   1.0000   1.0000   1.0000
     1.0000   1.0000   1.0000   1.0000   1.0000   1.0000   1.0000   1.0000
     1.0000   1.0000   0.0000   0.0000   0.0000   0.0000   0.0000   0.0000

          k = 0.1360 0.1360-0.2719 (  3623 PWs)   bands (ev):

   -83.0648 -46.5911 -46.5909 -46.5907 -16.4244 -16.2439 -16.2301  -7.0590
    -6.9648  -6.9640  -6.9459  -6.7600  -0.2811   1.2540   1.6918   2.0036
     2.3866   2.5439   2.8083   2.8508   2.9768   4.5285   4.5750   4.6268
     4.7026   4.7391   7.8318   9.7088  12.8324  14.1413  14.1699  16.2184

     occupation numbers 
     1.0000   1.0000   1.0000   1.0000   1.0000   1.0000   1.0000   1.0000
     1.0000   1.0000   1.0000   1.0000   1.0000   1.0000   1.0000   1.0000
     1.0000   1.0000   1.0000   1.0000   1.0000   1.0000   1.0000   1.0000
     1.0000   1.0000   1.0000   0.0000   0.0000   0.0000   0.0000   0.0000

          k = 0.1360 0.1360-0.1360 (  3620 PWs)   bands (ev):

   -83.0648 -46.5909 -46.5909 -46.5906 -16.4800 -16.2455 -16.2455  -6.9464
    -6.9462  -6.9462  -6.7602  -6.7602  -0.0140   1.1719   1.1719   2.1773
     2.5646   2.5646   2.8299   2.8299   2.9418   4.4884   4.4884   4.5912
     4.6746   4.6746   6.8439   9.5890  13.7402  13.7402  14.7809  16.6326

     occupation numbers 
     1.0000   1.0000   1.0000   1.0000   1.0000   1.0000   1.0000   1.0000
     1.0000   1.0000   1.0000   1.0000   1.0000   1.0000   1.0000   1.0000
     1.0000   1.0000   1.0000   1.0000   1.0000   1.0000   1.0000   1.0000
     1.0000   1.0000   1.0000   0.0000   0.0000   0.0000   0.0000   0.0000

          k = 0.1360 0.2719 0.0000 (  3612 PWs)   bands (ev):

   -83.0648 -46.5910 -46.5908 -46.5904 -16.4545 -16.2482 -16.2313  -7.0384
    -6.9645  -6.9545  -6.9368  -6.6362   0.1720   0.7650   1.5416   2.0314
     2.4898   2.6735   2.7117   2.7217   2.9281   4.5418   4.5934   4.5990
     4.7069   4.7202   7.5509   9.5677  12.8166  14.2667  15.0914  16.0987

     occupation numbers 
     1.0000   1.0000   1.0000   1.0000   1.0000   1.0000   1.0000   1.0000
     1.0000   1.0000   1.0000   1.0000   1.0000   1.0000   1.0000   1.0000
     1.0000   1.0000   1.0000   1.0000   1.0000   1.0000   1.0000   1.0000
     1.0000   1.0000   1.0000   0.0000   0.0000   0.0000   0.0000   0.0000

          k = 0.1360 0.2719 0.1360 (  3623 PWs)   bands (ev):

   -83.0648 -46.5911 -46.5909 -46.5907 -16.4244 -16.2439 -16.2301  -7.0590
    -6.9648  -6.9640  -6.9459  -6.7600  -0.2811   1.2540   1.6918   2.0036
     2.3866   2.5439   2.8083   2.8508   2.9768   4.5285   4.5750   4.6268
     4.7026   4.7391   7.8318   9.7088  12.8324  14.1413  14.1699  16.2184

     occupation numbers 
     1.0000   1.0000   1.0000   1.0000   1.0000   1.0000   1.0000   1.0000
     1.0000   1.0000   1.0000   1.0000   1.0000   1.0000   1.0000   1.0000
     1.0000   1.0000   1.0000   1.0000   1.0000   1.0000   1.0000   1.0000
     1.0000   1.0000   1.0000   0.0000   0.0000   0.0000   0.0000   0.0000

          k = 0.1360 0.2719 0.2719 (  3620 PWs)   bands (ev):

   -83.0648 -46.5911 -46.5909 -46.5907 -16.3676 -16.2323 -16.2259  -7.1820
    -6.9840  -6.9639  -6.9639  -6.9194  -0.6647   1.5212   1.9335   2.1133
     2.2918   2.5285   2.8328   2.9338   3.1017   4.5485   4.5861   4.6195
     4.7218   4.7451   8.5665   9.9856  12.3612  13.3031  14.1379  15.6560

     occupation numbers 
     1.0000   1.0000   1.0000   1.0000   1.0000   1.0000   1.0000   1.0000
     1.0000   1.0000   1.0000   1.0000   1.0000   1.0000   1.0000   1.0000
     1.0000   1.0000   1.0000   1.0000   1.0000   1.0000   1.0000   1.0000
     1.0000   1.0000   0.4895   0.0000   0.0000   0.0000   0.0000   0.0000

          k = 0.1360 0.2719-0.4079 (  3606 PWs)   bands (ev):

   -83.0648 -46.5909 -46.5906 -46.5906 -16.3427 -16.2288 -16.2170  -7.2910
    -6.9937  -6.9728  -6.9636  -6.9484  -0.7864   1.5944   1.8969   2.2177
     2.2402   2.7037   2.8135   2.9280   3.1403   4.5633   4.5990   4.6552
     4.7090   4.7329   9.2015   9.9063  12.3281  12.5455  14.5570  15.0930

     occupation numbers 
     1.0000   1.0000   1.0000   1.0000   1.0000   1.0000   1.0000   1.0000
     1.0000   1.0000   1.0000   1.0000   1.0000   1.0000   1.0000   1.0000
     1.0000   1.0000   1.0000   1.0000   1.0000   1.0000   1.0000   1.0000
     1.0000   1.0000   0.0000   0.0000   0.0000   0.0000   0.0000   0.0000

          k = 0.1360 0.2719-0.2719 (  3620 PWs)   bands (ev):

   -83.0648 -46.5911 -46.5909 -46.5907 -16.3676 -16.2323 -16.2259  -7.1820
    -6.9840  -6.9639  -6.9639  -6.9194  -0.6647   1.5212   1.9335   2.1133
     2.2918   2.5285   2.8328   2.9338   3.1017   4.5485   4.5861   4.6195
     4.7218   4.7451   8.5665   9.9856  12.3612  13.3031  14.1379  15.6560

     occupation numbers 
     1.0000   1.0000   1.0000   1.0000   1.0000   1.0000   1.0000   1.0000
     1.0000   1.0000   1.0000   1.0000   1.0000   1.0000   1.0000   1.0000
     1.0000   1.0000   1.0000   1.0000   1.0000   1.0000   1.0000   1.0000
     1.0000   1.0000   0.4895   0.0000   0.0000   0.0000   0.0000   0.0000

          k = 0.1360 0.2719-0.1360 (  3623 PWs)   bands (ev):

   -83.0648 -46.5911 -46.5909 -46.5907 -16.4244 -16.2439 -16.2301  -7.0590
    -6.9648  -6.9640  -6.9459  -6.7600  -0.2811   1.2540   1.6918   2.0036
     2.3866   2.5439   2.8083   2.8508   2.9768   4.5285   4.5750   4.6268
     4.7026   4.7391   7.8318   9.7088  12.8324  14.1413  14.1699  16.2184

     occupation numbers 
     1.0000   1.0000   1.0000   1.0000   1.0000   1.0000   1.0000   1.0000
     1.0000   1.0000   1.0000   1.0000   1.0000   1.0000   1.0000   1.0000
     1.0000   1.0000   1.0000   1.0000   1.0000   1.0000   1.0000   1.0000
     1.0000   1.0000   1.0000   0.0000   0.0000   0.0000   0.0000   0.0000

          k = 0.1360-0.4079-0.0000 (  3614 PWs)   bands (ev):

   -83.0648 -46.5911 -46.5908 -46.5904 -16.4292 -16.2473 -16.2205  -7.1839
    -6.9737  -6.9631  -6.9367  -6.6394   0.1255   0.8027   1.7335   1.9057
     2.4249   2.6445   2.6939   2.6991   2.9200   4.5841   4.6002   4.6702
     4.7054   4.7785   8.8009   8.8085  12.8867  13.7979  15.2515  16.2090

     occupation numbers 
     1.0000   1.0000   1.0000   1.0000   1.0000   1.0000   1.0000   1.0000
     1.0000   1.0000   1.0000   1.0000   1.0000   1.0000   1.0000   1.0000
     1.0000   1.0000   1.0000   1.0000   1.0000   1.0000   1.0000   1.0000
     1.0000   1.0000   0.0000   0.0000   0.0000   0.0000   0.0000   0.0000

          k = 0.1360-0.4079 0.1360 (  3608 PWs)   bands (ev):

   -83.0648 -46.5908 -46.5907 -46.5904 -16.3989 -16.2431 -16.2193  -7.2038
    -6.9738  -6.9728  -6.9456  -6.7597  -0.3621   1.2971   1.9141   1.9165
     2.3154   2.5859   2.7835   2.7925   2.9799   4.5513   4.6647   4.6817
     4.6862   4.7248   8.9184   9.0872  12.9251  13.4131  14.6182  15.4669

     occupation numbers 
     1.0000   1.0000   1.0000   1.0000   1.0000   1.0000   1.0000   1.0000
     1.0000   1.0000   1.0000   1.0000   1.0000   1.0000   1.0000   1.0000
     1.0000   1.0000   1.0000   1.0000   1.0000   1.0000   1.0000   1.0000
     1.0000   1.0000   0.0000   0.0000   0.0000   0.0000   0.0000   0.0000

          k = 0.1360-0.4079 0.2719 (  3606 PWs)   bands (ev):

   -83.0648 -46.5909 -46.5906 -46.5906 -16.3427 -16.2288 -16.2170  -7.2910
    -6.9937  -6.9728  -6.9636  -6.9484  -0.7864   1.5944   1.8969   2.2177
     2.2402   2.7037   2.8135   2.9280   3.1403   4.5633   4.5990   4.6552
     4.7090   4.7329   9.2015   9.9063  12.3281  12.5455  14.5570  15.0930

     occupation numbers 
     1.0000   1.0000   1.0000   1.0000   1.0000   1.0000   1.0000   1.0000
     1.0000   1.0000   1.0000   1.0000   1.0000   1.0000   1.0000   1.0000
     1.0000   1.0000   1.0000   1.0000   1.0000   1.0000   1.0000   1.0000
     1.0000   1.0000   0.0000   0.0000   0.0000   0.0000   0.0000   0.0000

          k = 0.1360-0.4079-0.4079 (  3616 PWs)   bands (ev):

   -83.0648 -46.5911 -46.5908 -46.5908 -16.3196 -16.2158 -16.2158  -7.3709
    -7.0045  -7.0036  -6.9727  -6.9727  -0.9224   1.6800   1.8729   2.2345
     2.2346   2.8180   2.8180   3.0482   3.2150   4.5006   4.6307   4.6958
     4.7065   4.7065   9.4037  10.7517  11.7712  11.7712  14.6933  15.2783

     occupation numbers 
     1.0000   1.0000   1.0000   1.0000   1.0000   1.0000   1.0000   1.0000
     1.0000   1.0000   1.0000   1.0000   1.0000   1.0000   1.0000   1.0000
     1.0000   1.0000   1.0000   1.0000   1.0000   1.0000   1.0000   1.0000
     1.0000   1.0000   0.0000   0.0000   0.0000   0.0000   0.0000   0.0000

          k = 0.1360-0.4079-0.2719 (  3606 PWs)   bands (ev):

   -83.0648 -46.5909 -46.5906 -46.5906 -16.3427 -16.2288 -16.2170  -7.2910
    -6.9937  -6.9728  -6.9636  -6.9484  -0.7864   1.5944   1.8969   2.2177
     2.2402   2.7037   2.8135   2.9280   3.1403   4.5633   4.5990   4.6552
     4.7090   4.7329   9.2015   9.9063  12.3281  12.5455  14.5570  15.0930

     occupation numbers 
     1.0000   1.0000   1.0000   1.0000   1.0000   1.0000   1.0000   1.0000
     1.0000   1.0000   1.0000   1.0000   1.0000   1.0000   1.0000   1.0000
     1.0000   1.0000   1.0000   1.0000   1.0000   1.0000   1.0000   1.0000
     1.0000   1.0000   0.0000   0.0000   0.0000   0.0000   0.0000   0.0000

          k = 0.1360-0.4079-0.1360 (  3608 PWs)   bands (ev):

   -83.0648 -46.5908 -46.5907 -46.5904 -16.3989 -16.2431 -16.2193  -7.2038
    -6.9738  -6.9728  -6.9456  -6.7597  -0.3621   1.2971   1.9141   1.9165
     2.3154   2.5859   2.7835   2.7925   2.9799   4.5513   4.6647   4.6817
     4.6862   4.7248   8.9184   9.0872  12.9251  13.4131  14.6182  15.4669

     occupation numbers 
     1.0000   1.0000   1.0000   1.0000   1.0000   1.0000   1.0000   1.0000
     1.0000   1.0000   1.0000   1.0000   1.0000   1.0000   1.0000   1.0000
     1.0000   1.0000   1.0000   1.0000   1.0000   1.0000   1.0000   1.0000
     1.0000   1.0000   0.0000   0.0000   0.0000   0.0000   0.0000   0.0000

          k = 0.1360-0.2719-0.0000 (  3612 PWs)   bands (ev):

   -83.0648 -46.5910 -46.5908 -46.5904 -16.4545 -16.2482 -16.2313  -7.0384
    -6.9645  -6.9545  -6.9368  -6.6362   0.1720   0.7650   1.5416   2.0314
     2.4898   2.6735   2.7117   2.7217   2.9281   4.5418   4.5934   4.5990
     4.7069   4.7202   7.5509   9.5677  12.8166  14.2667  15.0914  16.0986

     occupation numbers 
     1.0000   1.0000   1.0000   1.0000   1.0000   1.0000   1.0000   1.0000
     1.0000   1.0000   1.0000   1.0000   1.0000   1.0000   1.0000   1.0000
     1.0000   1.0000   1.0000   1.0000   1.0000   1.0000   1.0000   1.0000
     1.0000   1.0000   1.0000   0.0000   0.0000   0.0000   0.0000   0.0000

          k = 0.1360-0.2719 0.1360 (  3623 PWs)   bands (ev):

   -83.0648 -46.5911 -46.5909 -46.5907 -16.4244 -16.2439 -16.2301  -7.0590
    -6.9648  -6.9640  -6.9459  -6.7600  -0.2811   1.2540   1.6918   2.0036
     2.3866   2.5439   2.8083   2.8508   2.9768   4.5285   4.5750   4.6268
     4.7026   4.7391   7.8318   9.7088  12.8324  14.1413  14.1699  16.2184

     occupation numbers 
     1.0000   1.0000   1.0000   1.0000   1.0000   1.0000   1.0000   1.0000
     1.0000   1.0000   1.0000   1.0000   1.0000   1.0000   1.0000   1.0000
     1.0000   1.0000   1.0000   1.0000   1.0000   1.0000   1.0000   1.0000
     1.0000   1.0000   1.0000   0.0000   0.0000   0.0000   0.0000   0.0000

          k = 0.1360-0.2719 0.2719 (  3620 PWs)   bands (ev):

   -83.0648 -46.5911 -46.5909 -46.5907 -16.3676 -16.2323 -16.2259  -7.1820
    -6.9840  -6.9639  -6.9639  -6.9194  -0.6647   1.5212   1.9335   2.1133
     2.2918   2.5285   2.8328   2.9338   3.1017   4.5485   4.5861   4.6195
     4.7218   4.7451   8.5665   9.9856  12.3612  13.3031  14.1379  15.6560

     occupation numbers 
     1.0000   1.0000   1.0000   1.0000   1.0000   1.0000   1.0000   1.0000
     1.0000   1.0000   1.0000   1.0000   1.0000   1.0000   1.0000   1.0000
     1.0000   1.0000   1.0000   1.0000   1.0000   1.0000   1.0000   1.0000
     1.0000   1.0000   0.4895   0.0000   0.0000   0.0000   0.0000   0.0000

          k = 0.1360-0.2719-0.4079 (  3606 PWs)   bands (ev):

   -83.0648 -46.5909 -46.5906 -46.5906 -16.3427 -16.2288 -16.2170  -7.2910
    -6.9937  -6.9728  -6.9636  -6.9484  -0.7864   1.5944   1.8969   2.2177
     2.2402   2.7037   2.8135   2.9280   3.1403   4.5633   4.5990   4.6552
     4.7090   4.7329   9.2015   9.9063  12.3281  12.5455  14.5570  15.0930

     occupation numbers 
     1.0000   1.0000   1.0000   1.0000   1.0000   1.0000   1.0000   1.0000
     1.0000   1.0000   1.0000   1.0000   1.0000   1.0000   1.0000   1.0000
     1.0000   1.0000   1.0000   1.0000   1.0000   1.0000   1.0000   1.0000
     1.0000   1.0000   0.0000   0.0000   0.0000   0.0000   0.0000   0.0000

          k = 0.1360-0.2719-0.2719 (  3620 PWs)   bands (ev):

   -83.0648 -46.5911 -46.5909 -46.5907 -16.3676 -16.2323 -16.2259  -7.1820
    -6.9840  -6.9639  -6.9639  -6.9194  -0.6647   1.5212   1.9335   2.1133
     2.2918   2.5285   2.8328   2.9338   3.1017   4.5485   4.5861   4.6195
     4.7218   4.7451   8.5665   9.9856  12.3612  13.3031  14.1379  15.6560

     occupation numbers 
     1.0000   1.0000   1.0000   1.0000   1.0000   1.0000   1.0000   1.0000
     1.0000   1.0000   1.0000   1.0000   1.0000   1.0000   1.0000   1.0000
     1.0000   1.0000   1.0000   1.0000   1.0000   1.0000   1.0000   1.0000
     1.0000   1.0000   0.4895   0.0000   0.0000   0.0000   0.0000   0.0000

          k = 0.1360-0.2719-0.1360 (  3623 PWs)   bands (ev):

   -83.0648 -46.5911 -46.5909 -46.5907 -16.4244 -16.2439 -16.2301  -7.0590
    -6.9648  -6.9640  -6.9459  -6.7600  -0.2811   1.2540   1.6918   2.0036
     2.3866   2.5439   2.8083   2.8508   2.9768   4.5285   4.5750   4.6268
     4.7026   4.7391   7.8318   9.7088  12.8324  14.1413  14.1699  16.2184

     occupation numbers 
     1.0000   1.0000   1.0000   1.0000   1.0000   1.0000   1.0000   1.0000
     1.0000   1.0000   1.0000   1.0000   1.0000   1.0000   1.0000   1.0000
     1.0000   1.0000   1.0000   1.0000   1.0000   1.0000   1.0000   1.0000
     1.0000   1.0000   1.0000   0.0000   0.0000   0.0000   0.0000   0.0000

          k = 0.1360-0.1360-0.0000 (  3627 PWs)   bands (ev):

   -83.0648 -46.5910 -46.5909 -46.5907 -16.5091 -16.2511 -16.2462  -6.9466
    -6.9373  -6.9369  -6.7604  -6.6061   0.3408   0.6906   1.1323   2.2935
     2.6314   2.7196   2.7558   2.7648   2.8951   4.4787   4.4869   4.5926
     4.6018   4.6444   6.4529   9.4371  13.5899  14.4745  14.9321  16.9851

     occupation numbers 
     1.0000   1.0000   1.0000   1.0000   1.0000   1.0000   1.0000   1.0000
     1.0000   1.0000   1.0000   1.0000   1.0000   1.0000   1.0000   1.0000
     1.0000   1.0000   1.0000   1.0000   1.0000   1.0000   1.0000   1.0000
     1.0000   1.0000   1.0000   0.0000   0.0000   0.0000   0.0000   0.0000

          k = 0.1360-0.1360 0.1360 (  3620 PWs)   bands (ev):

   -83.0648 -46.5909 -46.5909 -46.5906 -16.4800 -16.2455 -16.2454  -6.9464
    -6.9462  -6.9462  -6.7603  -6.7602  -0.0140   1.1715   1.1722   2.1773
     2.5644   2.5647   2.8298   2.8300   2.9418   4.4884   4.4885   4.5912
     4.6745   4.6746   6.8439   9.5890  13.7398  13.7406  14.7809  16.6326

     occupation numbers 
     1.0000   1.0000   1.0000   1.0000   1.0000   1.0000   1.0000   1.0000
     1.0000   1.0000   1.0000   1.0000   1.0000   1.0000   1.0000   1.0000
     1.0000   1.0000   1.0000   1.0000   1.0000   1.0000   1.0000   1.0000
     1.0000   1.0000   1.0000   0.0000   0.0000   0.0000   0.0000   0.0000

          k = 0.1360-0.1360 0.2719 (  3623 PWs)   bands (ev):

   -83.0648 -46.5911 -46.5909 -46.5907 -16.4244 -16.2439 -16.2301  -7.0590
    -6.9648  -6.9640  -6.9459  -6.7600  -0.2811   1.2540   1.6918   2.0036
     2.3866   2.5439   2.8083   2.8508   2.9768   4.5285   4.5750   4.6268
     4.7026   4.7391   7.8318   9.7088  12.8324  14.1413  14.1699  16.2184

     occupation numbers 
     1.0000   1.0000   1.0000   1.0000   1.0000   1.0000   1.0000   1.0000
     1.0000   1.0000   1.0000   1.0000   1.0000   1.0000   1.0000   1.0000
     1.0000   1.0000   1.0000   1.0000   1.0000   1.0000   1.0000   1.0000
     1.0000   1.0000   1.0000   0.0000   0.0000   0.0000   0.0000   0.0000

          k = 0.1360-0.1360-0.4079 (  3608 PWs)   bands (ev):

   -83.0648 -46.5908 -46.5907 -46.5904 -16.3989 -16.2431 -16.2193  -7.2038
    -6.9738  -6.9728  -6.9456  -6.7597  -0.3621   1.2971   1.9141   1.9165
     2.3154   2.5859   2.7835   2.7925   2.9799   4.5513   4.6647   4.6817
     4.6862   4.7248   8.9184   9.0872  12.9251  13.4131  14.6182  15.4669

     occupation numbers 
     1.0000   1.0000   1.0000   1.0000   1.0000   1.0000   1.0000   1.0000
     1.0000   1.0000   1.0000   1.0000   1.0000   1.0000   1.0000   1.0000
     1.0000   1.0000   1.0000   1.0000   1.0000   1.0000   1.0000   1.0000
     1.0000   1.0000   0.0000   0.0000   0.0000   0.0000   0.0000   0.0000

          k = 0.1360-0.1360-0.2719 (  3623 PWs)   bands (ev):

   -83.0648 -46.5911 -46.5909 -46.5907 -16.4244 -16.2439 -16.2301  -7.0590
    -6.9648  -6.9640  -6.9459  -6.7600  -0.2811   1.2540   1.6918   2.0036
     2.3866   2.5439   2.8083   2.8508   2.9768   4.5285   4.5750   4.6268
     4.7026   4.7391   7.8318   9.7088  12.8324  14.1413  14.1699  16.2184

     occupation numbers 
     1.0000   1.0000   1.0000   1.0000   1.0000   1.0000   1.0000   1.0000
     1.0000   1.0000   1.0000   1.0000   1.0000   1.0000   1.0000   1.0000
     1.0000   1.0000   1.0000   1.0000   1.0000   1.0000   1.0000   1.0000
     1.0000   1.0000   1.0000   0.0000   0.0000   0.0000   0.0000   0.0000

          k = 0.1360-0.1360-0.1360 (  3620 PWs)   bands (ev):

   -83.0648 -46.5909 -46.5909 -46.5906 -16.4800 -16.2456 -16.2453  -6.9464
    -6.9462  -6.9462  -6.7603  -6.7602  -0.0140   1.1712   1.1725   2.1773
     2.5643   2.5649   2.8298   2.8301   2.9418   4.4884   4.4885   4.5912
     4.6745   4.6747   6.8439   9.5890  13.7394  13.7410  14.7809  16.6326

     occupation numbers 
     1.0000   1.0000   1.0000   1.0000   1.0000   1.0000   1.0000   1.0000
     1.0000   1.0000   1.0000   1.0000   1.0000   1.0000   1.0000   1.0000
     1.0000   1.0000   1.0000   1.0000   1.0000   1.0000   1.0000   1.0000
     1.0000   1.0000   1.0000   0.0000   0.0000   0.0000   0.0000   0.0000

          k = 0.2719 0.0000 0.0000 (  3619 PWs)   bands (ev):

   -83.0648 -46.5909 -46.5909 -46.5905 -16.4834 -16.2534 -16.2326  -7.0027
    -6.9547  -6.9546  -6.9279  -6.5202   0.7221   0.7221   0.8676   2.0897
     2.6127   2.6907   2.6907   2.7542   2.7542   4.5087   4.5342   4.6123
     4.7191   4.7191   7.2388   9.4004  12.9782  15.0701  15.0701  16.9034

     occupation numbers 
     1.0000   1.0000   1.0000   1.0000   1.0000   1.0000   1.0000   1.0000
     1.0000   1.0000   1.0000   1.0000   1.0000   1.0000   1.0000   1.0000
     1.0000   1.0000   1.0000   1.0000   1.0000   1.0000   1.0000   1.0000
     1.0000   1.0000   1.0000   0.0000   0.0000   0.0000   0.0000   0.0000

          k = 0.2719 0.0000 0.1360 (  3612 PWs)   bands (ev):

   -83.0648 -46.5910 -46.5908 -46.5904 -16.4545 -16.2482 -16.2313  -7.0384
    -6.9645  -6.9545  -6.9368  -6.6362   0.1720   0.7650   1.5416   2.0314
     2.4898   2.6735   2.7117   2.7217   2.9281   4.5418   4.5934   4.5990
     4.7069   4.7202   7.5509   9.5677  12.8166  14.2667  15.0914  16.0987

     occupation numbers 
     1.0000   1.0000   1.0000   1.0000   1.0000   1.0000   1.0000   1.0000
     1.0000   1.0000   1.0000   1.0000   1.0000   1.0000   1.0000   1.0000
     1.0000   1.0000   1.0000   1.0000   1.0000   1.0000   1.0000   1.0000
     1.0000   1.0000   1.0000   0.0000   0.0000   0.0000   0.0000   0.0000

          k = 0.2719 0.0000 0.2719 (  3604 PWs)   bands (ev):

   -83.0648 -46.5907 -46.5907 -46.5905 -16.4001 -16.2345 -16.2266  -7.1820
    -6.9843  -6.9543  -6.9541  -6.7873  -0.1788   0.8534   1.9115   2.1017
     2.4149   2.6351   2.6356   2.8049   3.0865   4.5487   4.6461   4.6724
     4.7179   4.7264   8.3708   9.8912  12.1456  13.2753  15.1647  15.9468

     occupation numbers 
     1.0000   1.0000   1.0000   1.0000   1.0000   1.0000   1.0000   1.0000
     1.0000   1.0000   1.0000   1.0000   1.0000   1.0000   1.0000   1.0000
     1.0000   1.0000   1.0000   1.0000   1.0000   1.0000   1.0000   1.0000
     1.0000   1.0000   1.0015   0.0000   0.0000   0.0000   0.0000   0.0000

          k = 0.2719-0.0000-0.4079 (  3604 PWs)   bands (ev):

   -83.0648 -46.5909 -46.5907 -46.5904 -16.3761 -16.2301 -16.2179  -7.2888
    -6.9940  -6.9629  -6.9541  -6.8241  -0.2866   0.8991   1.8557   2.2931
     2.3856   2.6010   2.6139   2.8806   3.1209   4.5732   4.6302   4.6856
     4.7233   4.7808   9.1747   9.6709  12.2608  12.3387  15.2369  15.9669

     occupation numbers 
     1.0000   1.0000   1.0000   1.0000   1.0000   1.0000   1.0000   1.0000
     1.0000   1.0000   1.0000   1.0000   1.0000   1.0000   1.0000   1.0000
     1.0000   1.0000   1.0000   1.0000   1.0000   1.0000   1.0000   1.0000
     1.0000   1.0000   0.0000   0.0000   0.0000   0.0000   0.0000   0.0000

          k = 0.2719-0.0000-0.2719 (  3604 PWs)   bands (ev):

   -83.0648 -46.5907 -46.5907 -46.5905 -16.4001 -16.2345 -16.2266  -7.1820
    -6.9843  -6.9543  -6.9541  -6.7873  -0.1788   0.8534   1.9115   2.1017
     2.4149   2.6351   2.6356   2.8049   3.0865   4.5487   4.6461   4.6724
     4.7179   4.7264   8.3708   9.8912  12.1456  13.2753  15.1647  15.9468

     occupation numbers 
     1.0000   1.0000   1.0000   1.0000   1.0000   1.0000   1.0000   1.0000
     1.0000   1.0000   1.0000   1.0000   1.0000   1.0000   1.0000   1.0000
     1.0000   1.0000   1.0000   1.0000   1.0000   1.0000   1.0000   1.0000
     1.0000   1.0000   1.0015   0.0000   0.0000   0.0000   0.0000   0.0000

          k = 0.2719-0.0000-0.1360 (  3612 PWs)   bands (ev):

   -83.0648 -46.5910 -46.5908 -46.5904 -16.4545 -16.2482 -16.2313  -7.0384
    -6.9645  -6.9545  -6.9368  -6.6362   0.1720   0.7650   1.5416   2.0314
     2.4898   2.6735   2.7117   2.7217   2.9281   4.5418   4.5934   4.5990
     4.7069   4.7202   7.5509   9.5677  12.8166  14.2667  15.0914  16.0987

     occupation numbers 
     1.0000   1.0000   1.0000   1.0000   1.0000   1.0000   1.0000   1.0000
     1.0000   1.0000   1.0000   1.0000   1.0000   1.0000   1.0000   1.0000
     1.0000   1.0000   1.0000   1.0000   1.0000   1.0000   1.0000   1.0000
     1.0000   1.0000   1.0000   0.0000   0.0000   0.0000   0.0000   0.0000

          k = 0.2719 0.1360 0.0000 (  3612 PWs)   bands (ev):

   -83.0648 -46.5910 -46.5908 -46.5904 -16.4545 -16.2482 -16.2313  -7.0384
    -6.9645  -6.9545  -6.9368  -6.6362   0.1720   0.7650   1.5416   2.0314
     2.4898   2.6735   2.7117   2.7217   2.9281   4.5418   4.5934   4.5990
     4.7069   4.7202   7.5509   9.5677  12.8166  14.2667  15.0914  16.0986

     occupation numbers 
     1.0000   1.0000   1.0000   1.0000   1.0000   1.0000   1.0000   1.0000
     1.0000   1.0000   1.0000   1.0000   1.0000   1.0000   1.0000   1.0000
     1.0000   1.0000   1.0000   1.0000   1.0000   1.0000   1.0000   1.0000
     1.0000   1.0000   1.0000   0.0000   0.0000   0.0000   0.0000   0.0000

          k = 0.2719 0.1360 0.1360 (  3623 PWs)   bands (ev):

   -83.0648 -46.5911 -46.5909 -46.5907 -16.4244 -16.2439 -16.2301  -7.0590
    -6.9648  -6.9640  -6.9459  -6.7600  -0.2811   1.2540   1.6918   2.0036
     2.3866   2.5439   2.8083   2.8508   2.9768   4.5285   4.5750   4.6268
     4.7026   4.7391   7.8318   9.7088  12.8324  14.1413  14.1699  16.2184

     occupation numbers 
     1.0000   1.0000   1.0000   1.0000   1.0000   1.0000   1.0000   1.0000
     1.0000   1.0000   1.0000   1.0000   1.0000   1.0000   1.0000   1.0000
     1.0000   1.0000   1.0000   1.0000   1.0000   1.0000   1.0000   1.0000
     1.0000   1.0000   1.0000   0.0000   0.0000   0.0000   0.0000   0.0000

          k = 0.2719 0.1360 0.2719 (  3620 PWs)   bands (ev):

   -83.0648 -46.5911 -46.5909 -46.5907 -16.3676 -16.2323 -16.2259  -7.1820
    -6.9840  -6.9639  -6.9639  -6.9194  -0.6647   1.5212   1.9335   2.1133
     2.2918   2.5285   2.8328   2.9338   3.1017   4.5485   4.5861   4.6195
     4.7218   4.7451   8.5665   9.9856  12.3612  13.3031  14.1379  15.6560

     occupation numbers 
     1.0000   1.0000   1.0000   1.0000   1.0000   1.0000   1.0000   1.0000
     1.0000   1.0000   1.0000   1.0000   1.0000   1.0000   1.0000   1.0000
     1.0000   1.0000   1.0000   1.0000   1.0000   1.0000   1.0000   1.0000
     1.0000   1.0000   0.4894   0.0000   0.0000   0.0000   0.0000   0.0000

          k = 0.2719 0.1360-0.4079 (  3606 PWs)   bands (ev):

   -83.0648 -46.5909 -46.5906 -46.5906 -16.3427 -16.2288 -16.2170  -7.2910
    -6.9937  -6.9728  -6.9636  -6.9484  -0.7864   1.5944   1.8969   2.2177
     2.2402   2.7037   2.8135   2.9280   3.1403   4.5633   4.5990   4.6552
     4.7090   4.7329   9.2015   9.9063  12.3281  12.5455  14.5570  15.0930

     occupation numbers 
     1.0000   1.0000   1.0000   1.0000   1.0000   1.0000   1.0000   1.0000
     1.0000   1.0000   1.0000   1.0000   1.0000   1.0000   1.0000   1.0000
     1.0000   1.0000   1.0000   1.0000   1.0000   1.0000   1.0000   1.0000
     1.0000   1.0000   0.0000   0.0000   0.0000   0.0000   0.0000   0.0000

          k = 0.2719 0.1360-0.2719 (  3620 PWs)   bands (ev):

   -83.0648 -46.5911 -46.5909 -46.5907 -16.3676 -16.2323 -16.2259  -7.1820
    -6.9840  -6.9639  -6.9639  -6.9194  -0.6647   1.5212   1.9335   2.1133
     2.2918   2.5285   2.8328   2.9338   3.1017   4.5485   4.5861   4.6195
     4.7218   4.7451   8.5665   9.9856  12.3612  13.3031  14.1379  15.6560

     occupation numbers 
     1.0000   1.0000   1.0000   1.0000   1.0000   1.0000   1.0000   1.0000
     1.0000   1.0000   1.0000   1.0000   1.0000   1.0000   1.0000   1.0000
     1.0000   1.0000   1.0000   1.0000   1.0000   1.0000   1.0000   1.0000
     1.0000   1.0000   0.4895   0.0000   0.0000   0.0000   0.0000   0.0000

          k = 0.2719 0.1360-0.1360 (  3623 PWs)   bands (ev):

   -83.0648 -46.5911 -46.5909 -46.5907 -16.4244 -16.2439 -16.2301  -7.0590
    -6.9648  -6.9640  -6.9459  -6.7600  -0.2811   1.2540   1.6918   2.0036
     2.3866   2.5438   2.8083   2.8508   2.9768   4.5285   4.5750   4.6268
     4.7026   4.7391   7.8318   9.7088  12.8324  14.1413  14.1699  16.2184

     occupation numbers 
     1.0000   1.0000   1.0000   1.0000   1.0000   1.0000   1.0000   1.0000
     1.0000   1.0000   1.0000   1.0000   1.0000   1.0000   1.0000   1.0000
     1.0000   1.0000   1.0000   1.0000   1.0000   1.0000   1.0000   1.0000
     1.0000   1.0000   1.0000   0.0000   0.0000   0.0000   0.0000   0.0000

          k = 0.2719 0.2719 0.0000 (  3604 PWs)   bands (ev):

   -83.0648 -46.5907 -46.5907 -46.5905 -16.4001 -16.2345 -16.2266  -7.1820
    -6.9843  -6.9543  -6.9541  -6.7873  -0.1788   0.8534   1.9115   2.1017
     2.4149   2.6351   2.6356   2.8049   3.0865   4.5487   4.6461   4.6724
     4.7179   4.7264   8.3708   9.8912  12.1456  13.2753  15.1647  15.9468

     occupation numbers 
     1.0000   1.0000   1.0000   1.0000   1.0000   1.0000   1.0000   1.0000
     1.0000   1.0000   1.0000   1.0000   1.0000   1.0000   1.0000   1.0000
     1.0000   1.0000   1.0000   1.0000   1.0000   1.0000   1.0000   1.0000
     1.0000   1.0000   1.0015   0.0000   0.0000   0.0000   0.0000   0.0000

          k = 0.2719 0.2719 0.1360 (  3620 PWs)   bands (ev):

   -83.0648 -46.5911 -46.5909 -46.5907 -16.3676 -16.2323 -16.2259  -7.1820
    -6.9840  -6.9639  -6.9639  -6.9194  -0.6647   1.5212   1.9335   2.1133
     2.2918   2.5285   2.8328   2.9338   3.1017   4.5485   4.5861   4.6195
     4.7218   4.7451   8.5665   9.9856  12.3612  13.3031  14.1379  15.6560

     occupation numbers 
     1.0000   1.0000   1.0000   1.0000   1.0000   1.0000   1.0000   1.0000
     1.0000   1.0000   1.0000   1.0000   1.0000   1.0000   1.0000   1.0000
     1.0000   1.0000   1.0000   1.0000   1.0000   1.0000   1.0000   1.0000
     1.0000   1.0000   0.4895   0.0000   0.0000   0.0000   0.0000   0.0000

          k = 0.2719 0.2719 0.2719 (  3614 PWs)   bands (ev):

   -83.0648 -46.5909 -46.5909 -46.5908 -16.3041 -16.2245 -16.2242  -7.1816
    -7.1816  -6.9836  -6.9826  -6.9826  -1.1249   1.9651   2.1197   2.1207
     2.4462   2.4481   3.0483   3.0487   3.1559   4.5457   4.5477   4.5480
     4.7071   4.7071   9.0069  10.2888  12.9715  12.9730  13.1834  15.0986

     occupation numbers 
     1.0000   1.0000   1.0000   1.0000   1.0000   1.0000   1.0000   1.0000
     1.0000   1.0000   1.0000   1.0000   1.0000   1.0000   1.0000   1.0000
     1.0000   1.0000   1.0000   1.0000   1.0000   1.0000   1.0000   1.0000
     1.0000   1.0000   0.0000   0.0000   0.0000   0.0000   0.0000   0.0000

          k = 0.2719 0.2719-0.4079 (  3608 PWs)   bands (ev):

   -83.0648 -46.5910 -46.5908 -46.5905 -16.2767 -16.2236 -16.2152  -7.3113
    -7.1814  -6.9931  -6.9919  -6.9825  -1.2752   1.9709   2.1144   2.1250
     2.4318   2.8452   3.0490   3.0755   3.1946   4.5249   4.5462   4.5769
     4.6436   4.6918   9.2391  10.6053  12.4318  12.9252  13.8829  13.9341

     occupation numbers 
     1.0000   1.0000   1.0000   1.0000   1.0000   1.0000   1.0000   1.0000
     1.0000   1.0000   1.0000   1.0000   1.0000   1.0000   1.0000   1.0000
     1.0000   1.0000   1.0000   1.0000   1.0000   1.0000   1.0000   1.0000
     1.0000   1.0000   0.0000   0.0000   0.0000   0.0000   0.0000   0.0000

          k = 0.2719 0.2719-0.2719 (  3614 PWs)   bands (ev):

   -83.0648 -46.5909 -46.5909 -46.5908 -16.3041 -16.2243 -16.2243  -7.1816
    -7.1816  -6.9836  -6.9826  -6.9826  -1.1249   1.9651   2.1202   2.1202
     2.4472   2.4472   3.0485   3.0485   3.1559   4.5457   4.5479   4.5479
     4.7071   4.7071   9.0069  10.2888  12.9722  12.9722  13.1834  15.1011

     occupation numbers 
     1.0000   1.0000   1.0000   1.0000   1.0000   1.0000   1.0000   1.0000
     1.0000   1.0000   1.0000   1.0000   1.0000   1.0000   1.0000   1.0000
     1.0000   1.0000   1.0000   1.0000   1.0000   1.0000   1.0000   1.0000
     1.0000   1.0000   0.0000   0.0000   0.0000   0.0000   0.0000   0.0000

          k = 0.2719 0.2719-0.1360 (  3620 PWs)   bands (ev):

   -83.0648 -46.5911 -46.5909 -46.5907 -16.3676 -16.2323 -16.2259  -7.1820
    -6.9840  -6.9639  -6.9639  -6.9194  -0.6647   1.5212   1.9335   2.1133
     2.2918   2.5285   2.8328   2.9338   3.1017   4.5485   4.5861   4.6195
     4.7218   4.7451   8.5665   9.9856  12.3612  13.3031  14.1379  15.6560

     occupation numbers 
     1.0000   1.0000   1.0000   1.0000   1.0000   1.0000   1.0000   1.0000
     1.0000   1.0000   1.0000   1.0000   1.0000   1.0000   1.0000   1.0000
     1.0000   1.0000   1.0000   1.0000   1.0000   1.0000   1.0000   1.0000
     1.0000   1.0000   0.4895   0.0000   0.0000   0.0000   0.0000   0.0000

          k = 0.2719-0.4079-0.0000 (  3604 PWs)   bands (ev):

   -83.0648 -46.5909 -46.5907 -46.5904 -16.3761 -16.2301 -16.2178  -7.2888
    -6.9940  -6.9629  -6.9541  -6.8241  -0.2866   0.8991   1.8557   2.2931
     2.3856   2.6010   2.6139   2.8806   3.1209   4.5732   4.6302   4.6856
     4.7233   4.7808   9.1747   9.6709  12.2608  12.3387  15.2369  15.9669

     occupation numbers 
     1.0000   1.0000   1.0000   1.0000   1.0000   1.0000   1.0000   1.0000
     1.0000   1.0000   1.0000   1.0000   1.0000   1.0000   1.0000   1.0000
     1.0000   1.0000   1.0000   1.0000   1.0000   1.0000   1.0000   1.0000
     1.0000   1.0000   0.0000   0.0000   0.0000   0.0000   0.0000   0.0000

          k = 0.2719-0.4079 0.1360 (  3606 PWs)   bands (ev):

   -83.0648 -46.5909 -46.5906 -46.5906 -16.3427 -16.2288 -16.2170  -7.2910
    -6.9937  -6.9728  -6.9636  -6.9484  -0.7864   1.5944   1.8969   2.2177
     2.2402   2.7037   2.8135   2.9280   3.1403   4.5633   4.5990   4.6552
     4.7090   4.7329   9.2015   9.9063  12.3281  12.5455  14.5570  15.0931

     occupation numbers 
     1.0000   1.0000   1.0000   1.0000   1.0000   1.0000   1.0000   1.0000
     1.0000   1.0000   1.0000   1.0000   1.0000   1.0000   1.0000   1.0000
     1.0000   1.0000   1.0000   1.0000   1.0000   1.0000   1.0000   1.0000
     1.0000   1.0000   0.0000   0.0000   0.0000   0.0000   0.0000   0.0000

          k = 0.2719-0.4079 0.2719 (  3608 PWs)   bands (ev):

   -83.0648 -46.5910 -46.5908 -46.5905 -16.2767 -16.2236 -16.2152  -7.3113
    -7.1814  -6.9931  -6.9919  -6.9825  -1.2752   1.9709   2.1144   2.1250
     2.4318   2.8452   3.0490   3.0755   3.1946   4.5249   4.5462   4.5769
     4.6436   4.6918   9.2391  10.6053  12.4318  12.9252  13.8829  13.9341

     occupation numbers 
     1.0000   1.0000   1.0000   1.0000   1.0000   1.0000   1.0000   1.0000
     1.0000   1.0000   1.0000   1.0000   1.0000   1.0000   1.0000   1.0000
     1.0000   1.0000   1.0000   1.0000   1.0000   1.0000   1.0000   1.0000
     1.0000   1.0000   0.0000   0.0000   0.0000   0.0000   0.0000   0.0000

          k = 0.2719-0.4079-0.4079 (  3612 PWs)   bands (ev):

   -83.0648 -46.5911 -46.5907 -46.5907 -16.2495 -16.2143 -16.2143  -7.3705
    -7.2483  -7.0022  -6.9920  -6.9920  -1.4365   1.9871   2.0942   2.0942
     2.6465   3.0500   3.1223   3.1223   3.2489   4.4696   4.5417   4.5417
     4.6322   4.6538   9.2492  11.3550  12.4120  12.4121  13.9272  14.0810

     occupation numbers 
     1.0000   1.0000   1.0000   1.0000   1.0000   1.0000   1.0000   1.0000
     1.0000   1.0000   1.0000   1.0000   1.0000   1.0000   1.0000   1.0000
     1.0000   1.0000   1.0000   1.0000   1.0000   1.0000   1.0000   1.0000
     1.0000   1.0000   0.0000   0.0000   0.0000   0.0000   0.0000   0.0000

          k = 0.2719-0.4079-0.2719 (  3608 PWs)   bands (ev):

   -83.0648 -46.5910 -46.5908 -46.5905 -16.2767 -16.2236 -16.2152  -7.3113
    -7.1814  -6.9931  -6.9919  -6.9825  -1.2752   1.9709   2.1144   2.1250
     2.4318   2.8452   3.0490   3.0755   3.1946   4.5249   4.5462   4.5769
     4.6436   4.6918   9.2391  10.6053  12.4318  12.9252  13.8829  13.9341

     occupation numbers 
     1.0000   1.0000   1.0000   1.0000   1.0000   1.0000   1.0000   1.0000
     1.0000   1.0000   1.0000   1.0000   1.0000   1.0000   1.0000   1.0000
     1.0000   1.0000   1.0000   1.0000   1.0000   1.0000   1.0000   1.0000
     1.0000   1.0000   0.0000   0.0000   0.0000   0.0000   0.0000   0.0000

          k = 0.2719-0.4079-0.1360 (  3606 PWs)   bands (ev):

   -83.0648 -46.5909 -46.5906 -46.5906 -16.3427 -16.2288 -16.2170  -7.2910
    -6.9937  -6.9728  -6.9636  -6.9484  -0.7864   1.5944   1.8969   2.2177
     2.2402   2.7037   2.8135   2.9280   3.1403   4.5633   4.5990   4.6552
     4.7090   4.7329   9.2015   9.9063  12.3281  12.5455  14.5570  15.0931

     occupation numbers 
     1.0000   1.0000   1.0000   1.0000   1.0000   1.0000   1.0000   1.0000
     1.0000   1.0000   1.0000   1.0000   1.0000   1.0000   1.0000   1.0000
     1.0000   1.0000   1.0000   1.0000   1.0000   1.0000   1.0000   1.0000
     1.0000   1.0000   0.0000   0.0000   0.0000   0.0000   0.0000   0.0000

          k = 0.2719-0.2719-0.0000 (  3604 PWs)   bands (ev):

   -83.0648 -46.5907 -46.5907 -46.5905 -16.4001 -16.2345 -16.2266  -7.1820
    -6.9843  -6.9543  -6.9541  -6.7873  -0.1788   0.8534   1.9115   2.1017
     2.4149   2.6351   2.6356   2.8049   3.0865   4.5487   4.6461   4.6724
     4.7179   4.7264   8.3708   9.8912  12.1456  13.2753  15.1647  15.9468

     occupation numbers 
     1.0000   1.0000   1.0000   1.0000   1.0000   1.0000   1.0000   1.0000
     1.0000   1.0000   1.0000   1.0000   1.0000   1.0000   1.0000   1.0000
     1.0000   1.0000   1.0000   1.0000   1.0000   1.0000   1.0000   1.0000
     1.0000   1.0000   1.0015   0.0000   0.0000   0.0000   0.0000   0.0000

          k = 0.2719-0.2719 0.1360 (  3620 PWs)   bands (ev):

   -83.0648 -46.5911 -46.5909 -46.5907 -16.3676 -16.2323 -16.2259  -7.1820
    -6.9840  -6.9639  -6.9639  -6.9194  -0.6647   1.5212   1.9335   2.1133
     2.2918   2.5285   2.8328   2.9338   3.1017   4.5485   4.5861   4.6195
     4.7218   4.7451   8.5665   9.9856  12.3612  13.3031  14.1379  15.6560

     occupation numbers 
     1.0000   1.0000   1.0000   1.0000   1.0000   1.0000   1.0000   1.0000
     1.0000   1.0000   1.0000   1.0000   1.0000   1.0000   1.0000   1.0000
     1.0000   1.0000   1.0000   1.0000   1.0000   1.0000   1.0000   1.0000
     1.0000   1.0000   0.4895   0.0000   0.0000   0.0000   0.0000   0.0000

          k = 0.2719-0.2719 0.2719 (  3614 PWs)   bands (ev):

   -83.0648 -46.5909 -46.5909 -46.5908 -16.3041 -16.2244 -16.2243  -7.1816
    -7.1816  -6.9836  -6.9826  -6.9826  -1.1249   1.9651   2.1200   2.1204
     2.4468   2.4475   3.0484   3.0486   3.1559   4.5457   4.5478   4.5479
     4.7071   4.7071   9.0069  10.2888  12.9720  12.9725  13.1834  15.1009

     occupation numbers 
     1.0000   1.0000   1.0000   1.0000   1.0000   1.0000   1.0000   1.0000
     1.0000   1.0000   1.0000   1.0000   1.0000   1.0000   1.0000   1.0000
     1.0000   1.0000   1.0000   1.0000   1.0000   1.0000   1.0000   1.0000
     1.0000   1.0000   0.0000   0.0000   0.0000   0.0000   0.0000   0.0000

          k = 0.2719-0.2719-0.4079 (  3608 PWs)   bands (ev):

   -83.0648 -46.5910 -46.5908 -46.5905 -16.2767 -16.2236 -16.2152  -7.3113
    -7.1814  -6.9931  -6.9919  -6.9825  -1.2752   1.9709   2.1144   2.1250
     2.4318   2.8452   3.0490   3.0755   3.1946   4.5249   4.5462   4.5769
     4.6436   4.6918   9.2391  10.6053  12.4318  12.9252  13.8829  13.9341

     occupation numbers 
     1.0000   1.0000   1.0000   1.0000   1.0000   1.0000   1.0000   1.0000
     1.0000   1.0000   1.0000   1.0000   1.0000   1.0000   1.0000   1.0000
     1.0000   1.0000   1.0000   1.0000   1.0000   1.0000   1.0000   1.0000
     1.0000   1.0000   0.0000   0.0000   0.0000   0.0000   0.0000   0.0000

          k = 0.2719-0.2719-0.2719 (  3614 PWs)   bands (ev):

   -83.0648 -46.5909 -46.5909 -46.5908 -16.3041 -16.2245 -16.2242  -7.1816
    -7.1816  -6.9836  -6.9826  -6.9826  -1.1249   1.9651   2.1198   2.1205
     2.4465   2.4478   3.0484   3.0487   3.1559   4.5457   4.5478   4.5480
     4.7071   4.7071   9.0069  10.2888  12.9717  12.9727  13.1834  15.0995

     occupation numbers 
     1.0000   1.0000   1.0000   1.0000   1.0000   1.0000   1.0000   1.0000
     1.0000   1.0000   1.0000   1.0000   1.0000   1.0000   1.0000   1.0000
     1.0000   1.0000   1.0000   1.0000   1.0000   1.0000   1.0000   1.0000
     1.0000   1.0000   0.0000   0.0000   0.0000   0.0000   0.0000   0.0000

          k = 0.2719-0.2719-0.1360 (  3620 PWs)   bands (ev):

   -83.0648 -46.5911 -46.5909 -46.5907 -16.3676 -16.2323 -16.2259  -7.1820
    -6.9840  -6.9639  -6.9639  -6.9194  -0.6647   1.5212   1.9335   2.1133
     2.2918   2.5285   2.8328   2.9338   3.1017   4.5485   4.5861   4.6195
     4.7218   4.7451   8.5665   9.9856  12.3612  13.3031  14.1379  15.6560

     occupation numbers 
     1.0000   1.0000   1.0000   1.0000   1.0000   1.0000   1.0000   1.0000
     1.0000   1.0000   1.0000   1.0000   1.0000   1.0000   1.0000   1.0000
     1.0000   1.0000   1.0000   1.0000   1.0000   1.0000   1.0000   1.0000
     1.0000   1.0000   0.4895   0.0000   0.0000   0.0000   0.0000   0.0000

          k = 0.2719-0.1360 0.0000 (  3612 PWs)   bands (ev):

   -83.0648 -46.5910 -46.5908 -46.5904 -16.4545 -16.2482 -16.2313  -7.0384
    -6.9645  -6.9545  -6.9368  -6.6362   0.1720   0.7650   1.5416   2.0314
     2.4898   2.6735   2.7117   2.7217   2.9281   4.5418   4.5934   4.5990
     4.7069   4.7202   7.5509   9.5677  12.8166  14.2667  15.0914  16.0986

     occupation numbers 
     1.0000   1.0000   1.0000   1.0000   1.0000   1.0000   1.0000   1.0000
     1.0000   1.0000   1.0000   1.0000   1.0000   1.0000   1.0000   1.0000
     1.0000   1.0000   1.0000   1.0000   1.0000   1.0000   1.0000   1.0000
     1.0000   1.0000   1.0000   0.0000   0.0000   0.0000   0.0000   0.0000

          k = 0.2719-0.1360 0.1360 (  3623 PWs)   bands (ev):

   -83.0648 -46.5911 -46.5909 -46.5907 -16.4244 -16.2439 -16.2301  -7.0590
    -6.9648  -6.9640  -6.9459  -6.7600  -0.2811   1.2540   1.6918   2.0036
     2.3866   2.5438   2.8083   2.8508   2.9768   4.5285   4.5750   4.6268
     4.7026   4.7391   7.8318   9.7088  12.8324  14.1413  14.1699  16.2184

     occupation numbers 
     1.0000   1.0000   1.0000   1.0000   1.0000   1.0000   1.0000   1.0000
     1.0000   1.0000   1.0000   1.0000   1.0000   1.0000   1.0000   1.0000
     1.0000   1.0000   1.0000   1.0000   1.0000   1.0000   1.0000   1.0000
     1.0000   1.0000   1.0000   0.0000   0.0000   0.0000   0.0000   0.0000

          k = 0.2719-0.1360 0.2719 (  3620 PWs)   bands (ev):

   -83.0648 -46.5911 -46.5909 -46.5907 -16.3676 -16.2323 -16.2259  -7.1820
    -6.9840  -6.9639  -6.9639  -6.9194  -0.6647   1.5212   1.9335   2.1133
     2.2918   2.5285   2.8328   2.9338   3.1017   4.5485   4.5861   4.6195
     4.7218   4.7451   8.5665   9.9856  12.3612  13.3031  14.1379  15.6560

     occupation numbers 
     1.0000   1.0000   1.0000   1.0000   1.0000   1.0000   1.0000   1.0000
     1.0000   1.0000   1.0000   1.0000   1.0000   1.0000   1.0000   1.0000
     1.0000   1.0000   1.0000   1.0000   1.0000   1.0000   1.0000   1.0000
     1.0000   1.0000   0.4894   0.0000   0.0000   0.0000   0.0000   0.0000

          k = 0.2719-0.1360-0.4079 (  3606 PWs)   bands (ev):

   -83.0648 -46.5909 -46.5906 -46.5906 -16.3427 -16.2288 -16.2170  -7.2910
    -6.9937  -6.9728  -6.9636  -6.9484  -0.7864   1.5944   1.8969   2.2177
     2.2402   2.7037   2.8135   2.9280   3.1403   4.5633   4.5990   4.6552
     4.7090   4.7329   9.2015   9.9063  12.3281  12.5455  14.5570  15.0930

     occupation numbers 
     1.0000   1.0000   1.0000   1.0000   1.0000   1.0000   1.0000   1.0000
     1.0000   1.0000   1.0000   1.0000   1.0000   1.0000   1.0000   1.0000
     1.0000   1.0000   1.0000   1.0000   1.0000   1.0000   1.0000   1.0000
     1.0000   1.0000   0.0000   0.0000   0.0000   0.0000   0.0000   0.0000

          k = 0.2719-0.1360-0.2719 (  3620 PWs)   bands (ev):

   -83.0648 -46.5911 -46.5909 -46.5907 -16.3676 -16.2323 -16.2259  -7.1820
    -6.9840  -6.9639  -6.9639  -6.9194  -0.6647   1.5212   1.9335   2.1133
     2.2918   2.5285   2.8328   2.9338   3.1017   4.5485   4.5861   4.6195
     4.7218   4.7451   8.5665   9.9856  12.3612  13.3031  14.1379  15.6560

     occupation numbers 
     1.0000   1.0000   1.0000   1.0000   1.0000   1.0000   1.0000   1.0000
     1.0000   1.0000   1.0000   1.0000   1.0000   1.0000   1.0000   1.0000
     1.0000   1.0000   1.0000   1.0000   1.0000   1.0000   1.0000   1.0000
     1.0000   1.0000   0.4895   0.0000   0.0000   0.0000   0.0000   0.0000

          k = 0.2719-0.1360-0.1360 (  3623 PWs)   bands (ev):

   -83.0648 -46.5911 -46.5909 -46.5907 -16.4244 -16.2439 -16.2301  -7.0590
    -6.9648  -6.9640  -6.9459  -6.7600  -0.2811   1.2540   1.6918   2.0036
     2.3866   2.5439   2.8083   2.8508   2.9768   4.5285   4.5750   4.6268
     4.7026   4.7391   7.8318   9.7088  12.8324  14.1413  14.1699  16.2184

     occupation numbers 
     1.0000   1.0000   1.0000   1.0000   1.0000   1.0000   1.0000   1.0000
     1.0000   1.0000   1.0000   1.0000   1.0000   1.0000   1.0000   1.0000
     1.0000   1.0000   1.0000   1.0000   1.0000   1.0000   1.0000   1.0000
     1.0000   1.0000   1.0000   0.0000   0.0000   0.0000   0.0000   0.0000

          k =-0.4079-0.0000-0.0000 (  3588 PWs)   bands (ev):

   -83.0648 -46.5904 -46.5904 -46.5903 -16.4580 -16.2526 -16.2218  -7.1549
    -6.9631  -6.9631  -6.9273  -6.5199   0.7566   0.7566   0.9587   1.9113
     2.5483   2.6643   2.6643   2.7376   2.7376   4.5356   4.5477   4.6744
     4.7776   4.7776   8.4906   8.6780  12.9516  15.2581  15.2581  16.3340

     occupation numbers 
     1.0000   1.0000   1.0000   1.0000   1.0000   1.0000   1.0000   1.0000
     1.0000   1.0000   1.0000   1.0000   1.0000   1.0000   1.0000   1.0000
     1.0000   1.0000   1.0000   1.0000   1.0000   1.0000   1.0000   1.0000
     1.0000   1.0000   1.0748   0.0037   0.0000   0.0000   0.0000   0.0000

          k =-0.4079-0.0000 0.1360 (  3614 PWs)   bands (ev):

   -83.0648 -46.5911 -46.5908 -46.5904 -16.4292 -16.2473 -16.2205  -7.1839
    -6.9737  -6.9631  -6.9367  -6.6394   0.1255   0.8027   1.7335   1.9057
     2.4249   2.6445   2.6939   2.6991   2.9200   4.5841   4.6002   4.6702
     4.7054   4.7785   8.8009   8.8085  12.8867  13.7979  15.2515  16.2090

     occupation numbers 
     1.0000   1.0000   1.0000   1.0000   1.0000   1.0000   1.0000   1.0000
     1.0000   1.0000   1.0000   1.0000   1.0000   1.0000   1.0000   1.0000
     1.0000   1.0000   1.0000   1.0000   1.0000   1.0000   1.0000   1.0000
     1.0000   1.0000   0.0000   0.0000   0.0000   0.0000   0.0000   0.0000

          k =-0.4079 0.0000 0.2719 (  3604 PWs)   bands (ev):

   -83.0648 -46.5909 -46.5907 -46.5904 -16.3761 -16.2301 -16.2178  -7.2888
    -6.9940  -6.9629  -6.9541  -6.8241  -0.2866   0.8991   1.8557   2.2931
     2.3856   2.6010   2.6139   2.8806   3.1209   4.5732   4.6302   4.6856
     4.7233   4.7808   9.1747   9.6709  12.2608  12.3387  15.2369  15.9669

     occupation numbers 
     1.0000   1.0000   1.0000   1.0000   1.0000   1.0000   1.0000   1.0000
     1.0000   1.0000   1.0000   1.0000   1.0000   1.0000   1.0000   1.0000
     1.0000   1.0000   1.0000   1.0000   1.0000   1.0000   1.0000   1.0000
     1.0000   1.0000   0.0000   0.0000   0.0000   0.0000   0.0000   0.0000

          k =-0.4079-0.0000-0.4079 (  3628 PWs)   bands (ev):

   -83.0648 -46.5912 -46.5911 -46.5911 -16.3537 -16.2166 -16.2166  -7.3710
    -7.0046  -6.9630  -6.9630  -6.8833  -0.4142   0.9495   1.8183   2.4029
     2.4029   2.5770   2.5770   3.0473   3.1987   4.5122   4.6288   4.7161
     4.7818   4.7818   9.4767  10.5543  11.5381  11.5381  15.2287  15.8498

     occupation numbers 
     1.0000   1.0000   1.0000   1.0000   1.0000   1.0000   1.0000   1.0000
     1.0000   1.0000   1.0000   1.0000   1.0000   1.0000   1.0000   1.0000
     1.0000   1.0000   1.0000   1.0000   1.0000   1.0000   1.0000   1.0000
     1.0000   1.0000   0.0000   0.0000   0.0000   0.0000   0.0000   0.0000

          k =-0.4079 0.1360-0.0000 (  3614 PWs)   bands (ev):

   -83.0648 -46.5911 -46.5908 -46.5904 -16.4292 -16.2473 -16.2205  -7.1839
    -6.9737  -6.9631  -6.9367  -6.6394   0.1255   0.8027   1.7335   1.9057
     2.4249   2.6445   2.6939   2.6991   2.9200   4.5841   4.6002   4.6702
     4.7054   4.7785   8.8009   8.8085  12.8867  13.7979  15.2515  16.2084

     occupation numbers 
     1.0000   1.0000   1.0000   1.0000   1.0000   1.0000   1.0000   1.0000
     1.0000   1.0000   1.0000   1.0000   1.0000   1.0000   1.0000   1.0000
     1.0000   1.0000   1.0000   1.0000   1.0000   1.0000   1.0000   1.0000
     1.0000   1.0000   0.0000   0.0000   0.0000   0.0000   0.0000   0.0000

          k =-0.4079 0.1360 0.1360 (  3608 PWs)   bands (ev):

   -83.0648 -46.5908 -46.5907 -46.5904 -16.3989 -16.2431 -16.2193  -7.2038
    -6.9738  -6.9728  -6.9456  -6.7597  -0.3621   1.2971   1.9142   1.9164
     2.3154   2.5859   2.7835   2.7925   2.9799   4.5513   4.6647   4.6817
     4.6862   4.7248   8.9184   9.0872  12.9251  13.4131  14.6182  15.4669

     occupation numbers 
     1.0000   1.0000   1.0000   1.0000   1.0000   1.0000   1.0000   1.0000
     1.0000   1.0000   1.0000   1.0000   1.0000   1.0000   1.0000   1.0000
     1.0000   1.0000   1.0000   1.0000   1.0000   1.0000   1.0000   1.0000
     1.0000   1.0000   0.0000   0.0000   0.0000   0.0000   0.0000   0.0000

          k =-0.4079 0.1360 0.2719 (  3606 PWs)   bands (ev):

   -83.0648 -46.5909 -46.5906 -46.5906 -16.3427 -16.2288 -16.2170  -7.2910
    -6.9937  -6.9728  -6.9636  -6.9484  -0.7864   1.5944   1.8969   2.2177
     2.2402   2.7037   2.8135   2.9280   3.1403   4.5633   4.5990   4.6552
     4.7090   4.7329   9.2015   9.9063  12.3281  12.5455  14.5570  15.0930

     occupation numbers 
     1.0000   1.0000   1.0000   1.0000   1.0000   1.0000   1.0000   1.0000
     1.0000   1.0000   1.0000   1.0000   1.0000   1.0000   1.0000   1.0000
     1.0000   1.0000   1.0000   1.0000   1.0000   1.0000   1.0000   1.0000
     1.0000   1.0000   0.0000   0.0000   0.0000   0.0000   0.0000   0.0000

          k =-0.4079 0.1360-0.4079 (  3616 PWs)   bands (ev):

   -83.0648 -46.5911 -46.5908 -46.5908 -16.3196 -16.2158 -16.2158  -7.3709
    -7.0046  -7.0036  -6.9727  -6.9727  -0.9224   1.6800   1.8729   2.2345
     2.2346   2.8180   2.8180   3.0482   3.2150   4.5006   4.6307   4.6958
     4.7065   4.7065   9.4037  10.7517  11.7712  11.7712  14.6933  15.2783

     occupation numbers 
     1.0000   1.0000   1.0000   1.0000   1.0000   1.0000   1.0000   1.0000
     1.0000   1.0000   1.0000   1.0000   1.0000   1.0000   1.0000   1.0000
     1.0000   1.0000   1.0000   1.0000   1.0000   1.0000   1.0000   1.0000
     1.0000   1.0000   0.0000   0.0000   0.0000   0.0000   0.0000   0.0000

          k =-0.4079 0.1360-0.2719 (  3606 PWs)   bands (ev):

   -83.0648 -46.5909 -46.5906 -46.5906 -16.3427 -16.2288 -16.2170  -7.2910
    -6.9937  -6.9728  -6.9636  -6.9484  -0.7864   1.5944   1.8969   2.2177
     2.2402   2.7037   2.8135   2.9280   3.1403   4.5633   4.5990   4.6552
     4.7090   4.7329   9.2015   9.9063  12.3281  12.5455  14.5570  15.0930

     occupation numbers 
     1.0000   1.0000   1.0000   1.0000   1.0000   1.0000   1.0000   1.0000
     1.0000   1.0000   1.0000   1.0000   1.0000   1.0000   1.0000   1.0000
     1.0000   1.0000   1.0000   1.0000   1.0000   1.0000   1.0000   1.0000
     1.0000   1.0000   0.0000   0.0000   0.0000   0.0000   0.0000   0.0000

          k =-0.4079 0.1360-0.1360 (  3608 PWs)   bands (ev):

   -83.0648 -46.5908 -46.5907 -46.5904 -16.3989 -16.2431 -16.2193  -7.2038
    -6.9738  -6.9728  -6.9456  -6.7597  -0.3621   1.2971   1.9142   1.9164
     2.3154   2.5859   2.7835   2.7925   2.9799   4.5513   4.6647   4.6817
     4.6862   4.7248   8.9184   9.0872  12.9251  13.4131  14.6182  15.4669

     occupation numbers 
     1.0000   1.0000   1.0000   1.0000   1.0000   1.0000   1.0000   1.0000
     1.0000   1.0000   1.0000   1.0000   1.0000   1.0000   1.0000   1.0000
     1.0000   1.0000   1.0000   1.0000   1.0000   1.0000   1.0000   1.0000
     1.0000   1.0000   0.0000   0.0000   0.0000   0.0000   0.0000   0.0000

          k =-0.4079 0.2719 0.0000 (  3604 PWs)   bands (ev):

   -83.0648 -46.5909 -46.5907 -46.5904 -16.3761 -16.2301 -16.2178  -7.2888
    -6.9940  -6.9629  -6.9541  -6.8241  -0.2866   0.8991   1.8557   2.2931
     2.3856   2.6010   2.6139   2.8806   3.1209   4.5732   4.6302   4.6856
     4.7233   4.7808   9.1747   9.6709  12.2608  12.3387  15.2369  15.9669

     occupation numbers 
     1.0000   1.0000   1.0000   1.0000   1.0000   1.0000   1.0000   1.0000
     1.0000   1.0000   1.0000   1.0000   1.0000   1.0000   1.0000   1.0000
     1.0000   1.0000   1.0000   1.0000   1.0000   1.0000   1.0000   1.0000
     1.0000   1.0000   0.0000   0.0000   0.0000   0.0000   0.0000   0.0000

          k =-0.4079 0.2719 0.1360 (  3606 PWs)   bands (ev):

   -83.0648 -46.5909 -46.5906 -46.5906 -16.3427 -16.2288 -16.2170  -7.2910
    -6.9937  -6.9728  -6.9636  -6.9484  -0.7864   1.5944   1.8969   2.2177
     2.2402   2.7037   2.8135   2.9280   3.1403   4.5633   4.5990   4.6552
     4.7090   4.7329   9.2015   9.9063  12.3281  12.5455  14.5570  15.0930

     occupation numbers 
     1.0000   1.0000   1.0000   1.0000   1.0000   1.0000   1.0000   1.0000
     1.0000   1.0000   1.0000   1.0000   1.0000   1.0000   1.0000   1.0000
     1.0000   1.0000   1.0000   1.0000   1.0000   1.0000   1.0000   1.0000
     1.0000   1.0000   0.0000   0.0000   0.0000   0.0000   0.0000   0.0000

          k =-0.4079 0.2719 0.2719 (  3608 PWs)   bands (ev):

   -83.0648 -46.5910 -46.5908 -46.5905 -16.2767 -16.2236 -16.2152  -7.3113
    -7.1814  -6.9931  -6.9919  -6.9825  -1.2752   1.9709   2.1144   2.1250
     2.4318   2.8452   3.0490   3.0755   3.1946   4.5249   4.5462   4.5769
     4.6436   4.6918   9.2391  10.6053  12.4318  12.9252  13.8829  13.9340

     occupation numbers 
     1.0000   1.0000   1.0000   1.0000   1.0000   1.0000   1.0000   1.0000
     1.0000   1.0000   1.0000   1.0000   1.0000   1.0000   1.0000   1.0000
     1.0000   1.0000   1.0000   1.0000   1.0000   1.0000   1.0000   1.0000
     1.0000   1.0000   0.0000   0.0000   0.0000   0.0000   0.0000   0.0000

          k =-0.4079 0.2719-0.4079 (  3612 PWs)   bands (ev):

   -83.0648 -46.5911 -46.5907 -46.5907 -16.2495 -16.2143 -16.2143  -7.3705
    -7.2483  -7.0022  -6.9920  -6.9920  -1.4365   1.9871   2.0942   2.0942
     2.6465   3.0500   3.1223   3.1223   3.2489   4.4696   4.5417   4.5417
     4.6322   4.6538   9.2492  11.3550  12.4120  12.4121  13.9272  14.0810

     occupation numbers 
     1.0000   1.0000   1.0000   1.0000   1.0000   1.0000   1.0000   1.0000
     1.0000   1.0000   1.0000   1.0000   1.0000   1.0000   1.0000   1.0000
     1.0000   1.0000   1.0000   1.0000   1.0000   1.0000   1.0000   1.0000
     1.0000   1.0000   0.0000   0.0000   0.0000   0.0000   0.0000   0.0000

          k =-0.4079 0.2719-0.2719 (  3608 PWs)   bands (ev):

   -83.0648 -46.5910 -46.5908 -46.5905 -16.2767 -16.2236 -16.2152  -7.3113
    -7.1814  -6.9931  -6.9919  -6.9825  -1.2752   1.9709   2.1144   2.1250
     2.4318   2.8452   3.0490   3.0755   3.1946   4.5249   4.5462   4.5769
     4.6436   4.6918   9.2391  10.6053  12.4318  12.9252  13.8829  13.9340

     occupation numbers 
     1.0000   1.0000   1.0000   1.0000   1.0000   1.0000   1.0000   1.0000
     1.0000   1.0000   1.0000   1.0000   1.0000   1.0000   1.0000   1.0000
     1.0000   1.0000   1.0000   1.0000   1.0000   1.0000   1.0000   1.0000
     1.0000   1.0000   0.0000   0.0000   0.0000   0.0000   0.0000   0.0000

          k =-0.4079 0.2719-0.1360 (  3606 PWs)   bands (ev):

   -83.0648 -46.5909 -46.5906 -46.5906 -16.3427 -16.2288 -16.2170  -7.2910
    -6.9937  -6.9728  -6.9636  -6.9484  -0.7864   1.5944   1.8969   2.2177
     2.2402   2.7037   2.8135   2.9280   3.1403   4.5633   4.5990   4.6552
     4.7090   4.7329   9.2015   9.9063  12.3281  12.5455  14.5570  15.0930

     occupation numbers 
     1.0000   1.0000   1.0000   1.0000   1.0000   1.0000   1.0000   1.0000
     1.0000   1.0000   1.0000   1.0000   1.0000   1.0000   1.0000   1.0000
     1.0000   1.0000   1.0000   1.0000   1.0000   1.0000   1.0000   1.0000
     1.0000   1.0000   0.0000   0.0000   0.0000   0.0000   0.0000   0.0000

          k =-0.4079-0.4079-0.0000 (  3628 PWs)   bands (ev):

   -83.0648 -46.5912 -46.5911 -46.5911 -16.3537 -16.2166 -16.2166  -7.3710
    -7.0046  -6.9630  -6.9630  -6.8833  -0.4142   0.9495   1.8183   2.4029
     2.4029   2.5770   2.5770   3.0473   3.1987   4.5122   4.6288   4.7161
     4.7818   4.7818   9.4767  10.5542  11.5381  11.5381  15.2287  15.8498

     occupation numbers 
     1.0000   1.0000   1.0000   1.0000   1.0000   1.0000   1.0000   1.0000
     1.0000   1.0000   1.0000   1.0000   1.0000   1.0000   1.0000   1.0000
     1.0000   1.0000   1.0000   1.0000   1.0000   1.0000   1.0000   1.0000
     1.0000   1.0000   0.0000   0.0000   0.0000   0.0000   0.0000   0.0000

          k =-0.4079-0.4079 0.1360 (  3616 PWs)   bands (ev):

   -83.0648 -46.5911 -46.5908 -46.5908 -16.3196 -16.2158 -16.2158  -7.3709
    -7.0045  -7.0036  -6.9727  -6.9727  -0.9224   1.6800   1.8729   2.2345
     2.2345   2.8180   2.8180   3.0482   3.2150   4.5006   4.6307   4.6958
     4.7065   4.7065   9.4037  10.7517  11.7711  11.7712  14.6933  15.2783

     occupation numbers 
     1.0000   1.0000   1.0000   1.0000   1.0000   1.0000   1.0000   1.0000
     1.0000   1.0000   1.0000   1.0000   1.0000   1.0000   1.0000   1.0000
     1.0000   1.0000   1.0000   1.0000   1.0000   1.0000   1.0000   1.0000
     1.0000   1.0000   0.0000   0.0000   0.0000   0.0000   0.0000   0.0000

          k =-0.4079-0.4079 0.2719 (  3612 PWs)   bands (ev):

   -83.0648 -46.5911 -46.5907 -46.5907 -16.2495 -16.2143 -16.2143  -7.3705
    -7.2483  -7.0022  -6.9920  -6.9920  -1.4365   1.9871   2.0942   2.0942
     2.6465   3.0500   3.1223   3.1223   3.2489   4.4696   4.5417   4.5417
     4.6322   4.6538   9.2492  11.3550  12.4120  12.4120  13.9272  14.0810

     occupation numbers 
     1.0000   1.0000   1.0000   1.0000   1.0000   1.0000   1.0000   1.0000
     1.0000   1.0000   1.0000   1.0000   1.0000   1.0000   1.0000   1.0000
     1.0000   1.0000   1.0000   1.0000   1.0000   1.0000   1.0000   1.0000
     1.0000   1.0000   0.0000   0.0000   0.0000   0.0000   0.0000   0.0000

          k =-0.4079-0.4079-0.4079 (  3544 PWs)   bands (ev):

   -83.0647 -46.5897 -46.5897 -46.5897 -16.2134 -16.2134 -16.2134  -7.3699
    -7.3699  -7.0011  -7.0011  -7.0011  -1.6078   2.0471   2.0472   2.0472
     3.0510   3.0510   3.2668   3.2668   3.2668   4.4469   4.4469   4.4469
     4.6323   4.6323   9.1675  12.0052  13.1809  13.1809  13.1809  13.6270

     occupation numbers 
     1.0000   1.0000   1.0000   1.0000   1.0000   1.0000   1.0000   1.0000
     1.0000   1.0000   1.0000   1.0000   1.0000   1.0000   1.0000   1.0000
     1.0000   1.0000   1.0000   1.0000   1.0000   1.0000   1.0000   1.0000
     1.0000   1.0000   0.0000   0.0000   0.0000   0.0000   0.0000   0.0000

     the Fermi energy is     8.5750 ev

!    total energy              =   -1146.37303933 Ry
     total all-electron energy =    -22995.175179 Ry
     estimated scf accuracy    <          5.9E-13 Ry
     smearing contrib. (-TS)   =      -0.00015989 Ry
     internal energy E=F+TS    =   -1146.37287944 Ry

     The total energy is F=E-TS. E is the sum of the following terms:
     one-electron contribution =    -271.16755356 Ry
     hartree contribution      =     168.39347518 Ry
     xc contribution           =    -123.88442476 Ry
     ewald contribution        =    -366.52520150 Ry
     one-center paw contrib.   =    -553.18917480 Ry
      -> PAW hartree energy AE =     233.27061246 Ry
      -> PAW hartree energy PS =    -230.77932898 Ry
      -> PAW xc energy AE      =    -297.42068638 Ry
      -> PAW xc energy PS      =      47.91870797 Ry
      -> total E_H with PAW    =     170.88475867 Ry
      -> total E_XC with PAW   =    -373.38640316 Ry

     convergence has been achieved in  11 iterations

     Forces acting on atoms (cartesian axes, Ry/au):

     atom    1 type  1   force =    -0.00000194   -0.00000388   -0.00000583
     atom    2 type  2   force =     0.00000186    0.00000371    0.00000558
     atom    3 type  3   force =     0.00000027   -0.00000177    0.00000208
     atom    4 type  3   force =     0.00000069    0.00000055   -0.00000265
     atom    5 type  3   force =    -0.00000088    0.00000139    0.00000082
     The non-local contrib.  to forces
     atom    1 type  1   force =     0.00004694    0.00009385    0.00014081
     atom    2 type  2   force =     0.00001022    0.00002043    0.00003068
     atom    3 type  3   force =    -0.00035206   -0.00003848    0.00033079
     atom    4 type  3   force =     0.00011017   -0.00070402   -0.00005794
     atom    5 type  3   force =    -0.00001936    0.00022042   -0.00105625
     The ionic contribution  to forces
     atom    1 type  1   force =     0.00314799    0.00629487    0.00944395
     atom    2 type  2   force =    -0.00300964   -0.00601787   -0.00902916
     atom    3 type  3   force =    -0.00065398   -0.00049203    0.00228462
     atom    4 type  3   force =     0.00076163   -0.00130801   -0.00073772
     atom    5 type  3   force =    -0.00024600    0.00152304   -0.00196168
     The local contribution  to forces
     atom    1 type  1   force =    -0.00319336   -0.00638559   -0.00958007
     atom    2 type  2   force =     0.00300177    0.00600214    0.00900555
     atom    3 type  3   force =     0.00100518    0.00052868   -0.00261247
     atom    4 type  3   force =    -0.00087083    0.00201029    0.00079292
     atom    5 type  3   force =     0.00026445   -0.00174149    0.00301533
     The core correction contribution to forces
     atom    1 type  1   force =    -0.00000355   -0.00000710   -0.00001065
     atom    2 type  2   force =    -0.00000052   -0.00000104   -0.00000156
     atom    3 type  3   force =     0.00000111    0.00000000   -0.00000097
     atom    4 type  3   force =    -0.00000032    0.00000222    0.00000000
     atom    5 type  3   force =     0.00000000   -0.00000064    0.00000333
     The Hubbard contrib.    to forces
     atom    1 type  1   force =     0.00000000    0.00000000    0.00000000
     atom    2 type  2   force =     0.00000000    0.00000000    0.00000000
     atom    3 type  3   force =     0.00000000    0.00000000    0.00000000
     atom    4 type  3   force =     0.00000000    0.00000000    0.00000000
     atom    5 type  3   force =     0.00000000    0.00000000    0.00000000
     The SCF correction term to forces
     atom    1 type  1   force =     0.00000001    0.00000002    0.00000003
     atom    2 type  2   force =    -0.00000001   -0.00000001   -0.00000002
     atom    3 type  3   force =    -0.00000000   -0.00000001    0.00000001
     atom    4 type  3   force =     0.00000000   -0.00000000   -0.00000001
     atom    5 type  3   force =    -0.00000000    0.00000001   -0.00000001

     Total force =     0.000011     Total SCF correction =     0.000000


     Computing stress (Cartesian axis) and pressure

          total   stress  (Ry/bohr**3)                   (kbar)     P=        0.58
   0.00000392  -0.00000000  -0.00000000            0.58       -0.00       -0.00
  -0.00000000   0.00000392  -0.00000000           -0.00        0.58       -0.00
  -0.00000000  -0.00000000   0.00000392           -0.00       -0.00        0.58

     kinetic stress (kbar)  37187.10      0.00      0.00
                                0.00  37187.10      0.00
                                0.00      0.00  37187.10

     local   stress (kbar) -19298.84     -0.00     -0.00
                               -0.00 -19298.82     -0.01
                               -0.00     -0.01 -19298.84

     nonloc. stress (kbar)   7471.02      0.00      0.00
                                0.00   7471.02      0.00
                                0.00      0.00   7471.02

     hartree stress (kbar)  14975.92      0.00      0.00
                                0.00  14975.91      0.00
                                0.00      0.00  14975.92

     exc-cor stress (kbar)   6107.01     -0.00     -0.00
                               -0.00   6107.01     -0.00
                               -0.00     -0.00   6107.01

     corecor stress (kbar) -13845.06      0.00      0.00
                                0.00 -13845.06      0.00
                                0.00      0.00 -13845.06

     ewald   stress (kbar) -32596.57      0.00      0.00
                                0.00 -32596.58      0.00
                                0.00      0.00 -32596.56

     hubbard stress (kbar)      0.00      0.00      0.00
                                0.00      0.00      0.00
                                0.00      0.00      0.00

     DFT-D   stress (kbar)      0.00      0.00      0.00
                                0.00      0.00      0.00
                                0.00      0.00      0.00

     XDM     stress (kbar)      0.00      0.00      0.00
                                0.00      0.00      0.00
                                0.00      0.00      0.00

     dft-nl  stress (kbar)      0.00      0.00      0.00
                                0.00      0.00      0.00
                                0.00      0.00      0.00

     TS-vdW  stress (kbar)      0.00      0.00      0.00
                                0.00      0.00      0.00
                                0.00      0.00      0.00

     MDB     stress (kbar)      0.00      0.00      0.00
                                0.00      0.00      0.00
                                0.00      0.00      0.00

     3D-RISM stress (kbar)      0.00      0.00      0.00
                                0.00      0.00      0.00
                                0.00      0.00      0.00

     Energy error            =      1.7E-04 Ry
     Gradient error          =      5.8E-06 Ry/Bohr
     Cell gradient error     =      5.8E-01 kbar

     number of scf cycles    =   6
     number of bfgs steps    =   5

     enthalpy           old  =   -1146.3728668239 Ry
     enthalpy           new  =   -1146.3730393327 Ry

     CASE: enthalpy          _new < enthalpy          _old

     new trust radius        =       0.0011948134 bohr
     new conv_thr            =            1.0E-12 Ry

     new unit-cell volume =    551.78489 a.u.^3 (    81.76608 Ang^3 )
     density =      5.67986 g/cm^3

CELL_PARAMETERS (angstrom)
   4.340346659  -0.000000122  -0.000000181
  -0.000000122   4.340346377  -0.000000362
  -0.000000181  -0.000000362   4.340346449

ATOMIC_POSITIONS (crystal)
Ag               0.0000053864        0.0000107745        0.0000161629
In               0.4999858737        0.4999717676        0.4999576086
F                0.5001132724        0.5000059377       -0.0000225418
F               -0.0000075111        0.5002265250        0.5000089452
F                0.5000029786       -0.0000150048        0.5003398251



     Writing config-only to output data dir ./output/aginf3_broken.save/ :
     XML data file
     NEW-OLD atomic charge density approx. for the potential

     Check: negative core charge=   -0.000015

     total cpu time spent up to now is    17147.5 secs

     Self-consistent Calculation

     iteration #  1     ecut=    80.00 Ry     beta= 0.30
     Davidson diagonalization with overlap

---- Real-time Memory Report at c_bands before calling an iterative solver
           112 MiB given to the printing process from OS
             0 MiB allocation reported by mallinfo(arena+hblkhd)
         57221 MiB available memory on the node where the printing process lives
------------------
     ethr =  1.00E-06,  avg # of iterations =  2.0

     Threshold (ethr) on eigenvalues was too large:
     Diagonalizing with lowered threshold

     Davidson diagonalization with overlap

---- Real-time Memory Report at c_bands before calling an iterative solver
           112 MiB given to the printing process from OS
             0 MiB allocation reported by mallinfo(arena+hblkhd)
         57233 MiB available memory on the node where the printing process lives
------------------
     ethr =  1.07E-09,  avg # of iterations =  3.8

     total cpu time spent up to now is    17486.1 secs

     total energy              =   -1146.37303942 Ry
     estimated scf accuracy    <       0.00000062 Ry

     iteration #  2     ecut=    80.00 Ry     beta= 0.30
     Davidson diagonalization with overlap

---- Real-time Memory Report at c_bands before calling an iterative solver
           112 MiB given to the printing process from OS
             0 MiB allocation reported by mallinfo(arena+hblkhd)
         57223 MiB available memory on the node where the printing process lives
------------------
     ethr =  1.17E-09,  avg # of iterations =  4.0

     total cpu time spent up to now is    17700.7 secs

     total energy              =   -1146.37303951 Ry
     estimated scf accuracy    <       0.00000007 Ry

     iteration #  3     ecut=    80.00 Ry     beta= 0.30
     Davidson diagonalization with overlap

---- Real-time Memory Report at c_bands before calling an iterative solver
           112 MiB given to the printing process from OS
             0 MiB allocation reported by mallinfo(arena+hblkhd)
         57220 MiB available memory on the node where the printing process lives
------------------
     ethr =  1.32E-10,  avg # of iterations =  4.0

     total cpu time spent up to now is    17928.0 secs

     total energy              =   -1146.37303978 Ry
     estimated scf accuracy    <       0.00000002 Ry

     iteration #  4     ecut=    80.00 Ry     beta= 0.30
     Davidson diagonalization with overlap

---- Real-time Memory Report at c_bands before calling an iterative solver
           112 MiB given to the printing process from OS
             0 MiB allocation reported by mallinfo(arena+hblkhd)
         57210 MiB available memory on the node where the printing process lives
------------------
     ethr =  4.49E-11,  avg # of iterations =  4.0

     total cpu time spent up to now is    18161.0 secs

     total energy              =   -1146.37303999 Ry
     estimated scf accuracy    <          9.9E-09 Ry

     iteration #  5     ecut=    80.00 Ry     beta= 0.30
     Davidson diagonalization with overlap

---- Real-time Memory Report at c_bands before calling an iterative solver
           112 MiB given to the printing process from OS
             0 MiB allocation reported by mallinfo(arena+hblkhd)
         57211 MiB available memory on the node where the printing process lives
------------------
     ethr =  1.86E-11,  avg # of iterations =  4.0

     total cpu time spent up to now is    18392.0 secs

     total energy              =   -1146.37304014 Ry
     estimated scf accuracy    <          5.2E-09 Ry

     iteration #  6     ecut=    80.00 Ry     beta= 0.30
     Davidson diagonalization with overlap

---- Real-time Memory Report at c_bands before calling an iterative solver
           112 MiB given to the printing process from OS
             0 MiB allocation reported by mallinfo(arena+hblkhd)
         57204 MiB available memory on the node where the printing process lives
------------------
     ethr =  9.82E-12,  avg # of iterations =  4.7

     total cpu time spent up to now is    18647.4 secs

     total energy              =   -1146.37304017 Ry
     estimated scf accuracy    <          1.4E-10 Ry

     iteration #  7     ecut=    80.00 Ry     beta= 0.30
     Davidson diagonalization with overlap

---- Real-time Memory Report at c_bands before calling an iterative solver
           112 MiB given to the printing process from OS
             0 MiB allocation reported by mallinfo(arena+hblkhd)
         57203 MiB available memory on the node where the printing process lives
------------------
     ethr =  2.63E-13,  avg # of iterations =  3.3

     total cpu time spent up to now is    18844.4 secs

     total energy              =   -1146.37304017 Ry
     estimated scf accuracy    <          3.3E-11 Ry

     iteration #  8     ecut=    80.00 Ry     beta= 0.30
     Davidson diagonalization with overlap

---- Real-time Memory Report at c_bands before calling an iterative solver
           112 MiB given to the printing process from OS
             0 MiB allocation reported by mallinfo(arena+hblkhd)
         57201 MiB available memory on the node where the printing process lives
------------------
     ethr =  1.00E-13,  avg # of iterations =  4.0

     total cpu time spent up to now is    19073.0 secs

     total energy              =   -1146.37304017 Ry
     estimated scf accuracy    <          2.0E-11 Ry

     iteration #  9     ecut=    80.00 Ry     beta= 0.30
     Davidson diagonalization with overlap

---- Real-time Memory Report at c_bands before calling an iterative solver
           112 MiB given to the printing process from OS
             0 MiB allocation reported by mallinfo(arena+hblkhd)
         57197 MiB available memory on the node where the printing process lives
------------------
     ethr =  1.00E-13,  avg # of iterations =  2.8

     total cpu time spent up to now is    19238.3 secs

     End of self-consistent calculation

          k = 0.0000 0.0000 0.0000 (  3695 PWs)   bands (ev):

   -83.0757 -46.6026 -46.6026 -46.6026 -16.5710 -16.2619 -16.2619  -6.9387
    -6.9387  -6.9387  -6.5309  -6.5309   0.6148   0.6148   0.6148   2.7424
     2.7424   2.7424   2.8311   2.8311   2.8311   4.3831   4.3831   4.5196
     4.5196   4.5196   5.4091   9.0610  14.8106  14.8106  14.8106  17.2705

     occupation numbers 
     1.0000   1.0000   1.0000   1.0000   1.0000   1.0000   1.0000   1.0000
     1.0000   1.0000   1.0000   1.0000   1.0000   1.0000   1.0000   1.0000
     1.0000   1.0000   1.0000   1.0000   1.0000   1.0000   1.0000   1.0000
     1.0000   1.0000   1.0000   0.0000   0.0000   0.0000   0.0000   0.0000

          k = 0.0000 0.0000 0.1359 (  3635 PWs)   bands (ev):

   -83.0757 -46.6018 -46.6018 -46.6014 -16.5430 -16.2610 -16.2553  -6.9467
    -6.9467  -6.9381  -6.6959  -6.5306   0.6486   0.6486   0.6964   2.4829
     2.7275   2.7275   2.7495   2.7960   2.7960   4.4212   4.4628   4.5210
     4.5854   4.5854   5.9835   9.2516  13.9097  14.8693  14.8693  17.4849

     occupation numbers 
     1.0000   1.0000   1.0000   1.0000   1.0000   1.0000   1.0000   1.0000
     1.0000   1.0000   1.0000   1.0000   1.0000   1.0000   1.0000   1.0000
     1.0000   1.0000   1.0000   1.0000   1.0000   1.0000   1.0000   1.0000
     1.0000   1.0000   1.0000   0.0000   0.0000   0.0000   0.0000   0.0000

          k = 0.0000 0.0000 0.2719 (  3619 PWs)   bands (ev):

   -83.0757 -46.6017 -46.6017 -46.6013 -16.4890 -16.2594 -16.2387  -7.0116
    -6.9639  -6.9639  -6.9373  -6.5306   0.7168   0.7168   0.8607   2.0834
     2.6060   2.6838   2.6838   2.7473   2.7473   4.4981   4.5235   4.6016
     4.7082   4.7082   7.2271   9.3870  12.9661  15.0569  15.0569  16.8890

     occupation numbers 
     1.0000   1.0000   1.0000   1.0000   1.0000   1.0000   1.0000   1.0000
     1.0000   1.0000   1.0000   1.0000   1.0000   1.0000   1.0000   1.0000
     1.0000   1.0000   1.0000   1.0000   1.0000   1.0000   1.0000   1.0000
     1.0000   1.0000   1.0000   0.0000   0.0000   0.0000   0.0000   0.0000

          k =-0.0000-0.0000-0.4078 (  3588 PWs)   bands (ev):

   -83.0756 -46.6012 -46.6012 -46.6011 -16.4637 -16.2586 -16.2280  -7.1635
    -6.9723  -6.9723  -6.9367  -6.5303   0.7512   0.7512   0.9512   1.9054
     2.5417   2.6574   2.6574   2.7307   2.7307   4.5249   4.5369   4.6637
     4.7666   4.7666   8.4772   8.6666  12.9393  15.2452  15.2452  16.3193

     occupation numbers 
     1.0000   1.0000   1.0000   1.0000   1.0000   1.0000   1.0000   1.0000
     1.0000   1.0000   1.0000   1.0000   1.0000   1.0000   1.0000   1.0000
     1.0000   1.0000   1.0000   1.0000   1.0000   1.0000   1.0000   1.0000
     1.0000   1.0000   1.0769   0.0036   0.0000   0.0000   0.0000   0.0000

          k = 0.0000 0.1359 0.0000 (  3635 PWs)   bands (ev):

   -83.0757 -46.6018 -46.6018 -46.6014 -16.5430 -16.2610 -16.2553  -6.9467
    -6.9467  -6.9381  -6.6959  -6.5306   0.6486   0.6486   0.6964   2.4829
     2.7275   2.7275   2.7495   2.7960   2.7961   4.4212   4.4628   4.5210
     4.5854   4.5854   5.9835   9.2516  13.9097  14.8693  14.8693  17.4849

     occupation numbers 
     1.0000   1.0000   1.0000   1.0000   1.0000   1.0000   1.0000   1.0000
     1.0000   1.0000   1.0000   1.0000   1.0000   1.0000   1.0000   1.0000
     1.0000   1.0000   1.0000   1.0000   1.0000   1.0000   1.0000   1.0000
     1.0000   1.0000   1.0000   0.0000   0.0000   0.0000   0.0000   0.0000

          k = 0.0000 0.1359 0.1359 (  3627 PWs)   bands (ev):

   -83.0757 -46.6018 -46.6017 -46.6015 -16.5147 -16.2571 -16.2523  -6.9560
    -6.9467  -6.9462  -6.7700  -6.6162   0.3353   0.6853   1.1263   2.2869
     2.6247   2.7127   2.7489   2.7579   2.8881   4.4682   4.4763   4.5819
     4.5910   4.6336   6.4416   9.4236  13.5773  14.4617  14.9187  16.9695

     occupation numbers 
     1.0000   1.0000   1.0000   1.0000   1.0000   1.0000   1.0000   1.0000
     1.0000   1.0000   1.0000   1.0000   1.0000   1.0000   1.0000   1.0000
     1.0000   1.0000   1.0000   1.0000   1.0000   1.0000   1.0000   1.0000
     1.0000   1.0000   1.0000   0.0000   0.0000   0.0000   0.0000   0.0000

          k = 0.0000 0.1359 0.2719 (  3612 PWs)   bands (ev):

   -83.0756 -46.6018 -46.6016 -46.6012 -16.4602 -16.2542 -16.2374  -7.0473
    -6.9737  -6.9638  -6.9461  -6.6462   0.1662   0.7596   1.5349   2.0251
     2.4832   2.6667   2.7048   2.7147   2.9210   4.5311   4.5827   4.5883
     4.6961   4.7093   7.5392   9.5542  12.8044  14.2539  15.0783  16.0834

     occupation numbers 
     1.0000   1.0000   1.0000   1.0000   1.0000   1.0000   1.0000   1.0000
     1.0000   1.0000   1.0000   1.0000   1.0000   1.0000   1.0000   1.0000
     1.0000   1.0000   1.0000   1.0000   1.0000   1.0000   1.0000   1.0000
     1.0000   1.0000   1.0000   0.0000   0.0000   0.0000   0.0000   0.0000

          k =-0.0000 0.1359-0.4078 (  3614 PWs)   bands (ev):

   -83.0756 -46.6019 -46.6016 -46.6012 -16.4349 -16.2533 -16.2267  -7.1924
    -6.9829  -6.9723  -6.9460  -6.6494   0.1195   0.7973   1.7263   1.8997
     2.4184   2.6377   2.6869   2.6920   2.9129   4.5733   4.5894   4.6594
     4.6945   4.7676   8.7872   8.7970  12.8741  13.7849  15.2388  16.1945

     occupation numbers 
     1.0000   1.0000   1.0000   1.0000   1.0000   1.0000   1.0000   1.0000
     1.0000   1.0000   1.0000   1.0000   1.0000   1.0000   1.0000   1.0000
     1.0000   1.0000   1.0000   1.0000   1.0000   1.0000   1.0000   1.0000
     1.0000   1.0000   0.0000   0.0000   0.0000   0.0000   0.0000   0.0000

          k =-0.0000 0.1359-0.2719 (  3612 PWs)   bands (ev):

   -83.0756 -46.6018 -46.6016 -46.6012 -16.4602 -16.2542 -16.2374  -7.0473
    -6.9737  -6.9638  -6.9461  -6.6462   0.1662   0.7596   1.5349   2.0251
     2.4832   2.6667   2.7048   2.7147   2.9210   4.5311   4.5827   4.5883
     4.6961   4.7093   7.5392   9.5542  12.8044  14.2539  15.0783  16.0834

     occupation numbers 
     1.0000   1.0000   1.0000   1.0000   1.0000   1.0000   1.0000   1.0000
     1.0000   1.0000   1.0000   1.0000   1.0000   1.0000   1.0000   1.0000
     1.0000   1.0000   1.0000   1.0000   1.0000   1.0000   1.0000   1.0000
     1.0000   1.0000   1.0000   0.0000   0.0000   0.0000   0.0000   0.0000

          k =-0.0000 0.1359-0.1359 (  3627 PWs)   bands (ev):

   -83.0757 -46.6018 -46.6017 -46.6015 -16.5147 -16.2571 -16.2523  -6.9560
    -6.9467  -6.9462  -6.7700  -6.6162   0.3353   0.6853   1.1263   2.2869
     2.6247   2.7127   2.7489   2.7579   2.8881   4.4682   4.4763   4.5819
     4.5910   4.6336   6.4416   9.4236  13.5773  14.4617  14.9187  16.9695

     occupation numbers 
     1.0000   1.0000   1.0000   1.0000   1.0000   1.0000   1.0000   1.0000
     1.0000   1.0000   1.0000   1.0000   1.0000   1.0000   1.0000   1.0000
     1.0000   1.0000   1.0000   1.0000   1.0000   1.0000   1.0000   1.0000
     1.0000   1.0000   1.0000   0.0000   0.0000   0.0000   0.0000   0.0000

          k = 0.0000 0.2719 0.0000 (  3619 PWs)   bands (ev):

   -83.0757 -46.6017 -46.6017 -46.6013 -16.4890 -16.2594 -16.2387  -7.0116
    -6.9639  -6.9639  -6.9373  -6.5306   0.7168   0.7168   0.8607   2.0834
     2.6060   2.6838   2.6838   2.7473   2.7473   4.4981   4.5235   4.6016
     4.7082   4.7082   7.2271   9.3870  12.9661  15.0569  15.0569  16.8869

     occupation numbers 
     1.0000   1.0000   1.0000   1.0000   1.0000   1.0000   1.0000   1.0000
     1.0000   1.0000   1.0000   1.0000   1.0000   1.0000   1.0000   1.0000
     1.0000   1.0000   1.0000   1.0000   1.0000   1.0000   1.0000   1.0000
     1.0000   1.0000   1.0000   0.0000   0.0000   0.0000   0.0000   0.0000

          k = 0.0000 0.2719 0.1359 (  3612 PWs)   bands (ev):

   -83.0756 -46.6018 -46.6016 -46.6012 -16.4602 -16.2542 -16.2374  -7.0473
    -6.9737  -6.9638  -6.9461  -6.6462   0.1662   0.7596   1.5349   2.0251
     2.4832   2.6667   2.7048   2.7147   2.9210   4.5311   4.5827   4.5883
     4.6961   4.7093   7.5392   9.5542  12.8044  14.2539  15.0783  16.0834

     occupation numbers 
     1.0000   1.0000   1.0000   1.0000   1.0000   1.0000   1.0000   1.0000
     1.0000   1.0000   1.0000   1.0000   1.0000   1.0000   1.0000   1.0000
     1.0000   1.0000   1.0000   1.0000   1.0000   1.0000   1.0000   1.0000
     1.0000   1.0000   1.0000   0.0000   0.0000   0.0000   0.0000   0.0000

          k = 0.0000 0.2719 0.2719 (  3604 PWs)   bands (ev):

   -83.0756 -46.6015 -46.6015 -46.6013 -16.4059 -16.2406 -16.2327  -7.1905
    -6.9935  -6.9636  -6.9634  -6.7968  -0.1848   0.8479   1.9053   2.0948
     2.4084   2.6281   2.6288   2.7973   3.0791   4.5380   4.6352   4.6615
     4.7070   4.7156   8.3589   9.8772  12.1337  13.2624  15.1520  15.9322

     occupation numbers 
     1.0000   1.0000   1.0000   1.0000   1.0000   1.0000   1.0000   1.0000
     1.0000   1.0000   1.0000   1.0000   1.0000   1.0000   1.0000   1.0000
     1.0000   1.0000   1.0000   1.0000   1.0000   1.0000   1.0000   1.0000
     1.0000   1.0000   1.0015   0.0000   0.0000   0.0000   0.0000   0.0000

          k =-0.0000 0.2719-0.4078 (  3604 PWs)   bands (ev):

   -83.0756 -46.6017 -46.6015 -46.6012 -16.3819 -16.2362 -16.2240  -7.2970
    -7.0032  -6.9721  -6.9634  -6.8334  -0.2927   0.8935   1.8496   2.2864
     2.3792   2.5942   2.6070   2.8724   3.1136   4.5624   4.6194   4.6747
     4.7124   4.7698   9.1629   9.6568  12.2486  12.3259  15.2245  15.9529

     occupation numbers 
     1.0000   1.0000   1.0000   1.0000   1.0000   1.0000   1.0000   1.0000
     1.0000   1.0000   1.0000   1.0000   1.0000   1.0000   1.0000   1.0000
     1.0000   1.0000   1.0000   1.0000   1.0000   1.0000   1.0000   1.0000
     1.0000   1.0000   0.0000   0.0000   0.0000   0.0000   0.0000   0.0000

          k =-0.0000 0.2719-0.2719 (  3604 PWs)   bands (ev):

   -83.0756 -46.6015 -46.6015 -46.6013 -16.4059 -16.2406 -16.2328  -7.1905
    -6.9935  -6.9636  -6.9634  -6.7968  -0.1848   0.8479   1.9053   2.0948
     2.4084   2.6282   2.6287   2.7973   3.0791   4.5380   4.6352   4.6615
     4.7070   4.7156   8.3589   9.8772  12.1337  13.2624  15.1520  15.9322

     occupation numbers 
     1.0000   1.0000   1.0000   1.0000   1.0000   1.0000   1.0000   1.0000
     1.0000   1.0000   1.0000   1.0000   1.0000   1.0000   1.0000   1.0000
     1.0000   1.0000   1.0000   1.0000   1.0000   1.0000   1.0000   1.0000
     1.0000   1.0000   1.0015   0.0000   0.0000   0.0000   0.0000   0.0000

          k = 0.0000 0.2719-0.1359 (  3612 PWs)   bands (ev):

   -83.0756 -46.6018 -46.6016 -46.6012 -16.4602 -16.2542 -16.2374  -7.0473
    -6.9737  -6.9638  -6.9461  -6.6462   0.1662   0.7596   1.5349   2.0251
     2.4832   2.6667   2.7048   2.7147   2.9210   4.5311   4.5827   4.5883
     4.6961   4.7093   7.5392   9.5542  12.8044  14.2539  15.0783  16.0834

     occupation numbers 
     1.0000   1.0000   1.0000   1.0000   1.0000   1.0000   1.0000   1.0000
     1.0000   1.0000   1.0000   1.0000   1.0000   1.0000   1.0000   1.0000
     1.0000   1.0000   1.0000   1.0000   1.0000   1.0000   1.0000   1.0000
     1.0000   1.0000   1.0000   0.0000   0.0000   0.0000   0.0000   0.0000

          k =-0.0000-0.4078-0.0000 (  3588 PWs)   bands (ev):

   -83.0756 -46.6012 -46.6012 -46.6011 -16.4637 -16.2586 -16.2279  -7.1635
    -6.9723  -6.9723  -6.9367  -6.5303   0.7512   0.7512   0.9512   1.9054
     2.5417   2.6574   2.6574   2.7307   2.7307   4.5249   4.5369   4.6637
     4.7666   4.7666   8.4772   8.6666  12.9393  15.2452  15.2452  16.3193

     occupation numbers 
     1.0000   1.0000   1.0000   1.0000   1.0000   1.0000   1.0000   1.0000
     1.0000   1.0000   1.0000   1.0000   1.0000   1.0000   1.0000   1.0000
     1.0000   1.0000   1.0000   1.0000   1.0000   1.0000   1.0000   1.0000
     1.0000   1.0000   1.0769   0.0036   0.0000   0.0000   0.0000   0.0000

          k =-0.0000-0.4078 0.1359 (  3614 PWs)   bands (ev):

   -83.0756 -46.6019 -46.6016 -46.6012 -16.4349 -16.2533 -16.2267  -7.1924
    -6.9829  -6.9723  -6.9460  -6.6494   0.1195   0.7973   1.7264   1.8997
     2.4184   2.6376   2.6869   2.6920   2.9129   4.5733   4.5894   4.6594
     4.6945   4.7676   8.7872   8.7970  12.8741  13.7849  15.2388  16.1945

     occupation numbers 
     1.0000   1.0000   1.0000   1.0000   1.0000   1.0000   1.0000   1.0000
     1.0000   1.0000   1.0000   1.0000   1.0000   1.0000   1.0000   1.0000
     1.0000   1.0000   1.0000   1.0000   1.0000   1.0000   1.0000   1.0000
     1.0000   1.0000   0.0000   0.0000   0.0000   0.0000   0.0000   0.0000

          k =-0.0000-0.4078 0.2719 (  3604 PWs)   bands (ev):

   -83.0756 -46.6017 -46.6015 -46.6012 -16.3819 -16.2362 -16.2240  -7.2970
    -7.0032  -6.9721  -6.9634  -6.8334  -0.2927   0.8935   1.8496   2.2864
     2.3792   2.5941   2.6070   2.8724   3.1136   4.5624   4.6194   4.6747
     4.7124   4.7698   9.1629   9.6567  12.2486  12.3259  15.2245  15.9529

     occupation numbers 
     1.0000   1.0000   1.0000   1.0000   1.0000   1.0000   1.0000   1.0000
     1.0000   1.0000   1.0000   1.0000   1.0000   1.0000   1.0000   1.0000
     1.0000   1.0000   1.0000   1.0000   1.0000   1.0000   1.0000   1.0000
     1.0000   1.0000   0.0000   0.0000   0.0000   0.0000   0.0000   0.0000

          k =-0.0000-0.4078-0.4078 (  3628 PWs)   bands (ev):

   -83.0757 -46.6020 -46.6019 -46.6019 -16.3596 -16.2228 -16.2228  -7.3791
    -7.0137  -6.9723  -6.9723  -6.8925  -0.4203   0.9439   1.8121   2.3965
     2.3965   2.5701   2.5701   3.0383   3.1913   4.5015   4.6180   4.7051
     4.7709   4.7709   9.4647  10.5386  11.5265  11.5265  15.2164  15.8360

     occupation numbers 
     1.0000   1.0000   1.0000   1.0000   1.0000   1.0000   1.0000   1.0000
     1.0000   1.0000   1.0000   1.0000   1.0000   1.0000   1.0000   1.0000
     1.0000   1.0000   1.0000   1.0000   1.0000   1.0000   1.0000   1.0000
     1.0000   1.0000   0.0000   0.0000   0.0000   0.0000   0.0000   0.0000

          k = 0.1359 0.0000 0.0000 (  3635 PWs)   bands (ev):

   -83.0757 -46.6018 -46.6018 -46.6014 -16.5430 -16.2610 -16.2553  -6.9467
    -6.9467  -6.9381  -6.6959  -6.5306   0.6486   0.6486   0.6964   2.4829
     2.7275   2.7275   2.7495   2.7960   2.7961   4.4212   4.4628   4.5210
     4.5854   4.5854   5.9835   9.2516  13.9097  14.8693  14.8694  17.4849

     occupation numbers 
     1.0000   1.0000   1.0000   1.0000   1.0000   1.0000   1.0000   1.0000
     1.0000   1.0000   1.0000   1.0000   1.0000   1.0000   1.0000   1.0000
     1.0000   1.0000   1.0000   1.0000   1.0000   1.0000   1.0000   1.0000
     1.0000   1.0000   1.0000   0.0000   0.0000   0.0000   0.0000   0.0000

          k = 0.1359 0.0000 0.1359 (  3627 PWs)   bands (ev):

   -83.0757 -46.6018 -46.6017 -46.6015 -16.5147 -16.2571 -16.2523  -6.9560
    -6.9467  -6.9462  -6.7700  -6.6162   0.3353   0.6853   1.1263   2.2869
     2.6247   2.7127   2.7489   2.7579   2.8881   4.4682   4.4763   4.5819
     4.5910   4.6336   6.4416   9.4236  13.5773  14.4617  14.9187  16.9695

     occupation numbers 
     1.0000   1.0000   1.0000   1.0000   1.0000   1.0000   1.0000   1.0000
     1.0000   1.0000   1.0000   1.0000   1.0000   1.0000   1.0000   1.0000
     1.0000   1.0000   1.0000   1.0000   1.0000   1.0000   1.0000   1.0000
     1.0000   1.0000   1.0000   0.0000   0.0000   0.0000   0.0000   0.0000

          k = 0.1359 0.0000 0.2719 (  3612 PWs)   bands (ev):

   -83.0756 -46.6018 -46.6016 -46.6012 -16.4602 -16.2542 -16.2374  -7.0473
    -6.9737  -6.9638  -6.9461  -6.6462   0.1662   0.7596   1.5349   2.0251
     2.4832   2.6667   2.7048   2.7147   2.9210   4.5311   4.5827   4.5883
     4.6961   4.7093   7.5392   9.5542  12.8044  14.2539  15.0783  16.0834

     occupation numbers 
     1.0000   1.0000   1.0000   1.0000   1.0000   1.0000   1.0000   1.0000
     1.0000   1.0000   1.0000   1.0000   1.0000   1.0000   1.0000   1.0000
     1.0000   1.0000   1.0000   1.0000   1.0000   1.0000   1.0000   1.0000
     1.0000   1.0000   1.0000   0.0000   0.0000   0.0000   0.0000   0.0000

          k = 0.1359-0.0000-0.4078 (  3614 PWs)   bands (ev):

   -83.0756 -46.6019 -46.6016 -46.6012 -16.4349 -16.2533 -16.2267  -7.1924
    -6.9829  -6.9723  -6.9460  -6.6494   0.1195   0.7973   1.7264   1.8997
     2.4184   2.6377   2.6869   2.6920   2.9129   4.5733   4.5894   4.6594
     4.6945   4.7676   8.7872   8.7970  12.8741  13.7849  15.2388  16.1942

     occupation numbers 
     1.0000   1.0000   1.0000   1.0000   1.0000   1.0000   1.0000   1.0000
     1.0000   1.0000   1.0000   1.0000   1.0000   1.0000   1.0000   1.0000
     1.0000   1.0000   1.0000   1.0000   1.0000   1.0000   1.0000   1.0000
     1.0000   1.0000   0.0000   0.0000   0.0000   0.0000   0.0000   0.0000

          k = 0.1359-0.0000-0.2719 (  3612 PWs)   bands (ev):

   -83.0756 -46.6018 -46.6016 -46.6012 -16.4602 -16.2542 -16.2374  -7.0473
    -6.9737  -6.9638  -6.9461  -6.6462   0.1662   0.7596   1.5349   2.0251
     2.4832   2.6667   2.7048   2.7147   2.9210   4.5311   4.5827   4.5883
     4.6961   4.7093   7.5392   9.5542  12.8044  14.2539  15.0783  16.0834

     occupation numbers 
     1.0000   1.0000   1.0000   1.0000   1.0000   1.0000   1.0000   1.0000
     1.0000   1.0000   1.0000   1.0000   1.0000   1.0000   1.0000   1.0000
     1.0000   1.0000   1.0000   1.0000   1.0000   1.0000   1.0000   1.0000
     1.0000   1.0000   1.0000   0.0000   0.0000   0.0000   0.0000   0.0000

          k = 0.1359-0.0000-0.1359 (  3627 PWs)   bands (ev):

   -83.0757 -46.6018 -46.6017 -46.6015 -16.5147 -16.2571 -16.2523  -6.9560
    -6.9467  -6.9462  -6.7700  -6.6162   0.3353   0.6853   1.1263   2.2869
     2.6247   2.7127   2.7489   2.7579   2.8881   4.4682   4.4763   4.5819
     4.5910   4.6336   6.4416   9.4236  13.5773  14.4617  14.9187  16.9695

     occupation numbers 
     1.0000   1.0000   1.0000   1.0000   1.0000   1.0000   1.0000   1.0000
     1.0000   1.0000   1.0000   1.0000   1.0000   1.0000   1.0000   1.0000
     1.0000   1.0000   1.0000   1.0000   1.0000   1.0000   1.0000   1.0000
     1.0000   1.0000   1.0000   0.0000   0.0000   0.0000   0.0000   0.0000

          k = 0.1359 0.1359 0.0000 (  3627 PWs)   bands (ev):

   -83.0757 -46.6018 -46.6017 -46.6015 -16.5147 -16.2571 -16.2523  -6.9560
    -6.9467  -6.9462  -6.7700  -6.6162   0.3353   0.6853   1.1263   2.2869
     2.6247   2.7127   2.7489   2.7579   2.8881   4.4682   4.4763   4.5819
     4.5910   4.6336   6.4416   9.4236  13.5773  14.4617  14.9187  16.9695

     occupation numbers 
     1.0000   1.0000   1.0000   1.0000   1.0000   1.0000   1.0000   1.0000
     1.0000   1.0000   1.0000   1.0000   1.0000   1.0000   1.0000   1.0000
     1.0000   1.0000   1.0000   1.0000   1.0000   1.0000   1.0000   1.0000
     1.0000   1.0000   1.0000   0.0000   0.0000   0.0000   0.0000   0.0000

          k = 0.1359 0.1359 0.1359 (  3620 PWs)   bands (ev):

   -83.0757 -46.6017 -46.6017 -46.6014 -16.4857 -16.2517 -16.2513  -6.9557
    -6.9555  -6.9555  -6.7699  -6.7699  -0.0192   1.1648   1.1667   2.1709
     2.5574   2.5583   2.8226   2.8231   2.9348   4.4777   4.4779   4.5805
     4.6636   4.6639   6.8325   9.5754  13.7263  13.7287  14.7680  16.6174

     occupation numbers 
     1.0000   1.0000   1.0000   1.0000   1.0000   1.0000   1.0000   1.0000
     1.0000   1.0000   1.0000   1.0000   1.0000   1.0000   1.0000   1.0000
     1.0000   1.0000   1.0000   1.0000   1.0000   1.0000   1.0000   1.0000
     1.0000   1.0000   1.0000   0.0000   0.0000   0.0000   0.0000   0.0000

          k = 0.1359 0.1359 0.2719 (  3623 PWs)   bands (ev):

   -83.0757 -46.6020 -46.6017 -46.6015 -16.4302 -16.2500 -16.2362  -7.0678
    -6.9740  -6.9732  -6.9552  -6.7696  -0.2864   1.2478   1.6850   1.9974
     2.3800   2.5370   2.8013   2.8437   2.9697   4.5178   4.5643   4.6160
     4.6917   4.7282   7.8200   9.6951  12.8202  14.1283  14.1571  16.2040

     occupation numbers 
     1.0000   1.0000   1.0000   1.0000   1.0000   1.0000   1.0000   1.0000
     1.0000   1.0000   1.0000   1.0000   1.0000   1.0000   1.0000   1.0000
     1.0000   1.0000   1.0000   1.0000   1.0000   1.0000   1.0000   1.0000
     1.0000   1.0000   1.0000   0.0000   0.0000   0.0000   0.0000   0.0000

          k = 0.1359 0.1359-0.4078 (  3608 PWs)   bands (ev):

   -83.0756 -46.6016 -46.6015 -46.6012 -16.4046 -16.2492 -16.2255  -7.2123
    -6.9831  -6.9820  -6.9549  -6.7693  -0.3674   1.2908   1.9079   1.9095
     2.3089   2.5788   2.7765   2.7855   2.9728   4.5406   4.6539   4.6708
     4.6754   4.7139   8.9068   9.0735  12.9123  13.4003  14.6056  15.4525

     occupation numbers 
     1.0000   1.0000   1.0000   1.0000   1.0000   1.0000   1.0000   1.0000
     1.0000   1.0000   1.0000   1.0000   1.0000   1.0000   1.0000   1.0000
     1.0000   1.0000   1.0000   1.0000   1.0000   1.0000   1.0000   1.0000
     1.0000   1.0000   0.0000   0.0000   0.0000   0.0000   0.0000   0.0000

          k = 0.1359 0.1359-0.2719 (  3623 PWs)   bands (ev):

   -83.0757 -46.6020 -46.6017 -46.6015 -16.4302 -16.2500 -16.2362  -7.0678
    -6.9740  -6.9732  -6.9552  -6.7696  -0.2864   1.2478   1.6850   1.9974
     2.3800   2.5370   2.8013   2.8437   2.9697   4.5178   4.5643   4.6160
     4.6917   4.7282   7.8200   9.6951  12.8202  14.1283  14.1571  16.2040

     occupation numbers 
     1.0000   1.0000   1.0000   1.0000   1.0000   1.0000   1.0000   1.0000
     1.0000   1.0000   1.0000   1.0000   1.0000   1.0000   1.0000   1.0000
     1.0000   1.0000   1.0000   1.0000   1.0000   1.0000   1.0000   1.0000
     1.0000   1.0000   1.0000   0.0000   0.0000   0.0000   0.0000   0.0000

          k = 0.1359 0.1359-0.1359 (  3620 PWs)   bands (ev):

   -83.0757 -46.6017 -46.6017 -46.6014 -16.4857 -16.2515 -16.2515  -6.9557
    -6.9555  -6.9555  -6.7699  -6.7699  -0.0192   1.1658   1.1658   2.1709
     2.5579   2.5579   2.8229   2.8229   2.9348   4.4778   4.4778   4.5805
     4.6638   4.6638   6.8325   9.5754  13.7275  13.7275  14.7680  16.6174

     occupation numbers 
     1.0000   1.0000   1.0000   1.0000   1.0000   1.0000   1.0000   1.0000
     1.0000   1.0000   1.0000   1.0000   1.0000   1.0000   1.0000   1.0000
     1.0000   1.0000   1.0000   1.0000   1.0000   1.0000   1.0000   1.0000
     1.0000   1.0000   1.0000   0.0000   0.0000   0.0000   0.0000   0.0000

          k = 0.1359 0.2719 0.0000 (  3612 PWs)   bands (ev):

   -83.0756 -46.6018 -46.6016 -46.6012 -16.4602 -16.2542 -16.2374  -7.0473
    -6.9737  -6.9638  -6.9461  -6.6462   0.1662   0.7596   1.5349   2.0251
     2.4832   2.6667   2.7047   2.7147   2.9210   4.5311   4.5827   4.5883
     4.6961   4.7093   7.5392   9.5542  12.8044  14.2539  15.0783  16.0834

     occupation numbers 
     1.0000   1.0000   1.0000   1.0000   1.0000   1.0000   1.0000   1.0000
     1.0000   1.0000   1.0000   1.0000   1.0000   1.0000   1.0000   1.0000
     1.0000   1.0000   1.0000   1.0000   1.0000   1.0000   1.0000   1.0000
     1.0000   1.0000   1.0000   0.0000   0.0000   0.0000   0.0000   0.0000

          k = 0.1359 0.2719 0.1359 (  3623 PWs)   bands (ev):

   -83.0757 -46.6020 -46.6017 -46.6015 -16.4302 -16.2500 -16.2362  -7.0678
    -6.9740  -6.9732  -6.9552  -6.7696  -0.2864   1.2478   1.6850   1.9974
     2.3800   2.5370   2.8013   2.8437   2.9697   4.5178   4.5643   4.6160
     4.6917   4.7282   7.8200   9.6951  12.8202  14.1283  14.1571  16.2040

     occupation numbers 
     1.0000   1.0000   1.0000   1.0000   1.0000   1.0000   1.0000   1.0000
     1.0000   1.0000   1.0000   1.0000   1.0000   1.0000   1.0000   1.0000
     1.0000   1.0000   1.0000   1.0000   1.0000   1.0000   1.0000   1.0000
     1.0000   1.0000   1.0000   0.0000   0.0000   0.0000   0.0000   0.0000

          k = 0.1359 0.2719 0.2719 (  3620 PWs)   bands (ev):

   -83.0757 -46.6019 -46.6017 -46.6015 -16.3734 -16.2384 -16.2320  -7.1905
    -6.9932  -6.9732  -6.9731  -6.9285  -0.6698   1.5145   1.9274   2.1065
     2.2854   2.5212   2.8257   2.9263   3.0944   4.5378   4.5753   4.6087
     4.7110   4.7342   8.5546   9.9716  12.3491  13.2902  14.1251  15.6421

     occupation numbers 
     1.0000   1.0000   1.0000   1.0000   1.0000   1.0000   1.0000   1.0000
     1.0000   1.0000   1.0000   1.0000   1.0000   1.0000   1.0000   1.0000
     1.0000   1.0000   1.0000   1.0000   1.0000   1.0000   1.0000   1.0000
     1.0000   1.0000   0.4892   0.0000   0.0000   0.0000   0.0000   0.0000

          k = 0.1359 0.2719-0.4078 (  3606 PWs)   bands (ev):

   -83.0756 -46.6017 -46.6014 -46.6014 -16.3486 -16.2349 -16.2231  -7.2993
    -7.0028  -6.9820  -6.9729  -6.9575  -0.7915   1.5876   1.8907   2.2112
     2.2338   2.6960   2.8065   2.9202   3.1330   4.5526   4.5882   4.6443
     4.6982   4.7220   9.1898   9.8921  12.3160  12.5326  14.5445  15.0790

     occupation numbers 
     1.0000   1.0000   1.0000   1.0000   1.0000   1.0000   1.0000   1.0000
     1.0000   1.0000   1.0000   1.0000   1.0000   1.0000   1.0000   1.0000
     1.0000   1.0000   1.0000   1.0000   1.0000   1.0000   1.0000   1.0000
     1.0000   1.0000   0.0000   0.0000   0.0000   0.0000   0.0000   0.0000

          k = 0.1359 0.2719-0.2719 (  3620 PWs)   bands (ev):

   -83.0757 -46.6019 -46.6017 -46.6015 -16.3734 -16.2384 -16.2320  -7.1905
    -6.9932  -6.9732  -6.9731  -6.9285  -0.6698   1.5145   1.9274   2.1065
     2.2854   2.5212   2.8257   2.9263   3.0944   4.5378   4.5753   4.6087
     4.7110   4.7342   8.5546   9.9716  12.3491  13.2902  14.1251  15.6421

     occupation numbers 
     1.0000   1.0000   1.0000   1.0000   1.0000   1.0000   1.0000   1.0000
     1.0000   1.0000   1.0000   1.0000   1.0000   1.0000   1.0000   1.0000
     1.0000   1.0000   1.0000   1.0000   1.0000   1.0000   1.0000   1.0000
     1.0000   1.0000   0.4892   0.0000   0.0000   0.0000   0.0000   0.0000

          k = 0.1359 0.2719-0.1359 (  3623 PWs)   bands (ev):

   -83.0757 -46.6020 -46.6017 -46.6015 -16.4302 -16.2500 -16.2362  -7.0678
    -6.9740  -6.9732  -6.9552  -6.7696  -0.2864   1.2478   1.6850   1.9974
     2.3800   2.5370   2.8013   2.8437   2.9697   4.5178   4.5643   4.6160
     4.6917   4.7282   7.8200   9.6951  12.8202  14.1283  14.1571  16.2040

     occupation numbers 
     1.0000   1.0000   1.0000   1.0000   1.0000   1.0000   1.0000   1.0000
     1.0000   1.0000   1.0000   1.0000   1.0000   1.0000   1.0000   1.0000
     1.0000   1.0000   1.0000   1.0000   1.0000   1.0000   1.0000   1.0000
     1.0000   1.0000   1.0000   0.0000   0.0000   0.0000   0.0000   0.0000

          k = 0.1359-0.4078-0.0000 (  3614 PWs)   bands (ev):

   -83.0756 -46.6019 -46.6016 -46.6012 -16.4349 -16.2533 -16.2267  -7.1924
    -6.9829  -6.9723  -6.9460  -6.6494   0.1195   0.7973   1.7263   1.8998
     2.4184   2.6376   2.6869   2.6920   2.9129   4.5733   4.5894   4.6594
     4.6945   4.7676   8.7872   8.7970  12.8741  13.7849  15.2388  16.1945

     occupation numbers 
     1.0000   1.0000   1.0000   1.0000   1.0000   1.0000   1.0000   1.0000
     1.0000   1.0000   1.0000   1.0000   1.0000   1.0000   1.0000   1.0000
     1.0000   1.0000   1.0000   1.0000   1.0000   1.0000   1.0000   1.0000
     1.0000   1.0000   0.0000   0.0000   0.0000   0.0000   0.0000   0.0000

          k = 0.1359-0.4078 0.1359 (  3608 PWs)   bands (ev):

   -83.0756 -46.6016 -46.6015 -46.6012 -16.4047 -16.2492 -16.2255  -7.2123
    -6.9831  -6.9820  -6.9549  -6.7693  -0.3674   1.2908   1.9081   1.9093
     2.3089   2.5788   2.7765   2.7854   2.9728   4.5406   4.6539   4.6708
     4.6754   4.7139   8.9068   9.0734  12.9123  13.4003  14.6056  15.4525

     occupation numbers 
     1.0000   1.0000   1.0000   1.0000   1.0000   1.0000   1.0000   1.0000
     1.0000   1.0000   1.0000   1.0000   1.0000   1.0000   1.0000   1.0000
     1.0000   1.0000   1.0000   1.0000   1.0000   1.0000   1.0000   1.0000
     1.0000   1.0000   0.0000   0.0000   0.0000   0.0000   0.0000   0.0000

          k = 0.1359-0.4078 0.2719 (  3606 PWs)   bands (ev):

   -83.0756 -46.6017 -46.6014 -46.6014 -16.3486 -16.2349 -16.2231  -7.2993
    -7.0028  -6.9820  -6.9729  -6.9575  -0.7915   1.5876   1.8907   2.2112
     2.2338   2.6960   2.8065   2.9202   3.1330   4.5526   4.5882   4.6443
     4.6982   4.7220   9.1898   9.8920  12.3160  12.5326  14.5445  15.0790

     occupation numbers 
     1.0000   1.0000   1.0000   1.0000   1.0000   1.0000   1.0000   1.0000
     1.0000   1.0000   1.0000   1.0000   1.0000   1.0000   1.0000   1.0000
     1.0000   1.0000   1.0000   1.0000   1.0000   1.0000   1.0000   1.0000
     1.0000   1.0000   0.0000   0.0000   0.0000   0.0000   0.0000   0.0000

          k = 0.1359-0.4078-0.4078 (  3616 PWs)   bands (ev):

   -83.0756 -46.6020 -46.6016 -46.6016 -16.3255 -16.2220 -16.2220  -7.3789
    -7.0135  -7.0128  -6.9819  -6.9819  -0.9275   1.6730   1.8667   2.2282
     2.2282   2.8109   2.8110   3.0393   3.2075   4.4899   4.6198   4.6848
     4.6956   4.6956   9.3918  10.7360  11.7594  11.7594  14.6810  15.2644

     occupation numbers 
     1.0000   1.0000   1.0000   1.0000   1.0000   1.0000   1.0000   1.0000
     1.0000   1.0000   1.0000   1.0000   1.0000   1.0000   1.0000   1.0000
     1.0000   1.0000   1.0000   1.0000   1.0000   1.0000   1.0000   1.0000
     1.0000   1.0000   0.0000   0.0000   0.0000   0.0000   0.0000   0.0000

          k = 0.1359-0.4078-0.2719 (  3606 PWs)   bands (ev):

   -83.0756 -46.6017 -46.6014 -46.6014 -16.3486 -16.2349 -16.2231  -7.2993
    -7.0028  -6.9820  -6.9729  -6.9575  -0.7915   1.5876   1.8907   2.2112
     2.2338   2.6960   2.8065   2.9202   3.1330   4.5526   4.5882   4.6443
     4.6982   4.7220   9.1898   9.8920  12.3160  12.5326  14.5445  15.0790

     occupation numbers 
     1.0000   1.0000   1.0000   1.0000   1.0000   1.0000   1.0000   1.0000
     1.0000   1.0000   1.0000   1.0000   1.0000   1.0000   1.0000   1.0000
     1.0000   1.0000   1.0000   1.0000   1.0000   1.0000   1.0000   1.0000
     1.0000   1.0000   0.0000   0.0000   0.0000   0.0000   0.0000   0.0000

          k = 0.1359-0.4078-0.1359 (  3608 PWs)   bands (ev):

   -83.0756 -46.6016 -46.6015 -46.6012 -16.4047 -16.2492 -16.2255  -7.2123
    -6.9831  -6.9820  -6.9549  -6.7693  -0.3674   1.2908   1.9081   1.9093
     2.3089   2.5788   2.7765   2.7854   2.9728   4.5406   4.6539   4.6708
     4.6754   4.7139   8.9068   9.0734  12.9123  13.4003  14.6056  15.4525

     occupation numbers 
     1.0000   1.0000   1.0000   1.0000   1.0000   1.0000   1.0000   1.0000
     1.0000   1.0000   1.0000   1.0000   1.0000   1.0000   1.0000   1.0000
     1.0000   1.0000   1.0000   1.0000   1.0000   1.0000   1.0000   1.0000
     1.0000   1.0000   0.0000   0.0000   0.0000   0.0000   0.0000   0.0000

          k = 0.1359-0.2719-0.0000 (  3612 PWs)   bands (ev):

   -83.0756 -46.6018 -46.6016 -46.6012 -16.4602 -16.2542 -16.2374  -7.0473
    -6.9737  -6.9638  -6.9461  -6.6462   0.1662   0.7596   1.5349   2.0251
     2.4832   2.6667   2.7047   2.7147   2.9210   4.5311   4.5827   4.5883
     4.6961   4.7093   7.5392   9.5542  12.8044  14.2539  15.0783  16.0834

     occupation numbers 
     1.0000   1.0000   1.0000   1.0000   1.0000   1.0000   1.0000   1.0000
     1.0000   1.0000   1.0000   1.0000   1.0000   1.0000   1.0000   1.0000
     1.0000   1.0000   1.0000   1.0000   1.0000   1.0000   1.0000   1.0000
     1.0000   1.0000   1.0000   0.0000   0.0000   0.0000   0.0000   0.0000

          k = 0.1359-0.2719 0.1359 (  3623 PWs)   bands (ev):

   -83.0757 -46.6020 -46.6017 -46.6015 -16.4302 -16.2500 -16.2362  -7.0678
    -6.9740  -6.9732  -6.9552  -6.7696  -0.2864   1.2478   1.6850   1.9974
     2.3800   2.5370   2.8013   2.8437   2.9697   4.5178   4.5643   4.6160
     4.6917   4.7282   7.8200   9.6951  12.8202  14.1283  14.1571  16.2040

     occupation numbers 
     1.0000   1.0000   1.0000   1.0000   1.0000   1.0000   1.0000   1.0000
     1.0000   1.0000   1.0000   1.0000   1.0000   1.0000   1.0000   1.0000
     1.0000   1.0000   1.0000   1.0000   1.0000   1.0000   1.0000   1.0000
     1.0000   1.0000   1.0000   0.0000   0.0000   0.0000   0.0000   0.0000

          k = 0.1359-0.2719 0.2719 (  3620 PWs)   bands (ev):

   -83.0757 -46.6019 -46.6017 -46.6015 -16.3734 -16.2384 -16.2320  -7.1905
    -6.9932  -6.9732  -6.9731  -6.9285  -0.6698   1.5145   1.9274   2.1065
     2.2854   2.5212   2.8257   2.9263   3.0944   4.5378   4.5753   4.6087
     4.7110   4.7342   8.5546   9.9716  12.3491  13.2902  14.1251  15.6421

     occupation numbers 
     1.0000   1.0000   1.0000   1.0000   1.0000   1.0000   1.0000   1.0000
     1.0000   1.0000   1.0000   1.0000   1.0000   1.0000   1.0000   1.0000
     1.0000   1.0000   1.0000   1.0000   1.0000   1.0000   1.0000   1.0000
     1.0000   1.0000   0.4892   0.0000   0.0000   0.0000   0.0000   0.0000

          k = 0.1359-0.2719-0.4078 (  3606 PWs)   bands (ev):

   -83.0756 -46.6017 -46.6014 -46.6014 -16.3486 -16.2349 -16.2231  -7.2993
    -7.0028  -6.9820  -6.9729  -6.9575  -0.7915   1.5876   1.8907   2.2112
     2.2338   2.6960   2.8065   2.9202   3.1330   4.5526   4.5882   4.6443
     4.6982   4.7220   9.1898   9.8921  12.3160  12.5326  14.5445  15.0790

     occupation numbers 
     1.0000   1.0000   1.0000   1.0000   1.0000   1.0000   1.0000   1.0000
     1.0000   1.0000   1.0000   1.0000   1.0000   1.0000   1.0000   1.0000
     1.0000   1.0000   1.0000   1.0000   1.0000   1.0000   1.0000   1.0000
     1.0000   1.0000   0.0000   0.0000   0.0000   0.0000   0.0000   0.0000

          k = 0.1359-0.2719-0.2719 (  3620 PWs)   bands (ev):

   -83.0757 -46.6019 -46.6017 -46.6015 -16.3734 -16.2384 -16.2320  -7.1905
    -6.9932  -6.9732  -6.9731  -6.9285  -0.6698   1.5145   1.9274   2.1065
     2.2854   2.5212   2.8257   2.9263   3.0944   4.5378   4.5753   4.6087
     4.7110   4.7342   8.5546   9.9716  12.3491  13.2902  14.1251  15.6421

     occupation numbers 
     1.0000   1.0000   1.0000   1.0000   1.0000   1.0000   1.0000   1.0000
     1.0000   1.0000   1.0000   1.0000   1.0000   1.0000   1.0000   1.0000
     1.0000   1.0000   1.0000   1.0000   1.0000   1.0000   1.0000   1.0000
     1.0000   1.0000   0.4892   0.0000   0.0000   0.0000   0.0000   0.0000

          k = 0.1359-0.2719-0.1359 (  3623 PWs)   bands (ev):

   -83.0757 -46.6020 -46.6017 -46.6015 -16.4302 -16.2500 -16.2362  -7.0678
    -6.9740  -6.9732  -6.9552  -6.7696  -0.2864   1.2478   1.6850   1.9974
     2.3800   2.5370   2.8013   2.8437   2.9697   4.5178   4.5643   4.6160
     4.6917   4.7282   7.8200   9.6951  12.8202  14.1283  14.1571  16.2040

     occupation numbers 
     1.0000   1.0000   1.0000   1.0000   1.0000   1.0000   1.0000   1.0000
     1.0000   1.0000   1.0000   1.0000   1.0000   1.0000   1.0000   1.0000
     1.0000   1.0000   1.0000   1.0000   1.0000   1.0000   1.0000   1.0000
     1.0000   1.0000   1.0000   0.0000   0.0000   0.0000   0.0000   0.0000

          k = 0.1359-0.1359-0.0000 (  3627 PWs)   bands (ev):

   -83.0757 -46.6018 -46.6017 -46.6015 -16.5147 -16.2571 -16.2523  -6.9560
    -6.9467  -6.9462  -6.7700  -6.6162   0.3353   0.6853   1.1263   2.2869
     2.6247   2.7127   2.7489   2.7579   2.8881   4.4682   4.4763   4.5819
     4.5910   4.6336   6.4416   9.4236  13.5773  14.4617  14.9187  16.9695

     occupation numbers 
     1.0000   1.0000   1.0000   1.0000   1.0000   1.0000   1.0000   1.0000
     1.0000   1.0000   1.0000   1.0000   1.0000   1.0000   1.0000   1.0000
     1.0000   1.0000   1.0000   1.0000   1.0000   1.0000   1.0000   1.0000
     1.0000   1.0000   1.0000   0.0000   0.0000   0.0000   0.0000   0.0000

          k = 0.1359-0.1359 0.1359 (  3620 PWs)   bands (ev):

   -83.0757 -46.6017 -46.6017 -46.6014 -16.4857 -16.2516 -16.2515  -6.9557
    -6.9555  -6.9555  -6.7699  -6.7699  -0.0192   1.1655   1.1661   2.1709
     2.5577   2.5580   2.8228   2.8229   2.9348   4.4778   4.4779   4.5805
     4.6637   4.6638   6.8325   9.5754  13.7271  13.7279  14.7680  16.6174

     occupation numbers 
     1.0000   1.0000   1.0000   1.0000   1.0000   1.0000   1.0000   1.0000
     1.0000   1.0000   1.0000   1.0000   1.0000   1.0000   1.0000   1.0000
     1.0000   1.0000   1.0000   1.0000   1.0000   1.0000   1.0000   1.0000
     1.0000   1.0000   1.0000   0.0000   0.0000   0.0000   0.0000   0.0000

          k = 0.1359-0.1359 0.2719 (  3623 PWs)   bands (ev):

   -83.0757 -46.6020 -46.6017 -46.6015 -16.4302 -16.2500 -16.2362  -7.0678
    -6.9740  -6.9732  -6.9552  -6.7696  -0.2864   1.2478   1.6850   1.9974
     2.3800   2.5370   2.8013   2.8437   2.9697   4.5178   4.5643   4.6160
     4.6917   4.7282   7.8200   9.6951  12.8202  14.1283  14.1571  16.2040

     occupation numbers 
     1.0000   1.0000   1.0000   1.0000   1.0000   1.0000   1.0000   1.0000
     1.0000   1.0000   1.0000   1.0000   1.0000   1.0000   1.0000   1.0000
     1.0000   1.0000   1.0000   1.0000   1.0000   1.0000   1.0000   1.0000
     1.0000   1.0000   1.0000   0.0000   0.0000   0.0000   0.0000   0.0000

          k = 0.1359-0.1359-0.4078 (  3608 PWs)   bands (ev):

   -83.0756 -46.6016 -46.6015 -46.6012 -16.4046 -16.2492 -16.2255  -7.2123
    -6.9831  -6.9820  -6.9549  -6.7693  -0.3674   1.2908   1.9079   1.9095
     2.3089   2.5788   2.7765   2.7855   2.9728   4.5406   4.6539   4.6708
     4.6754   4.7139   8.9068   9.0735  12.9123  13.4003  14.6056  15.4525

     occupation numbers 
     1.0000   1.0000   1.0000   1.0000   1.0000   1.0000   1.0000   1.0000
     1.0000   1.0000   1.0000   1.0000   1.0000   1.0000   1.0000   1.0000
     1.0000   1.0000   1.0000   1.0000   1.0000   1.0000   1.0000   1.0000
     1.0000   1.0000   0.0000   0.0000   0.0000   0.0000   0.0000   0.0000

          k = 0.1359-0.1359-0.2719 (  3623 PWs)   bands (ev):

   -83.0757 -46.6020 -46.6017 -46.6015 -16.4302 -16.2500 -16.2362  -7.0678
    -6.9740  -6.9732  -6.9552  -6.7696  -0.2864   1.2478   1.6850   1.9974
     2.3800   2.5370   2.8013   2.8437   2.9697   4.5178   4.5643   4.6160
     4.6917   4.7282   7.8200   9.6951  12.8202  14.1283  14.1571  16.2040

     occupation numbers 
     1.0000   1.0000   1.0000   1.0000   1.0000   1.0000   1.0000   1.0000
     1.0000   1.0000   1.0000   1.0000   1.0000   1.0000   1.0000   1.0000
     1.0000   1.0000   1.0000   1.0000   1.0000   1.0000   1.0000   1.0000
     1.0000   1.0000   1.0000   0.0000   0.0000   0.0000   0.0000   0.0000

          k = 0.1359-0.1359-0.1359 (  3620 PWs)   bands (ev):

   -83.0757 -46.6017 -46.6017 -46.6014 -16.4857 -16.2516 -16.2514  -6.9557
    -6.9555  -6.9555  -6.7699  -6.7699  -0.0192   1.1652   1.1664   2.1709
     2.5576   2.5582   2.8227   2.8230   2.9348   4.4777   4.4779   4.5805
     4.6637   4.6639   6.8325   9.5754  13.7267  13.7283  14.7680  16.6174

     occupation numbers 
     1.0000   1.0000   1.0000   1.0000   1.0000   1.0000   1.0000   1.0000
     1.0000   1.0000   1.0000   1.0000   1.0000   1.0000   1.0000   1.0000
     1.0000   1.0000   1.0000   1.0000   1.0000   1.0000   1.0000   1.0000
     1.0000   1.0000   1.0000   0.0000   0.0000   0.0000   0.0000   0.0000

          k = 0.2719 0.0000 0.0000 (  3619 PWs)   bands (ev):

   -83.0757 -46.6017 -46.6017 -46.6013 -16.4890 -16.2594 -16.2387  -7.0116
    -6.9639  -6.9639  -6.9373  -6.5306   0.7168   0.7168   0.8607   2.0834
     2.6060   2.6838   2.6838   2.7473   2.7473   4.4981   4.5235   4.6016
     4.7082   4.7082   7.2271   9.3870  12.9661  15.0569  15.0569  16.8885

     occupation numbers 
     1.0000   1.0000   1.0000   1.0000   1.0000   1.0000   1.0000   1.0000
     1.0000   1.0000   1.0000   1.0000   1.0000   1.0000   1.0000   1.0000
     1.0000   1.0000   1.0000   1.0000   1.0000   1.0000   1.0000   1.0000
     1.0000   1.0000   1.0000   0.0000   0.0000   0.0000   0.0000   0.0000

          k = 0.2719 0.0000 0.1359 (  3612 PWs)   bands (ev):

   -83.0756 -46.6018 -46.6016 -46.6012 -16.4602 -16.2542 -16.2374  -7.0473
    -6.9737  -6.9638  -6.9461  -6.6462   0.1662   0.7596   1.5349   2.0251
     2.4832   2.6667   2.7048   2.7147   2.9210   4.5311   4.5827   4.5883
     4.6961   4.7093   7.5392   9.5542  12.8044  14.2539  15.0783  16.0834

     occupation numbers 
     1.0000   1.0000   1.0000   1.0000   1.0000   1.0000   1.0000   1.0000
     1.0000   1.0000   1.0000   1.0000   1.0000   1.0000   1.0000   1.0000
     1.0000   1.0000   1.0000   1.0000   1.0000   1.0000   1.0000   1.0000
     1.0000   1.0000   1.0000   0.0000   0.0000   0.0000   0.0000   0.0000

          k = 0.2719 0.0000 0.2719 (  3604 PWs)   bands (ev):

   -83.0756 -46.6015 -46.6015 -46.6013 -16.4059 -16.2406 -16.2328  -7.1905
    -6.9935  -6.9636  -6.9634  -6.7968  -0.1848   0.8479   1.9053   2.0948
     2.4084   2.6282   2.6287   2.7973   3.0791   4.5380   4.6352   4.6615
     4.7070   4.7156   8.3589   9.8772  12.1337  13.2624  15.1520  15.9322

     occupation numbers 
     1.0000   1.0000   1.0000   1.0000   1.0000   1.0000   1.0000   1.0000
     1.0000   1.0000   1.0000   1.0000   1.0000   1.0000   1.0000   1.0000
     1.0000   1.0000   1.0000   1.0000   1.0000   1.0000   1.0000   1.0000
     1.0000   1.0000   1.0015   0.0000   0.0000   0.0000   0.0000   0.0000

          k = 0.2719-0.0000-0.4078 (  3604 PWs)   bands (ev):

   -83.0756 -46.6017 -46.6015 -46.6012 -16.3819 -16.2362 -16.2240  -7.2970
    -7.0032  -6.9721  -6.9634  -6.8334  -0.2927   0.8935   1.8496   2.2864
     2.3792   2.5941   2.6070   2.8724   3.1136   4.5624   4.6194   4.6747
     4.7124   4.7698   9.1629   9.6568  12.2486  12.3259  15.2245  15.9529

     occupation numbers 
     1.0000   1.0000   1.0000   1.0000   1.0000   1.0000   1.0000   1.0000
     1.0000   1.0000   1.0000   1.0000   1.0000   1.0000   1.0000   1.0000
     1.0000   1.0000   1.0000   1.0000   1.0000   1.0000   1.0000   1.0000
     1.0000   1.0000   0.0000   0.0000   0.0000   0.0000   0.0000   0.0000

          k = 0.2719-0.0000-0.2719 (  3604 PWs)   bands (ev):

   -83.0756 -46.6015 -46.6015 -46.6013 -16.4059 -16.2406 -16.2328  -7.1905
    -6.9935  -6.9636  -6.9634  -6.7968  -0.1848   0.8479   1.9053   2.0948
     2.4084   2.6282   2.6287   2.7973   3.0791   4.5380   4.6352   4.6615
     4.7070   4.7156   8.3589   9.8772  12.1337  13.2624  15.1520  15.9322

     occupation numbers 
     1.0000   1.0000   1.0000   1.0000   1.0000   1.0000   1.0000   1.0000
     1.0000   1.0000   1.0000   1.0000   1.0000   1.0000   1.0000   1.0000
     1.0000   1.0000   1.0000   1.0000   1.0000   1.0000   1.0000   1.0000
     1.0000   1.0000   1.0015   0.0000   0.0000   0.0000   0.0000   0.0000

          k = 0.2719-0.0000-0.1359 (  3612 PWs)   bands (ev):

   -83.0756 -46.6018 -46.6016 -46.6012 -16.4602 -16.2542 -16.2374  -7.0473
    -6.9737  -6.9638  -6.9461  -6.6462   0.1662   0.7596   1.5349   2.0251
     2.4832   2.6667   2.7048   2.7147   2.9210   4.5311   4.5827   4.5883
     4.6961   4.7093   7.5392   9.5542  12.8044  14.2539  15.0783  16.0834

     occupation numbers 
     1.0000   1.0000   1.0000   1.0000   1.0000   1.0000   1.0000   1.0000
     1.0000   1.0000   1.0000   1.0000   1.0000   1.0000   1.0000   1.0000
     1.0000   1.0000   1.0000   1.0000   1.0000   1.0000   1.0000   1.0000
     1.0000   1.0000   1.0000   0.0000   0.0000   0.0000   0.0000   0.0000

          k = 0.2719 0.1359 0.0000 (  3612 PWs)   bands (ev):

   -83.0756 -46.6018 -46.6016 -46.6012 -16.4602 -16.2542 -16.2374  -7.0473
    -6.9737  -6.9638  -6.9461  -6.6462   0.1662   0.7596   1.5349   2.0251
     2.4832   2.6667   2.7048   2.7147   2.9210   4.5311   4.5827   4.5883
     4.6961   4.7093   7.5392   9.5542  12.8044  14.2539  15.0783  16.0834

     occupation numbers 
     1.0000   1.0000   1.0000   1.0000   1.0000   1.0000   1.0000   1.0000
     1.0000   1.0000   1.0000   1.0000   1.0000   1.0000   1.0000   1.0000
     1.0000   1.0000   1.0000   1.0000   1.0000   1.0000   1.0000   1.0000
     1.0000   1.0000   1.0000   0.0000   0.0000   0.0000   0.0000   0.0000

          k = 0.2719 0.1359 0.1359 (  3623 PWs)   bands (ev):

   -83.0757 -46.6020 -46.6017 -46.6015 -16.4302 -16.2500 -16.2362  -7.0678
    -6.9740  -6.9732  -6.9552  -6.7696  -0.2864   1.2478   1.6850   1.9974
     2.3800   2.5370   2.8013   2.8437   2.9697   4.5178   4.5643   4.6160
     4.6917   4.7282   7.8200   9.6951  12.8202  14.1283  14.1571  16.2040

     occupation numbers 
     1.0000   1.0000   1.0000   1.0000   1.0000   1.0000   1.0000   1.0000
     1.0000   1.0000   1.0000   1.0000   1.0000   1.0000   1.0000   1.0000
     1.0000   1.0000   1.0000   1.0000   1.0000   1.0000   1.0000   1.0000
     1.0000   1.0000   1.0000   0.0000   0.0000   0.0000   0.0000   0.0000

          k = 0.2719 0.1359 0.2719 (  3620 PWs)   bands (ev):

   -83.0757 -46.6019 -46.6017 -46.6015 -16.3734 -16.2384 -16.2320  -7.1905
    -6.9932  -6.9732  -6.9731  -6.9285  -0.6698   1.5145   1.9274   2.1065
     2.2854   2.5212   2.8257   2.9263   3.0944   4.5378   4.5753   4.6087
     4.7110   4.7342   8.5546   9.9716  12.3491  13.2902  14.1251  15.6421

     occupation numbers 
     1.0000   1.0000   1.0000   1.0000   1.0000   1.0000   1.0000   1.0000
     1.0000   1.0000   1.0000   1.0000   1.0000   1.0000   1.0000   1.0000
     1.0000   1.0000   1.0000   1.0000   1.0000   1.0000   1.0000   1.0000
     1.0000   1.0000   0.4892   0.0000   0.0000   0.0000   0.0000   0.0000

          k = 0.2719 0.1359-0.4078 (  3606 PWs)   bands (ev):

   -83.0756 -46.6017 -46.6014 -46.6014 -16.3486 -16.2349 -16.2231  -7.2993
    -7.0028  -6.9821  -6.9729  -6.9575  -0.7915   1.5876   1.8907   2.2112
     2.2338   2.6960   2.8065   2.9202   3.1330   4.5526   4.5882   4.6443
     4.6982   4.7220   9.1898   9.8921  12.3160  12.5326  14.5445  15.0790

     occupation numbers 
     1.0000   1.0000   1.0000   1.0000   1.0000   1.0000   1.0000   1.0000
     1.0000   1.0000   1.0000   1.0000   1.0000   1.0000   1.0000   1.0000
     1.0000   1.0000   1.0000   1.0000   1.0000   1.0000   1.0000   1.0000
     1.0000   1.0000   0.0000   0.0000   0.0000   0.0000   0.0000   0.0000

          k = 0.2719 0.1359-0.2719 (  3620 PWs)   bands (ev):

   -83.0757 -46.6019 -46.6017 -46.6015 -16.3734 -16.2384 -16.2320  -7.1905
    -6.9932  -6.9732  -6.9731  -6.9285  -0.6698   1.5145   1.9274   2.1065
     2.2854   2.5212   2.8257   2.9263   3.0944   4.5378   4.5753   4.6087
     4.7110   4.7342   8.5546   9.9716  12.3491  13.2902  14.1251  15.6421

     occupation numbers 
     1.0000   1.0000   1.0000   1.0000   1.0000   1.0000   1.0000   1.0000
     1.0000   1.0000   1.0000   1.0000   1.0000   1.0000   1.0000   1.0000
     1.0000   1.0000   1.0000   1.0000   1.0000   1.0000   1.0000   1.0000
     1.0000   1.0000   0.4892   0.0000   0.0000   0.0000   0.0000   0.0000

          k = 0.2719 0.1359-0.1359 (  3623 PWs)   bands (ev):

   -83.0757 -46.6020 -46.6017 -46.6015 -16.4302 -16.2500 -16.2362  -7.0678
    -6.9740  -6.9732  -6.9552  -6.7696  -0.2864   1.2478   1.6850   1.9974
     2.3800   2.5370   2.8013   2.8437   2.9697   4.5178   4.5643   4.6160
     4.6917   4.7282   7.8200   9.6951  12.8202  14.1283  14.1571  16.2040

     occupation numbers 
     1.0000   1.0000   1.0000   1.0000   1.0000   1.0000   1.0000   1.0000
     1.0000   1.0000   1.0000   1.0000   1.0000   1.0000   1.0000   1.0000
     1.0000   1.0000   1.0000   1.0000   1.0000   1.0000   1.0000   1.0000
     1.0000   1.0000   1.0000   0.0000   0.0000   0.0000   0.0000   0.0000

          k = 0.2719 0.2719 0.0000 (  3604 PWs)   bands (ev):

   -83.0756 -46.6015 -46.6015 -46.6013 -16.4059 -16.2406 -16.2328  -7.1905
    -6.9935  -6.9636  -6.9634  -6.7968  -0.1848   0.8479   1.9053   2.0948
     2.4084   2.6282   2.6287   2.7973   3.0791   4.5380   4.6352   4.6615
     4.7070   4.7156   8.3589   9.8772  12.1337  13.2624  15.1520  15.9322

     occupation numbers 
     1.0000   1.0000   1.0000   1.0000   1.0000   1.0000   1.0000   1.0000
     1.0000   1.0000   1.0000   1.0000   1.0000   1.0000   1.0000   1.0000
     1.0000   1.0000   1.0000   1.0000   1.0000   1.0000   1.0000   1.0000
     1.0000   1.0000   1.0015   0.0000   0.0000   0.0000   0.0000   0.0000

          k = 0.2719 0.2719 0.1359 (  3620 PWs)   bands (ev):

   -83.0757 -46.6019 -46.6017 -46.6015 -16.3734 -16.2384 -16.2320  -7.1905
    -6.9932  -6.9732  -6.9731  -6.9285  -0.6698   1.5145   1.9274   2.1065
     2.2854   2.5212   2.8257   2.9263   3.0944   4.5378   4.5753   4.6087
     4.7110   4.7342   8.5546   9.9716  12.3491  13.2902  14.1252  15.6421

     occupation numbers 
     1.0000   1.0000   1.0000   1.0000   1.0000   1.0000   1.0000   1.0000
     1.0000   1.0000   1.0000   1.0000   1.0000   1.0000   1.0000   1.0000
     1.0000   1.0000   1.0000   1.0000   1.0000   1.0000   1.0000   1.0000
     1.0000   1.0000   0.4892   0.0000   0.0000   0.0000   0.0000   0.0000

          k = 0.2719 0.2719 0.2719 (  3614 PWs)   bands (ev):

   -83.0756 -46.6017 -46.6017 -46.6016 -16.3101 -16.2307 -16.2303  -7.1901
    -7.1901  -6.9928  -6.9918  -6.9918  -1.1296   1.9589   2.1132   2.1142
     2.4385   2.4404   3.0408   3.0413   3.1486   4.5350   4.5370   4.5373
     4.6962   4.6962   8.9951  10.2745  12.9591  12.9606  13.1702  15.0849

     occupation numbers 
     1.0000   1.0000   1.0000   1.0000   1.0000   1.0000   1.0000   1.0000
     1.0000   1.0000   1.0000   1.0000   1.0000   1.0000   1.0000   1.0000
     1.0000   1.0000   1.0000   1.0000   1.0000   1.0000   1.0000   1.0000
     1.0000   1.0000   0.0000   0.0000   0.0000   0.0000   0.0000   0.0000

          k = 0.2719 0.2719-0.4078 (  3608 PWs)   bands (ev):

   -83.0756 -46.6018 -46.6016 -46.6013 -16.2827 -16.2297 -16.2214  -7.3195
    -7.1900  -7.0022  -7.0011  -6.9917  -1.2798   1.9647   2.1081   2.1186
     2.4238   2.8366   3.0418   3.0681   3.1872   4.5142   4.5355   4.5662
     4.6327   4.6809   9.2275  10.5907  12.4196  12.9120  13.8706  13.9204

     occupation numbers 
     1.0000   1.0000   1.0000   1.0000   1.0000   1.0000   1.0000   1.0000
     1.0000   1.0000   1.0000   1.0000   1.0000   1.0000   1.0000   1.0000
     1.0000   1.0000   1.0000   1.0000   1.0000   1.0000   1.0000   1.0000
     1.0000   1.0000   0.0000   0.0000   0.0000   0.0000   0.0000   0.0000

          k = 0.2719 0.2719-0.2719 (  3614 PWs)   bands (ev):

   -83.0756 -46.6017 -46.6017 -46.6016 -16.3101 -16.2305 -16.2305  -7.1901
    -7.1901  -6.9928  -6.9918  -6.9918  -1.1296   1.9589   2.1137   2.1137
     2.4394   2.4394   3.0411   3.0411   3.1486   4.5350   4.5372   4.5372
     4.6962   4.6962   8.9951  10.2745  12.9598  12.9598  13.1702  15.0875

     occupation numbers 
     1.0000   1.0000   1.0000   1.0000   1.0000   1.0000   1.0000   1.0000
     1.0000   1.0000   1.0000   1.0000   1.0000   1.0000   1.0000   1.0000
     1.0000   1.0000   1.0000   1.0000   1.0000   1.0000   1.0000   1.0000
     1.0000   1.0000   0.0000   0.0000   0.0000   0.0000   0.0000   0.0000

          k = 0.2719 0.2719-0.1359 (  3620 PWs)   bands (ev):

   -83.0757 -46.6019 -46.6017 -46.6015 -16.3734 -16.2384 -16.2320  -7.1905
    -6.9932  -6.9732  -6.9731  -6.9285  -0.6698   1.5145   1.9274   2.1065
     2.2854   2.5212   2.8257   2.9263   3.0944   4.5378   4.5753   4.6087
     4.7110   4.7342   8.5546   9.9716  12.3491  13.2902  14.1252  15.6421

     occupation numbers 
     1.0000   1.0000   1.0000   1.0000   1.0000   1.0000   1.0000   1.0000
     1.0000   1.0000   1.0000   1.0000   1.0000   1.0000   1.0000   1.0000
     1.0000   1.0000   1.0000   1.0000   1.0000   1.0000   1.0000   1.0000
     1.0000   1.0000   0.4892   0.0000   0.0000   0.0000   0.0000   0.0000

          k = 0.2719-0.4078-0.0000 (  3604 PWs)   bands (ev):

   -83.0756 -46.6017 -46.6015 -46.6012 -16.3819 -16.2362 -16.2240  -7.2970
    -7.0032  -6.9721  -6.9634  -6.8334  -0.2927   0.8935   1.8496   2.2864
     2.3792   2.5941   2.6070   2.8724   3.1136   4.5624   4.6194   4.6747
     4.7124   4.7698   9.1629   9.6567  12.2486  12.3259  15.2245  15.9529

     occupation numbers 
     1.0000   1.0000   1.0000   1.0000   1.0000   1.0000   1.0000   1.0000
     1.0000   1.0000   1.0000   1.0000   1.0000   1.0000   1.0000   1.0000
     1.0000   1.0000   1.0000   1.0000   1.0000   1.0000   1.0000   1.0000
     1.0000   1.0000   0.0000   0.0000   0.0000   0.0000   0.0000   0.0000

          k = 0.2719-0.4078 0.1359 (  3606 PWs)   bands (ev):

   -83.0756 -46.6017 -46.6014 -46.6014 -16.3486 -16.2349 -16.2231  -7.2993
    -7.0028  -6.9820  -6.9729  -6.9575  -0.7915   1.5876   1.8907   2.2112
     2.2338   2.6960   2.8065   2.9202   3.1330   4.5526   4.5882   4.6443
     4.6982   4.7220   9.1898   9.8920  12.3160  12.5326  14.5445  15.0790

     occupation numbers 
     1.0000   1.0000   1.0000   1.0000   1.0000   1.0000   1.0000   1.0000
     1.0000   1.0000   1.0000   1.0000   1.0000   1.0000   1.0000   1.0000
     1.0000   1.0000   1.0000   1.0000   1.0000   1.0000   1.0000   1.0000
     1.0000   1.0000   0.0000   0.0000   0.0000   0.0000   0.0000   0.0000

          k = 0.2719-0.4078 0.2719 (  3608 PWs)   bands (ev):

   -83.0756 -46.6018 -46.6016 -46.6013 -16.2827 -16.2297 -16.2214  -7.3195
    -7.1900  -7.0022  -7.0011  -6.9917  -1.2798   1.9647   2.1081   2.1186
     2.4238   2.8366   3.0418   3.0681   3.1872   4.5142   4.5355   4.5662
     4.6327   4.6809   9.2275  10.5907  12.4196  12.9120  13.8706  13.9204

     occupation numbers 
     1.0000   1.0000   1.0000   1.0000   1.0000   1.0000   1.0000   1.0000
     1.0000   1.0000   1.0000   1.0000   1.0000   1.0000   1.0000   1.0000
     1.0000   1.0000   1.0000   1.0000   1.0000   1.0000   1.0000   1.0000
     1.0000   1.0000   0.0000   0.0000   0.0000   0.0000   0.0000   0.0000

          k = 0.2719-0.4078-0.4078 (  3612 PWs)   bands (ev):

   -83.0756 -46.6019 -46.6015 -46.6015 -16.2556 -16.2205 -16.2205  -7.3786
    -7.2567  -7.0113  -7.0012  -7.0012  -1.4409   1.9808   2.0879   2.0879
     2.6381   3.0411   3.1150   3.1150   3.2415   4.4590   4.5310   4.5310
     4.6213   4.6428   9.2377  11.3392  12.3998  12.3998  13.9150  14.0670

     occupation numbers 
     1.0000   1.0000   1.0000   1.0000   1.0000   1.0000   1.0000   1.0000
     1.0000   1.0000   1.0000   1.0000   1.0000   1.0000   1.0000   1.0000
     1.0000   1.0000   1.0000   1.0000   1.0000   1.0000   1.0000   1.0000
     1.0000   1.0000   0.0000   0.0000   0.0000   0.0000   0.0000   0.0000

          k = 0.2719-0.4078-0.2719 (  3608 PWs)   bands (ev):

   -83.0756 -46.6018 -46.6016 -46.6013 -16.2827 -16.2297 -16.2214  -7.3195
    -7.1900  -7.0022  -7.0011  -6.9917  -1.2798   1.9647   2.1081   2.1186
     2.4238   2.8366   3.0418   3.0681   3.1872   4.5142   4.5355   4.5662
     4.6327   4.6809   9.2275  10.5907  12.4196  12.9120  13.8706  13.9204

     occupation numbers 
     1.0000   1.0000   1.0000   1.0000   1.0000   1.0000   1.0000   1.0000
     1.0000   1.0000   1.0000   1.0000   1.0000   1.0000   1.0000   1.0000
     1.0000   1.0000   1.0000   1.0000   1.0000   1.0000   1.0000   1.0000
     1.0000   1.0000   0.0000   0.0000   0.0000   0.0000   0.0000   0.0000

          k = 0.2719-0.4078-0.1359 (  3606 PWs)   bands (ev):

   -83.0756 -46.6017 -46.6014 -46.6014 -16.3486 -16.2349 -16.2231  -7.2993
    -7.0028  -6.9820  -6.9729  -6.9575  -0.7915   1.5876   1.8907   2.2112
     2.2338   2.6960   2.8065   2.9202   3.1330   4.5526   4.5882   4.6443
     4.6982   4.7220   9.1898   9.8920  12.3160  12.5326  14.5445  15.0790

     occupation numbers 
     1.0000   1.0000   1.0000   1.0000   1.0000   1.0000   1.0000   1.0000
     1.0000   1.0000   1.0000   1.0000   1.0000   1.0000   1.0000   1.0000
     1.0000   1.0000   1.0000   1.0000   1.0000   1.0000   1.0000   1.0000
     1.0000   1.0000   0.0000   0.0000   0.0000   0.0000   0.0000   0.0000

          k = 0.2719-0.2719-0.0000 (  3604 PWs)   bands (ev):

   -83.0756 -46.6015 -46.6015 -46.6013 -16.4059 -16.2406 -16.2328  -7.1905
    -6.9935  -6.9636  -6.9634  -6.7968  -0.1848   0.8479   1.9053   2.0948
     2.4084   2.6282   2.6287   2.7973   3.0791   4.5380   4.6352   4.6615
     4.7070   4.7156   8.3589   9.8772  12.1337  13.2624  15.1520  15.9322

     occupation numbers 
     1.0000   1.0000   1.0000   1.0000   1.0000   1.0000   1.0000   1.0000
     1.0000   1.0000   1.0000   1.0000   1.0000   1.0000   1.0000   1.0000
     1.0000   1.0000   1.0000   1.0000   1.0000   1.0000   1.0000   1.0000
     1.0000   1.0000   1.0015   0.0000   0.0000   0.0000   0.0000   0.0000

          k = 0.2719-0.2719 0.1359 (  3620 PWs)   bands (ev):

   -83.0757 -46.6019 -46.6017 -46.6015 -16.3734 -16.2384 -16.2320  -7.1905
    -6.9932  -6.9732  -6.9731  -6.9285  -0.6698   1.5145   1.9274   2.1065
     2.2854   2.5212   2.8257   2.9263   3.0944   4.5378   4.5753   4.6087
     4.7110   4.7342   8.5546   9.9716  12.3491  13.2902  14.1252  15.6421

     occupation numbers 
     1.0000   1.0000   1.0000   1.0000   1.0000   1.0000   1.0000   1.0000
     1.0000   1.0000   1.0000   1.0000   1.0000   1.0000   1.0000   1.0000
     1.0000   1.0000   1.0000   1.0000   1.0000   1.0000   1.0000   1.0000
     1.0000   1.0000   0.4892   0.0000   0.0000   0.0000   0.0000   0.0000

          k = 0.2719-0.2719 0.2719 (  3614 PWs)   bands (ev):

   -83.0756 -46.6017 -46.6017 -46.6016 -16.3101 -16.2306 -16.2304  -7.1901
    -7.1901  -6.9928  -6.9918  -6.9918  -1.1296   1.9589   2.1135   2.1139
     2.4391   2.4398   3.0410   3.0411   3.1486   4.5350   4.5371   4.5372
     4.6962   4.6962   8.9951  10.2745  12.9596  12.9601  13.1702  15.0872

     occupation numbers 
     1.0000   1.0000   1.0000   1.0000   1.0000   1.0000   1.0000   1.0000
     1.0000   1.0000   1.0000   1.0000   1.0000   1.0000   1.0000   1.0000
     1.0000   1.0000   1.0000   1.0000   1.0000   1.0000   1.0000   1.0000
     1.0000   1.0000   0.0000   0.0000   0.0000   0.0000   0.0000   0.0000

          k = 0.2719-0.2719-0.4078 (  3608 PWs)   bands (ev):

   -83.0756 -46.6018 -46.6016 -46.6013 -16.2827 -16.2297 -16.2214  -7.3195
    -7.1900  -7.0022  -7.0011  -6.9917  -1.2798   1.9647   2.1081   2.1186
     2.4238   2.8366   3.0418   3.0681   3.1872   4.5142   4.5355   4.5662
     4.6327   4.6809   9.2275  10.5907  12.4196  12.9120  13.8706  13.9204

     occupation numbers 
     1.0000   1.0000   1.0000   1.0000   1.0000   1.0000   1.0000   1.0000
     1.0000   1.0000   1.0000   1.0000   1.0000   1.0000   1.0000   1.0000
     1.0000   1.0000   1.0000   1.0000   1.0000   1.0000   1.0000   1.0000
     1.0000   1.0000   0.0000   0.0000   0.0000   0.0000   0.0000   0.0000

          k = 0.2719-0.2719-0.2719 (  3614 PWs)   bands (ev):

   -83.0756 -46.6017 -46.6017 -46.6016 -16.3101 -16.2306 -16.2304  -7.1901
    -7.1901  -6.9928  -6.9918  -6.9918  -1.1296   1.9589   2.1134   2.1140
     2.4388   2.4401   3.0409   3.0412   3.1486   4.5350   4.5371   4.5372
     4.6962   4.6962   8.9951  10.2745  12.9593  12.9603  13.1702  15.0858

     occupation numbers 
     1.0000   1.0000   1.0000   1.0000   1.0000   1.0000   1.0000   1.0000
     1.0000   1.0000   1.0000   1.0000   1.0000   1.0000   1.0000   1.0000
     1.0000   1.0000   1.0000   1.0000   1.0000   1.0000   1.0000   1.0000
     1.0000   1.0000   0.0000   0.0000   0.0000   0.0000   0.0000   0.0000

          k = 0.2719-0.2719-0.1359 (  3620 PWs)   bands (ev):

   -83.0757 -46.6019 -46.6017 -46.6015 -16.3734 -16.2384 -16.2320  -7.1905
    -6.9932  -6.9732  -6.9731  -6.9285  -0.6698   1.5145   1.9274   2.1065
     2.2854   2.5212   2.8257   2.9263   3.0944   4.5378   4.5753   4.6087
     4.7110   4.7342   8.5546   9.9716  12.3491  13.2902  14.1252  15.6421

     occupation numbers 
     1.0000   1.0000   1.0000   1.0000   1.0000   1.0000   1.0000   1.0000
     1.0000   1.0000   1.0000   1.0000   1.0000   1.0000   1.0000   1.0000
     1.0000   1.0000   1.0000   1.0000   1.0000   1.0000   1.0000   1.0000
     1.0000   1.0000   0.4892   0.0000   0.0000   0.0000   0.0000   0.0000

          k = 0.2719-0.1359 0.0000 (  3612 PWs)   bands (ev):

   -83.0756 -46.6018 -46.6016 -46.6012 -16.4602 -16.2542 -16.2374  -7.0473
    -6.9737  -6.9638  -6.9461  -6.6462   0.1662   0.7596   1.5349   2.0251
     2.4832   2.6667   2.7048   2.7147   2.9210   4.5311   4.5827   4.5883
     4.6961   4.7093   7.5392   9.5542  12.8044  14.2539  15.0783  16.0834

     occupation numbers 
     1.0000   1.0000   1.0000   1.0000   1.0000   1.0000   1.0000   1.0000
     1.0000   1.0000   1.0000   1.0000   1.0000   1.0000   1.0000   1.0000
     1.0000   1.0000   1.0000   1.0000   1.0000   1.0000   1.0000   1.0000
     1.0000   1.0000   1.0000   0.0000   0.0000   0.0000   0.0000   0.0000

          k = 0.2719-0.1359 0.1359 (  3623 PWs)   bands (ev):

   -83.0757 -46.6020 -46.6017 -46.6015 -16.4302 -16.2500 -16.2362  -7.0678
    -6.9740  -6.9732  -6.9552  -6.7696  -0.2864   1.2478   1.6850   1.9974
     2.3800   2.5370   2.8013   2.8437   2.9697   4.5178   4.5643   4.6160
     4.6917   4.7282   7.8200   9.6951  12.8202  14.1283  14.1571  16.2040

     occupation numbers 
     1.0000   1.0000   1.0000   1.0000   1.0000   1.0000   1.0000   1.0000
     1.0000   1.0000   1.0000   1.0000   1.0000   1.0000   1.0000   1.0000
     1.0000   1.0000   1.0000   1.0000   1.0000   1.0000   1.0000   1.0000
     1.0000   1.0000   1.0000   0.0000   0.0000   0.0000   0.0000   0.0000

          k = 0.2719-0.1359 0.2719 (  3620 PWs)   bands (ev):

   -83.0757 -46.6019 -46.6017 -46.6015 -16.3734 -16.2384 -16.2320  -7.1905
    -6.9932  -6.9732  -6.9731  -6.9285  -0.6698   1.5145   1.9274   2.1065
     2.2854   2.5212   2.8257   2.9263   3.0944   4.5378   4.5753   4.6087
     4.7110   4.7342   8.5546   9.9716  12.3491  13.2902  14.1251  15.6421

     occupation numbers 
     1.0000   1.0000   1.0000   1.0000   1.0000   1.0000   1.0000   1.0000
     1.0000   1.0000   1.0000   1.0000   1.0000   1.0000   1.0000   1.0000
     1.0000   1.0000   1.0000   1.0000   1.0000   1.0000   1.0000   1.0000
     1.0000   1.0000   0.4892   0.0000   0.0000   0.0000   0.0000   0.0000

          k = 0.2719-0.1359-0.4078 (  3606 PWs)   bands (ev):

   -83.0756 -46.6017 -46.6014 -46.6014 -16.3486 -16.2349 -16.2231  -7.2993
    -7.0028  -6.9821  -6.9729  -6.9575  -0.7915   1.5876   1.8907   2.2112
     2.2338   2.6960   2.8065   2.9202   3.1330   4.5526   4.5882   4.6443
     4.6982   4.7220   9.1898   9.8921  12.3160  12.5326  14.5445  15.0790

     occupation numbers 
     1.0000   1.0000   1.0000   1.0000   1.0000   1.0000   1.0000   1.0000
     1.0000   1.0000   1.0000   1.0000   1.0000   1.0000   1.0000   1.0000
     1.0000   1.0000   1.0000   1.0000   1.0000   1.0000   1.0000   1.0000
     1.0000   1.0000   0.0000   0.0000   0.0000   0.0000   0.0000   0.0000

          k = 0.2719-0.1359-0.2719 (  3620 PWs)   bands (ev):

   -83.0757 -46.6019 -46.6017 -46.6015 -16.3734 -16.2384 -16.2320  -7.1905
    -6.9932  -6.9732  -6.9731  -6.9285  -0.6698   1.5145   1.9274   2.1065
     2.2854   2.5212   2.8257   2.9263   3.0944   4.5378   4.5753   4.6087
     4.7110   4.7342   8.5546   9.9716  12.3491  13.2902  14.1251  15.6421

     occupation numbers 
     1.0000   1.0000   1.0000   1.0000   1.0000   1.0000   1.0000   1.0000
     1.0000   1.0000   1.0000   1.0000   1.0000   1.0000   1.0000   1.0000
     1.0000   1.0000   1.0000   1.0000   1.0000   1.0000   1.0000   1.0000
     1.0000   1.0000   0.4892   0.0000   0.0000   0.0000   0.0000   0.0000

          k = 0.2719-0.1359-0.1359 (  3623 PWs)   bands (ev):

   -83.0757 -46.6020 -46.6017 -46.6015 -16.4302 -16.2500 -16.2362  -7.0678
    -6.9740  -6.9732  -6.9552  -6.7696  -0.2864   1.2478   1.6850   1.9974
     2.3800   2.5370   2.8013   2.8437   2.9697   4.5178   4.5643   4.6160
     4.6917   4.7282   7.8200   9.6951  12.8202  14.1283  14.1571  16.2040

     occupation numbers 
     1.0000   1.0000   1.0000   1.0000   1.0000   1.0000   1.0000   1.0000
     1.0000   1.0000   1.0000   1.0000   1.0000   1.0000   1.0000   1.0000
     1.0000   1.0000   1.0000   1.0000   1.0000   1.0000   1.0000   1.0000
     1.0000   1.0000   1.0000   0.0000   0.0000   0.0000   0.0000   0.0000

          k =-0.4078-0.0000-0.0000 (  3588 PWs)   bands (ev):

   -83.0756 -46.6012 -46.6012 -46.6011 -16.4637 -16.2586 -16.2280  -7.1635
    -6.9723  -6.9723  -6.9367  -6.5303   0.7512   0.7512   0.9512   1.9054
     2.5417   2.6574   2.6574   2.7307   2.7307   4.5249   4.5369   4.6637
     4.7666   4.7666   8.4772   8.6666  12.9393  15.2452  15.2452  16.3193

     occupation numbers 
     1.0000   1.0000   1.0000   1.0000   1.0000   1.0000   1.0000   1.0000
     1.0000   1.0000   1.0000   1.0000   1.0000   1.0000   1.0000   1.0000
     1.0000   1.0000   1.0000   1.0000   1.0000   1.0000   1.0000   1.0000
     1.0000   1.0000   1.0769   0.0036   0.0000   0.0000   0.0000   0.0000

          k =-0.4078-0.0000 0.1359 (  3614 PWs)   bands (ev):

   -83.0756 -46.6019 -46.6016 -46.6012 -16.4349 -16.2533 -16.2267  -7.1924
    -6.9829  -6.9723  -6.9460  -6.6494   0.1195   0.7973   1.7264   1.8997
     2.4184   2.6376   2.6869   2.6920   2.9129   4.5733   4.5894   4.6594
     4.6945   4.7676   8.7873   8.7970  12.8741  13.7849  15.2388  16.1945

     occupation numbers 
     1.0000   1.0000   1.0000   1.0000   1.0000   1.0000   1.0000   1.0000
     1.0000   1.0000   1.0000   1.0000   1.0000   1.0000   1.0000   1.0000
     1.0000   1.0000   1.0000   1.0000   1.0000   1.0000   1.0000   1.0000
     1.0000   1.0000   0.0000   0.0000   0.0000   0.0000   0.0000   0.0000

          k =-0.4078 0.0000 0.2719 (  3604 PWs)   bands (ev):

   -83.0756 -46.6017 -46.6015 -46.6012 -16.3819 -16.2362 -16.2240  -7.2970
    -7.0032  -6.9721  -6.9634  -6.8334  -0.2927   0.8935   1.8496   2.2864
     2.3792   2.5941   2.6070   2.8724   3.1136   4.5624   4.6194   4.6747
     4.7124   4.7698   9.1629   9.6567  12.2486  12.3259  15.2245  15.9529

     occupation numbers 
     1.0000   1.0000   1.0000   1.0000   1.0000   1.0000   1.0000   1.0000
     1.0000   1.0000   1.0000   1.0000   1.0000   1.0000   1.0000   1.0000
     1.0000   1.0000   1.0000   1.0000   1.0000   1.0000   1.0000   1.0000
     1.0000   1.0000   0.0000   0.0000   0.0000   0.0000   0.0000   0.0000

          k =-0.4078-0.0000-0.4078 (  3628 PWs)   bands (ev):

   -83.0757 -46.6020 -46.6019 -46.6019 -16.3596 -16.2228 -16.2228  -7.3791
    -7.0137  -6.9723  -6.9723  -6.8925  -0.4203   0.9439   1.8121   2.3965
     2.3965   2.5701   2.5701   3.0383   3.1913   4.5015   4.6180   4.7051
     4.7709   4.7709   9.4647  10.5386  11.5265  11.5265  15.2164  15.8360

     occupation numbers 
     1.0000   1.0000   1.0000   1.0000   1.0000   1.0000   1.0000   1.0000
     1.0000   1.0000   1.0000   1.0000   1.0000   1.0000   1.0000   1.0000
     1.0000   1.0000   1.0000   1.0000   1.0000   1.0000   1.0000   1.0000
     1.0000   1.0000   0.0000   0.0000   0.0000   0.0000   0.0000   0.0000

          k =-0.4078 0.1359-0.0000 (  3614 PWs)   bands (ev):

   -83.0756 -46.6019 -46.6016 -46.6012 -16.4349 -16.2533 -16.2267  -7.1924
    -6.9829  -6.9723  -6.9460  -6.6494   0.1195   0.7973   1.7263   1.8998
     2.4184   2.6376   2.6869   2.6920   2.9129   4.5733   4.5894   4.6594
     4.6945   4.7676   8.7873   8.7970  12.8741  13.7849  15.2388  16.1939

     occupation numbers 
     1.0000   1.0000   1.0000   1.0000   1.0000   1.0000   1.0000   1.0000
     1.0000   1.0000   1.0000   1.0000   1.0000   1.0000   1.0000   1.0000
     1.0000   1.0000   1.0000   1.0000   1.0000   1.0000   1.0000   1.0000
     1.0000   1.0000   0.0000   0.0000   0.0000   0.0000   0.0000   0.0000

          k =-0.4078 0.1359 0.1359 (  3608 PWs)   bands (ev):

   -83.0756 -46.6016 -46.6015 -46.6012 -16.4047 -16.2492 -16.2255  -7.2123
    -6.9831  -6.9820  -6.9549  -6.7693  -0.3674   1.2908   1.9081   1.9092
     2.3089   2.5788   2.7765   2.7854   2.9728   4.5406   4.6539   4.6708
     4.6754   4.7139   8.9068   9.0734  12.9123  13.4003  14.6056  15.4525

     occupation numbers 
     1.0000   1.0000   1.0000   1.0000   1.0000   1.0000   1.0000   1.0000
     1.0000   1.0000   1.0000   1.0000   1.0000   1.0000   1.0000   1.0000
     1.0000   1.0000   1.0000   1.0000   1.0000   1.0000   1.0000   1.0000
     1.0000   1.0000   0.0000   0.0000   0.0000   0.0000   0.0000   0.0000

          k =-0.4078 0.1359 0.2719 (  3606 PWs)   bands (ev):

   -83.0756 -46.6017 -46.6014 -46.6014 -16.3486 -16.2349 -16.2231  -7.2993
    -7.0028  -6.9820  -6.9729  -6.9575  -0.7915   1.5876   1.8907   2.2112
     2.2338   2.6960   2.8065   2.9202   3.1330   4.5526   4.5882   4.6443
     4.6982   4.7220   9.1898   9.8920  12.3160  12.5326  14.5445  15.0790

     occupation numbers 
     1.0000   1.0000   1.0000   1.0000   1.0000   1.0000   1.0000   1.0000
     1.0000   1.0000   1.0000   1.0000   1.0000   1.0000   1.0000   1.0000
     1.0000   1.0000   1.0000   1.0000   1.0000   1.0000   1.0000   1.0000
     1.0000   1.0000   0.0000   0.0000   0.0000   0.0000   0.0000   0.0000

          k =-0.4078 0.1359-0.4078 (  3616 PWs)   bands (ev):

   -83.0756 -46.6020 -46.6016 -46.6016 -16.3255 -16.2220 -16.2220  -7.3789
    -7.0135  -7.0128  -6.9819  -6.9819  -0.9275   1.6730   1.8667   2.2282
     2.2282   2.8109   2.8110   3.0393   3.2075   4.4899   4.6198   4.6848
     4.6956   4.6956   9.3918  10.7360  11.7594  11.7594  14.6810  15.2644

     occupation numbers 
     1.0000   1.0000   1.0000   1.0000   1.0000   1.0000   1.0000   1.0000
     1.0000   1.0000   1.0000   1.0000   1.0000   1.0000   1.0000   1.0000
     1.0000   1.0000   1.0000   1.0000   1.0000   1.0000   1.0000   1.0000
     1.0000   1.0000   0.0000   0.0000   0.0000   0.0000   0.0000   0.0000

          k =-0.4078 0.1359-0.2719 (  3606 PWs)   bands (ev):

   -83.0756 -46.6017 -46.6014 -46.6014 -16.3486 -16.2349 -16.2231  -7.2993
    -7.0028  -6.9820  -6.9729  -6.9575  -0.7915   1.5876   1.8907   2.2112
     2.2338   2.6960   2.8065   2.9202   3.1330   4.5526   4.5882   4.6443
     4.6982   4.7220   9.1898   9.8920  12.3160  12.5326  14.5445  15.0790

     occupation numbers 
     1.0000   1.0000   1.0000   1.0000   1.0000   1.0000   1.0000   1.0000
     1.0000   1.0000   1.0000   1.0000   1.0000   1.0000   1.0000   1.0000
     1.0000   1.0000   1.0000   1.0000   1.0000   1.0000   1.0000   1.0000
     1.0000   1.0000   0.0000   0.0000   0.0000   0.0000   0.0000   0.0000

          k =-0.4078 0.1359-0.1359 (  3608 PWs)   bands (ev):

   -83.0756 -46.6016 -46.6015 -46.6012 -16.4047 -16.2492 -16.2255  -7.2123
    -6.9831  -6.9820  -6.9549  -6.7693  -0.3674   1.2908   1.9081   1.9092
     2.3089   2.5788   2.7765   2.7854   2.9728   4.5406   4.6539   4.6708
     4.6754   4.7139   8.9068   9.0734  12.9123  13.4003  14.6056  15.4525

     occupation numbers 
     1.0000   1.0000   1.0000   1.0000   1.0000   1.0000   1.0000   1.0000
     1.0000   1.0000   1.0000   1.0000   1.0000   1.0000   1.0000   1.0000
     1.0000   1.0000   1.0000   1.0000   1.0000   1.0000   1.0000   1.0000
     1.0000   1.0000   0.0000   0.0000   0.0000   0.0000   0.0000   0.0000

          k =-0.4078 0.2719 0.0000 (  3604 PWs)   bands (ev):

   -83.0756 -46.6017 -46.6015 -46.6012 -16.3819 -16.2362 -16.2240  -7.2970
    -7.0032  -6.9721  -6.9634  -6.8334  -0.2927   0.8935   1.8496   2.2864
     2.3792   2.5941   2.6070   2.8724   3.1136   4.5624   4.6194   4.6747
     4.7124   4.7698   9.1629   9.6567  12.2486  12.3259  15.2245  15.9529

     occupation numbers 
     1.0000   1.0000   1.0000   1.0000   1.0000   1.0000   1.0000   1.0000
     1.0000   1.0000   1.0000   1.0000   1.0000   1.0000   1.0000   1.0000
     1.0000   1.0000   1.0000   1.0000   1.0000   1.0000   1.0000   1.0000
     1.0000   1.0000   0.0000   0.0000   0.0000   0.0000   0.0000   0.0000

          k =-0.4078 0.2719 0.1359 (  3606 PWs)   bands (ev):

   -83.0756 -46.6017 -46.6014 -46.6014 -16.3486 -16.2349 -16.2231  -7.2993
    -7.0028  -6.9820  -6.9729  -6.9575  -0.7915   1.5876   1.8907   2.2112
     2.2338   2.6960   2.8065   2.9202   3.1330   4.5526   4.5882   4.6443
     4.6982   4.7220   9.1898   9.8920  12.3160  12.5326  14.5445  15.0790

     occupation numbers 
     1.0000   1.0000   1.0000   1.0000   1.0000   1.0000   1.0000   1.0000
     1.0000   1.0000   1.0000   1.0000   1.0000   1.0000   1.0000   1.0000
     1.0000   1.0000   1.0000   1.0000   1.0000   1.0000   1.0000   1.0000
     1.0000   1.0000   0.0000   0.0000   0.0000   0.0000   0.0000   0.0000

          k =-0.4078 0.2719 0.2719 (  3608 PWs)   bands (ev):

   -83.0756 -46.6018 -46.6016 -46.6013 -16.2827 -16.2297 -16.2214  -7.3195
    -7.1900  -7.0022  -7.0011  -6.9917  -1.2798   1.9647   2.1081   2.1186
     2.4238   2.8366   3.0418   3.0681   3.1872   4.5142   4.5355   4.5662
     4.6327   4.6809   9.2275  10.5907  12.4196  12.9120  13.8706  13.9204

     occupation numbers 
     1.0000   1.0000   1.0000   1.0000   1.0000   1.0000   1.0000   1.0000
     1.0000   1.0000   1.0000   1.0000   1.0000   1.0000   1.0000   1.0000
     1.0000   1.0000   1.0000   1.0000   1.0000   1.0000   1.0000   1.0000
     1.0000   1.0000   0.0000   0.0000   0.0000   0.0000   0.0000   0.0000

          k =-0.4078 0.2719-0.4078 (  3612 PWs)   bands (ev):

   -83.0756 -46.6019 -46.6015 -46.6015 -16.2556 -16.2205 -16.2205  -7.3786
    -7.2567  -7.0113  -7.0012  -7.0012  -1.4409   1.9808   2.0879   2.0879
     2.6381   3.0411   3.1150   3.1150   3.2415   4.4590   4.5310   4.5310
     4.6213   4.6428   9.2377  11.3392  12.3998  12.3998  13.9150  14.0670

     occupation numbers 
     1.0000   1.0000   1.0000   1.0000   1.0000   1.0000   1.0000   1.0000
     1.0000   1.0000   1.0000   1.0000   1.0000   1.0000   1.0000   1.0000
     1.0000   1.0000   1.0000   1.0000   1.0000   1.0000   1.0000   1.0000
     1.0000   1.0000   0.0000   0.0000   0.0000   0.0000   0.0000   0.0000

          k =-0.4078 0.2719-0.2719 (  3608 PWs)   bands (ev):

   -83.0756 -46.6018 -46.6016 -46.6013 -16.2827 -16.2297 -16.2214  -7.3195
    -7.1900  -7.0022  -7.0011  -6.9917  -1.2798   1.9647   2.1081   2.1186
     2.4238   2.8366   3.0418   3.0681   3.1872   4.5142   4.5355   4.5662
     4.6327   4.6809   9.2275  10.5907  12.4196  12.9120  13.8706  13.9204

     occupation numbers 
     1.0000   1.0000   1.0000   1.0000   1.0000   1.0000   1.0000   1.0000
     1.0000   1.0000   1.0000   1.0000   1.0000   1.0000   1.0000   1.0000
     1.0000   1.0000   1.0000   1.0000   1.0000   1.0000   1.0000   1.0000
     1.0000   1.0000   0.0000   0.0000   0.0000   0.0000   0.0000   0.0000

          k =-0.4078 0.2719-0.1359 (  3606 PWs)   bands (ev):

   -83.0756 -46.6017 -46.6014 -46.6014 -16.3486 -16.2349 -16.2231  -7.2993
    -7.0028  -6.9820  -6.9729  -6.9575  -0.7915   1.5876   1.8907   2.2112
     2.2338   2.6960   2.8065   2.9202   3.1330   4.5526   4.5882   4.6443
     4.6982   4.7220   9.1898   9.8920  12.3160  12.5326  14.5445  15.0790

     occupation numbers 
     1.0000   1.0000   1.0000   1.0000   1.0000   1.0000   1.0000   1.0000
     1.0000   1.0000   1.0000   1.0000   1.0000   1.0000   1.0000   1.0000
     1.0000   1.0000   1.0000   1.0000   1.0000   1.0000   1.0000   1.0000
     1.0000   1.0000   0.0000   0.0000   0.0000   0.0000   0.0000   0.0000

          k =-0.4078-0.4078-0.0000 (  3628 PWs)   bands (ev):

   -83.0757 -46.6020 -46.6019 -46.6019 -16.3596 -16.2228 -16.2228  -7.3791
    -7.0137  -6.9723  -6.9723  -6.8925  -0.4203   0.9439   1.8122   2.3965
     2.3965   2.5701   2.5701   3.0383   3.1913   4.5015   4.6180   4.7051
     4.7709   4.7709   9.4647  10.5386  11.5265  11.5265  15.2164  15.8360

     occupation numbers 
     1.0000   1.0000   1.0000   1.0000   1.0000   1.0000   1.0000   1.0000
     1.0000   1.0000   1.0000   1.0000   1.0000   1.0000   1.0000   1.0000
     1.0000   1.0000   1.0000   1.0000   1.0000   1.0000   1.0000   1.0000
     1.0000   1.0000   0.0000   0.0000   0.0000   0.0000   0.0000   0.0000

          k =-0.4078-0.4078 0.1359 (  3616 PWs)   bands (ev):

   -83.0756 -46.6020 -46.6016 -46.6016 -16.3255 -16.2220 -16.2220  -7.3789
    -7.0135  -7.0128  -6.9819  -6.9819  -0.9275   1.6730   1.8667   2.2282
     2.2282   2.8109   2.8109   3.0393   3.2076   4.4899   4.6198   4.6848
     4.6956   4.6956   9.3918  10.7360  11.7594  11.7594  14.6810  15.2644

     occupation numbers 
     1.0000   1.0000   1.0000   1.0000   1.0000   1.0000   1.0000   1.0000
     1.0000   1.0000   1.0000   1.0000   1.0000   1.0000   1.0000   1.0000
     1.0000   1.0000   1.0000   1.0000   1.0000   1.0000   1.0000   1.0000
     1.0000   1.0000   0.0000   0.0000   0.0000   0.0000   0.0000   0.0000

          k =-0.4078-0.4078 0.2719 (  3612 PWs)   bands (ev):

   -83.0756 -46.6019 -46.6015 -46.6015 -16.2556 -16.2205 -16.2205  -7.3786
    -7.2567  -7.0113  -7.0012  -7.0012  -1.4409   1.9809   2.0879   2.0879
     2.6382   3.0411   3.1150   3.1150   3.2415   4.4590   4.5310   4.5310
     4.6213   4.6428   9.2377  11.3392  12.3998  12.3998  13.9150  14.0671

     occupation numbers 
     1.0000   1.0000   1.0000   1.0000   1.0000   1.0000   1.0000   1.0000
     1.0000   1.0000   1.0000   1.0000   1.0000   1.0000   1.0000   1.0000
     1.0000   1.0000   1.0000   1.0000   1.0000   1.0000   1.0000   1.0000
     1.0000   1.0000   0.0000   0.0000   0.0000   0.0000   0.0000   0.0000

          k =-0.4078-0.4078-0.4078 (  3544 PWs)   bands (ev):

   -83.0756 -46.6005 -46.6005 -46.6005 -16.2196 -16.2196 -16.2196  -7.3780
    -7.3780  -7.0103  -7.0103  -7.0103  -1.6122   2.0409   2.0409   2.0409
     3.0421   3.0421   3.2593   3.2593   3.2593   4.4363   4.4363   4.4363
     4.6214   4.6214   9.1562  11.9886  13.1676  13.1676  13.1676  13.6147

     occupation numbers 
     1.0000   1.0000   1.0000   1.0000   1.0000   1.0000   1.0000   1.0000
     1.0000   1.0000   1.0000   1.0000   1.0000   1.0000   1.0000   1.0000
     1.0000   1.0000   1.0000   1.0000   1.0000   1.0000   1.0000   1.0000
     1.0000   1.0000   0.0000   0.0000   0.0000   0.0000   0.0000   0.0000

     the Fermi energy is     8.5630 ev

!    total energy              =   -1146.37304017 Ry
     total all-electron energy =    -22995.175180 Ry
     estimated scf accuracy    <          7.3E-13 Ry
     smearing contrib. (-TS)   =      -0.00015953 Ry
     internal energy E=F+TS    =   -1146.37288064 Ry

     The total energy is F=E-TS. E is the sum of the following terms:
     one-electron contribution =    -271.32158144 Ry
     hartree contribution      =     168.45294019 Ry
     xc contribution           =    -123.88315765 Ry
     ewald contribution        =    -366.43197501 Ry
     one-center paw contrib.   =    -553.18910673 Ry
      -> PAW hartree energy AE =     233.25294297 Ry
      -> PAW hartree energy PS =    -230.76170461 Ry
      -> PAW xc energy AE      =    -297.41954723 Ry
      -> PAW xc energy PS      =      47.91761267 Ry
      -> total E_H with PAW    =     170.94417856 Ry
      -> total E_XC with PAW   =    -373.38509221 Ry

     convergence has been achieved in   9 iterations

     Forces acting on atoms (cartesian axes, Ry/au):

     atom    1 type  1   force =    -0.00000194   -0.00000387   -0.00000581
     atom    2 type  2   force =     0.00000156    0.00000311    0.00000467
     atom    3 type  3   force =     0.00000021   -0.00000183    0.00000325
     atom    4 type  3   force =     0.00000108    0.00000042   -0.00000275
     atom    5 type  3   force =    -0.00000092    0.00000217    0.00000064
     The non-local contrib.  to forces
     atom    1 type  1   force =     0.00004760    0.00009519    0.00014282
     atom    2 type  2   force =     0.00000934    0.00001868    0.00002803
     atom    3 type  3   force =    -0.00035113   -0.00003579    0.00032271
     atom    4 type  3   force =     0.00010749   -0.00070216   -0.00005390
     atom    5 type  3   force =    -0.00001802    0.00021506   -0.00105345
     The ionic contribution  to forces
     atom    1 type  1   force =     0.00318268    0.00636420    0.00954808
     atom    2 type  2   force =    -0.00302899   -0.00605648   -0.00908733
     atom    3 type  3   force =    -0.00067520   -0.00053305    0.00236398
     atom    4 type  3   force =     0.00078804   -0.00135039   -0.00079936
     atom    5 type  3   force =    -0.00026653    0.00157572   -0.00202536
     The local contribution  to forces
     atom    1 type  1   force =    -0.00322864   -0.00645611   -0.00968596
     atom    2 type  2   force =     0.00302159    0.00604167    0.00906511
     atom    3 type  3   force =     0.00102538    0.00056692   -0.00268255
     atom    4 type  3   force =    -0.00089415    0.00205066    0.00085037
     atom    5 type  3   force =     0.00028359   -0.00178801    0.00307598
     The core correction contribution to forces
     atom    1 type  1   force =    -0.00000360   -0.00000720   -0.00001080
     atom    2 type  2   force =    -0.00000044   -0.00000089   -0.00000133
     atom    3 type  3   force =     0.00000111   -0.00000000   -0.00000095
     atom    4 type  3   force =    -0.00000031    0.00000222   -0.00000001
     atom    5 type  3   force =    -0.00000000   -0.00000063    0.00000333
     The Hubbard contrib.    to forces
     atom    1 type  1   force =     0.00000000    0.00000000    0.00000000
     atom    2 type  2   force =     0.00000000    0.00000000    0.00000000
     atom    3 type  3   force =     0.00000000    0.00000000    0.00000000
     atom    4 type  3   force =     0.00000000    0.00000000    0.00000000
     atom    5 type  3   force =     0.00000000    0.00000000    0.00000000
     The SCF correction term to forces
     atom    1 type  1   force =    -0.00000002   -0.00000004   -0.00000006
     atom    2 type  2   force =     0.00000003    0.00000005    0.00000008
     atom    3 type  3   force =     0.00000001    0.00000003   -0.00000007
     atom    4 type  3   force =    -0.00000002    0.00000003    0.00000005
     atom    5 type  3   force =     0.00000001   -0.00000004    0.00000004

     Total force =     0.000011     Total SCF correction =     0.000000


     Computing stress (Cartesian axis) and pressure

          total   stress  (Ry/bohr**3)                   (kbar)     P=        0.01
   0.00000007  -0.00000000  -0.00000000            0.01       -0.00       -0.00
  -0.00000000   0.00000007  -0.00000000           -0.00        0.01       -0.00
  -0.00000000  -0.00000000   0.00000007           -0.00       -0.00        0.01

     kinetic stress (kbar)  37158.13      0.00      0.00
                                0.00  37158.13      0.00
                                0.00      0.00  37158.13

     local   stress (kbar) -19297.69     -0.00     -0.00
                               -0.00 -19297.67     -0.01
                               -0.00     -0.01 -19297.69

     nonloc. stress (kbar)   7465.26      0.00      0.00
                                0.00   7465.26      0.00
                                0.00      0.00   7465.27

     hartree stress (kbar)  14969.78      0.00      0.00
                                0.00  14969.77      0.00
                                0.00      0.00  14969.78

     exc-cor stress (kbar)   6102.43     -0.00     -0.00
                               -0.00   6102.43     -0.00
                               -0.00     -0.00   6102.43

     corecor stress (kbar) -13834.49      0.00      0.00
                                0.00 -13834.49      0.00
                                0.00      0.00 -13834.49

     ewald   stress (kbar) -32563.41      0.00      0.00
                                0.00 -32563.43      0.00
                                0.00      0.00 -32563.41

     hubbard stress (kbar)      0.00      0.00      0.00
                                0.00      0.00      0.00
                                0.00      0.00      0.00

     DFT-D   stress (kbar)      0.00      0.00      0.00
                                0.00      0.00      0.00
                                0.00      0.00      0.00

     XDM     stress (kbar)      0.00      0.00      0.00
                                0.00      0.00      0.00
                                0.00      0.00      0.00

     dft-nl  stress (kbar)      0.00      0.00      0.00
                                0.00      0.00      0.00
                                0.00      0.00      0.00

     TS-vdW  stress (kbar)      0.00      0.00      0.00
                                0.00      0.00      0.00
                                0.00      0.00      0.00

     MDB     stress (kbar)      0.00      0.00      0.00
                                0.00      0.00      0.00
                                0.00      0.00      0.00

     3D-RISM stress (kbar)      0.00      0.00      0.00
                                0.00      0.00      0.00
                                0.00      0.00      0.00

     Energy error            =      8.4E-07 Ry
     Gradient error          =      5.8E-06 Ry/Bohr
     Cell gradient error     =      1.0E-02 kbar

     bfgs converged in   7 scf cycles and   6 bfgs steps
     (criteria: energy <  1.0E-06 Ry, force <  1.0E-05 Ry/Bohr, cell <  5.0E-01 kbar)

     End of BFGS Geometry Optimization

     Final enthalpy           =   -1146.3730401713 Ry

     File ./output/aginf3_broken.bfgs deleted, as requested
Begin final coordinates
     new unit-cell volume =    551.78489 a.u.^3 (    81.76608 Ang^3 )
     density =      5.67986 g/cm^3

CELL_PARAMETERS (angstrom)
   4.340346659  -0.000000122  -0.000000181
  -0.000000122   4.340346377  -0.000000362
  -0.000000181  -0.000000362   4.340346449

ATOMIC_POSITIONS (crystal)
Ag               0.0000053864        0.0000107745        0.0000161629
In               0.4999858737        0.4999717676        0.4999576086
F                0.5001132724        0.5000059377       -0.0000225418
F               -0.0000075111        0.5002265250        0.5000089452
F                0.5000029786       -0.0000150048        0.5003398251
End final coordinates



     Writing config-only to output data dir ./output/aginf3_broken.save/ :
     XML data file

     Final scf calculation at the relaxed structure.
     The G-vectors are recalculated for the final unit cell
     Results may differ from those at the preceding step.

     Parallelization info
     --------------------
     sticks:   dense  smooth     PW     G-vecs:    dense   smooth      PW
     Min         427     215     62                18837     6669    1035
     Max         429     217     63                18838     6670    1038
     Sum        3425    1725    497               150699    53355    8289

     Using Slab Decomposition



     bravais-lattice index     =            0
     lattice parameter (alat)  =       6.6896  a.u.
     unit-cell volume          =     551.7849 (a.u.)^3
     number of atoms/cell      =            5
     number of atomic types    =            3
     number of electrons       =        53.00
     number of Kohn-Sham states=           32
     kinetic-energy cutoff     =      80.0000  Ry
     charge density cutoff     =     640.0000  Ry
     scf convergence threshold =      1.0E-12
     mixing beta               =       0.3000
     number of iterations used =            8  plain     mixing
     press convergence thresh. =      5.0E-01
     Exchange-correlation= SLA  PW   PBX  PBC
                           (   1   4   3   4   0   0   0)

     celldm(1)=   6.689630  celldm(2)=   0.000000  celldm(3)=   0.000000
     celldm(4)=   0.000000  celldm(5)=   0.000000  celldm(6)=   0.000000

     crystal axes: (cart. coord. in units of alat)
               a(1) = (   1.226087  -0.000000  -0.000000 )  
               a(2) = (  -0.000000   1.226087  -0.000000 )  
               a(3) = (  -0.000000  -0.000000   1.226087 )  

     reciprocal axes: (cart. coord. in units 2 pi/alat)
               b(1) = (  0.815603  0.000000  0.000000 )  
               b(2) = (  0.000000  0.815603  0.000000 )  
               b(3) = (  0.000000  0.000000  0.815603 )  


     PseudoPot. # 1 for Ag read from file:
     /home/administrator/Downloads/BURAI/BURAI1.3/pseudopot/Ag.pbe-spn-kjpaw_psl.1.0.0.UPF
     MD5 check sum: 4bb6ed288085a1d2cdc62c229711c47d
     Pseudo is Projector augmented-wave + core cor, Zval = 19.0
     Generated using "atomic" code by A. Dal Corso  v.5.1.2
     Shape of augmentation charge: PSQ
     Using radial grid of 1237 points,  6 beta functions with: 
                l(1) =   0
                l(2) =   0
                l(3) =   1
                l(4) =   1
                l(5) =   2
                l(6) =   2
     Q(r) pseudized with 0 coefficients 


     PseudoPot. # 2 for In read from file:
     /home/administrator/Downloads/BURAI/BURAI1.3/pseudopot/In.pbe-dn-kjpaw_psl.1.0.0.UPF
     MD5 check sum: fd1a0e78b31ae68673c860ae14814025
     Pseudo is Projector augmented-wave + core cor, Zval = 13.0
     Generated using "atomic" code by A. Dal Corso  v.5.1.2
     Shape of augmentation charge: PSQ
     Using radial grid of 1241 points,  6 beta functions with: 
                l(1) =   0
                l(2) =   0
                l(3) =   1
                l(4) =   1
                l(5) =   2
                l(6) =   2
     Q(r) pseudized with 0 coefficients 


     PseudoPot. # 3 for F  read from file:
     /home/administrator/Downloads/BURAI/BURAI1.3/pseudopot/F.pbe-n-kjpaw_psl.1.0.0.UPF
     MD5 check sum: de2194216b7114fcf395f1df79715f8b
     Pseudo is Projector augmented-wave + core cor, Zval =  7.0
     Generated using "atomic" code by A. Dal Corso  v.5.1.2
     Shape of augmentation charge: PSQ
     Using radial grid of 1105 points,  4 beta functions with: 
                l(1) =   0
                l(2) =   0
                l(3) =   1
                l(4) =   1
     Q(r) pseudized with 0 coefficients 


     atomic species   valence    mass     pseudopotential
     Ag               19.00   107.86820     Ag( 1.00)
     In               13.00   114.81800     In( 1.00)
     F                 7.00    18.99800     F ( 1.00)

     No symmetry found


                                    s                        frac. trans.

      isym =  1     identity                                     

 cryst.   s( 1) = (     1          0          0      )
                  (     0          1          0      )
                  (     0          0          1      )

 cart.    s( 1) = (  1.0000000  0.0000000  0.0000000 )
                  (  0.0000000  1.0000000  0.0000000 )
                  (  0.0000000  0.0000000  1.0000000 )


   Cartesian axes

     site n.     atom                  positions (alat units)
         1        Ag     tau(   1) = (   0.0000066   0.0000132   0.0000198  )
         2        In     tau(   2) = (   0.6130260   0.6130086   0.6129912  )
         3        F      tau(   3) = (   0.6131822   0.6130505  -0.0000277  )
         4        F      tau(   4) = (  -0.0000093   0.6133210   0.6130542  )
         5        F      tau(   5) = (   0.6130469  -0.0000185   0.6134599  )

   Crystallographic axes

     site n.     atom                  positions (cryst. coord.)
         1        Ag     tau(   1) = (  0.0000054  0.0000108  0.0000162  )
         2        In     tau(   2) = (  0.4999859  0.4999718  0.4999576  )
         3        F      tau(   3) = (  0.5001133  0.5000059 -0.0000225  )
         4        F      tau(   4) = ( -0.0000075  0.5002265  0.5000089  )
         5        F      tau(   5) = (  0.5000030 -0.0000150  0.5003398  )

     number of k points=   112  Marzari-Vanderbilt smearing, width (Ry)=  0.0050
                       cart. coord. in units 2pi/alat
        k(    1) = (   0.0000000   0.0000000   0.0000000), wk =   0.0092593
        k(    2) = (   0.0000000   0.0000000   0.1359338), wk =   0.0185185
        k(    3) = (   0.0000000   0.0000000   0.2718677), wk =   0.0185185
        k(    4) = (  -0.0000000  -0.0000000  -0.4078015), wk =   0.0092593
        k(    5) = (   0.0000000   0.1359339   0.0000000), wk =   0.0185185
        k(    6) = (   0.0000000   0.1359339   0.1359339), wk =   0.0185185
        k(    7) = (   0.0000000   0.1359339   0.2718677), wk =   0.0185185
        k(    8) = (  -0.0000000   0.1359338  -0.4078015), wk =   0.0185185
        k(    9) = (  -0.0000000   0.1359338  -0.2718677), wk =   0.0185185
        k(   10) = (  -0.0000000   0.1359338  -0.1359338), wk =   0.0185185
        k(   11) = (   0.0000000   0.2718677   0.0000000), wk =   0.0185185
        k(   12) = (   0.0000000   0.2718677   0.1359339), wk =   0.0185185
        k(   13) = (   0.0000000   0.2718677   0.2718677), wk =   0.0185185
        k(   14) = (  -0.0000000   0.2718677  -0.4078015), wk =   0.0185185
        k(   15) = (  -0.0000000   0.2718677  -0.2718677), wk =   0.0185185
        k(   16) = (   0.0000000   0.2718677  -0.1359338), wk =   0.0185185
        k(   17) = (  -0.0000000  -0.4078016  -0.0000000), wk =   0.0092593
        k(   18) = (  -0.0000000  -0.4078015   0.1359338), wk =   0.0185185
        k(   19) = (  -0.0000000  -0.4078015   0.2718677), wk =   0.0185185
        k(   20) = (  -0.0000000  -0.4078016  -0.4078016), wk =   0.0092593
        k(   21) = (   0.1359338   0.0000000   0.0000000), wk =   0.0185185
        k(   22) = (   0.1359338   0.0000000   0.1359339), wk =   0.0185185
        k(   23) = (   0.1359339   0.0000000   0.2718677), wk =   0.0185185
        k(   24) = (   0.1359338  -0.0000000  -0.4078015), wk =   0.0185185
        k(   25) = (   0.1359338  -0.0000000  -0.2718677), wk =   0.0185185
        k(   26) = (   0.1359338  -0.0000000  -0.1359338), wk =   0.0185185
        k(   27) = (   0.1359338   0.1359339   0.0000000), wk =   0.0185185
        k(   28) = (   0.1359339   0.1359339   0.1359339), wk =   0.0185185
        k(   29) = (   0.1359339   0.1359339   0.2718677), wk =   0.0185185
        k(   30) = (   0.1359338   0.1359338  -0.4078015), wk =   0.0185185
        k(   31) = (   0.1359338   0.1359338  -0.2718677), wk =   0.0185185
        k(   32) = (   0.1359338   0.1359338  -0.1359338), wk =   0.0185185
        k(   33) = (   0.1359339   0.2718677   0.0000000), wk =   0.0185185
        k(   34) = (   0.1359339   0.2718677   0.1359339), wk =   0.0185185
        k(   35) = (   0.1359339   0.2718677   0.2718677), wk =   0.0185185
        k(   36) = (   0.1359338   0.2718677  -0.4078015), wk =   0.0185185
        k(   37) = (   0.1359338   0.2718677  -0.2718677), wk =   0.0185185
        k(   38) = (   0.1359338   0.2718677  -0.1359338), wk =   0.0185185
        k(   39) = (   0.1359338  -0.4078016  -0.0000000), wk =   0.0185185
        k(   40) = (   0.1359338  -0.4078015   0.1359338), wk =   0.0185185
        k(   41) = (   0.1359338  -0.4078015   0.2718677), wk =   0.0185185
        k(   42) = (   0.1359338  -0.4078016  -0.4078016), wk =   0.0185185
        k(   43) = (   0.1359338  -0.4078016  -0.2718677), wk =   0.0185185
        k(   44) = (   0.1359338  -0.4078016  -0.1359339), wk =   0.0185185
        k(   45) = (   0.1359338  -0.2718677  -0.0000000), wk =   0.0185185
        k(   46) = (   0.1359338  -0.2718677   0.1359338), wk =   0.0185185
        k(   47) = (   0.1359338  -0.2718677   0.2718677), wk =   0.0185185
        k(   48) = (   0.1359338  -0.2718677  -0.4078016), wk =   0.0185185
        k(   49) = (   0.1359338  -0.2718677  -0.2718677), wk =   0.0185185
        k(   50) = (   0.1359338  -0.2718677  -0.1359339), wk =   0.0185185
        k(   51) = (   0.1359338  -0.1359338  -0.0000000), wk =   0.0185185
        k(   52) = (   0.1359338  -0.1359338   0.1359338), wk =   0.0185185
        k(   53) = (   0.1359339  -0.1359338   0.2718677), wk =   0.0185185
        k(   54) = (   0.1359338  -0.1359339  -0.4078016), wk =   0.0185185
        k(   55) = (   0.1359338  -0.1359339  -0.2718677), wk =   0.0185185
        k(   56) = (   0.1359338  -0.1359339  -0.1359339), wk =   0.0185185
        k(   57) = (   0.2718677   0.0000000   0.0000000), wk =   0.0185185
        k(   58) = (   0.2718677   0.0000000   0.1359339), wk =   0.0185185
        k(   59) = (   0.2718677   0.0000000   0.2718677), wk =   0.0185185
        k(   60) = (   0.2718677  -0.0000000  -0.4078015), wk =   0.0185185
        k(   61) = (   0.2718677  -0.0000000  -0.2718677), wk =   0.0185185
        k(   62) = (   0.2718677  -0.0000000  -0.1359338), wk =   0.0185185
        k(   63) = (   0.2718677   0.1359339   0.0000000), wk =   0.0185185
        k(   64) = (   0.2718677   0.1359339   0.1359339), wk =   0.0185185
        k(   65) = (   0.2718677   0.1359339   0.2718677), wk =   0.0185185
        k(   66) = (   0.2718677   0.1359338  -0.4078015), wk =   0.0185185
        k(   67) = (   0.2718677   0.1359338  -0.2718677), wk =   0.0185185
        k(   68) = (   0.2718677   0.1359338  -0.1359338), wk =   0.0185185
        k(   69) = (   0.2718677   0.2718677   0.0000000), wk =   0.0185185
        k(   70) = (   0.2718677   0.2718677   0.1359339), wk =   0.0185185
        k(   71) = (   0.2718677   0.2718677   0.2718677), wk =   0.0185185
        k(   72) = (   0.2718677   0.2718677  -0.4078015), wk =   0.0185185
        k(   73) = (   0.2718677   0.2718677  -0.2718677), wk =   0.0185185
        k(   74) = (   0.2718677   0.2718677  -0.1359338), wk =   0.0185185
        k(   75) = (   0.2718677  -0.4078015  -0.0000000), wk =   0.0185185
        k(   76) = (   0.2718677  -0.4078015   0.1359338), wk =   0.0185185
        k(   77) = (   0.2718677  -0.4078015   0.2718677), wk =   0.0185185
        k(   78) = (   0.2718677  -0.4078016  -0.4078016), wk =   0.0185185
        k(   79) = (   0.2718677  -0.4078016  -0.2718677), wk =   0.0185185
        k(   80) = (   0.2718677  -0.4078016  -0.1359339), wk =   0.0185185
        k(   81) = (   0.2718677  -0.2718677  -0.0000000), wk =   0.0185185
        k(   82) = (   0.2718677  -0.2718677   0.1359338), wk =   0.0185185
        k(   83) = (   0.2718677  -0.2718677   0.2718677), wk =   0.0185185
        k(   84) = (   0.2718677  -0.2718677  -0.4078016), wk =   0.0185185
        k(   85) = (   0.2718677  -0.2718677  -0.2718677), wk =   0.0185185
        k(   86) = (   0.2718677  -0.2718677  -0.1359339), wk =   0.0185185
        k(   87) = (   0.2718677  -0.1359338   0.0000000), wk =   0.0185185
        k(   88) = (   0.2718677  -0.1359338   0.1359338), wk =   0.0185185
        k(   89) = (   0.2718677  -0.1359338   0.2718677), wk =   0.0185185
        k(   90) = (   0.2718677  -0.1359339  -0.4078015), wk =   0.0185185
        k(   91) = (   0.2718677  -0.1359339  -0.2718677), wk =   0.0185185
        k(   92) = (   0.2718677  -0.1359339  -0.1359338), wk =   0.0185185
        k(   93) = (  -0.4078015  -0.0000000  -0.0000000), wk =   0.0092593
        k(   94) = (  -0.4078015  -0.0000000   0.1359338), wk =   0.0185185
        k(   95) = (  -0.4078015   0.0000000   0.2718677), wk =   0.0185185
        k(   96) = (  -0.4078015  -0.0000000  -0.4078016), wk =   0.0092593
        k(   97) = (  -0.4078015   0.1359338  -0.0000000), wk =   0.0185185
        k(   98) = (  -0.4078015   0.1359339   0.1359338), wk =   0.0185185
        k(   99) = (  -0.4078015   0.1359339   0.2718677), wk =   0.0185185
        k(  100) = (  -0.4078015   0.1359338  -0.4078016), wk =   0.0185185
        k(  101) = (  -0.4078015   0.1359338  -0.2718677), wk =   0.0185185
        k(  102) = (  -0.4078015   0.1359338  -0.1359339), wk =   0.0185185
        k(  103) = (  -0.4078015   0.2718677   0.0000000), wk =   0.0185185
        k(  104) = (  -0.4078015   0.2718677   0.1359339), wk =   0.0185185
        k(  105) = (  -0.4078015   0.2718677   0.2718677), wk =   0.0185185
        k(  106) = (  -0.4078015   0.2718677  -0.4078015), wk =   0.0185185
        k(  107) = (  -0.4078015   0.2718677  -0.2718677), wk =   0.0185185
        k(  108) = (  -0.4078015   0.2718677  -0.1359338), wk =   0.0185185
        k(  109) = (  -0.4078015  -0.4078016  -0.0000001), wk =   0.0092593
        k(  110) = (  -0.4078015  -0.4078016   0.1359338), wk =   0.0185185
        k(  111) = (  -0.4078015  -0.4078015   0.2718676), wk =   0.0185185
        k(  112) = (  -0.4078016  -0.4078016  -0.4078016), wk =   0.0092593

                       cryst. coord.
        k(    1) = (   0.0000000   0.0000000   0.0000000), wk =   0.0092593
        k(    2) = (  -0.0000000  -0.0000000   0.1666667), wk =   0.0185185
        k(    3) = (  -0.0000000  -0.0000000   0.3333333), wk =   0.0185185
        k(    4) = (   0.0000000   0.0000000  -0.5000000), wk =   0.0092593
        k(    5) = (   0.0000000   0.1666667   0.0000000), wk =   0.0185185
        k(    6) = (   0.0000000   0.1666667   0.1666667), wk =   0.0185185
        k(    7) = (   0.0000000   0.1666667   0.3333333), wk =   0.0185185
        k(    8) = (  -0.0000000   0.1666667  -0.5000000), wk =   0.0185185
        k(    9) = (   0.0000000   0.1666667  -0.3333333), wk =   0.0185185
        k(   10) = (   0.0000000   0.1666667  -0.1666667), wk =   0.0185185
        k(   11) = (   0.0000000   0.3333333   0.0000000), wk =   0.0185185
        k(   12) = (   0.0000000   0.3333333   0.1666667), wk =   0.0185185
        k(   13) = (   0.0000000   0.3333333   0.3333333), wk =   0.0185185
        k(   14) = (   0.0000000   0.3333333  -0.5000000), wk =   0.0185185
        k(   15) = (   0.0000000   0.3333333  -0.3333333), wk =   0.0185185
        k(   16) = (  -0.0000000   0.3333333  -0.1666667), wk =   0.0185185
        k(   17) = (   0.0000000  -0.5000000   0.0000000), wk =   0.0092593
        k(   18) = (  -0.0000000  -0.5000000   0.1666667), wk =   0.0185185
        k(   19) = (   0.0000000  -0.5000000   0.3333333), wk =   0.0185185
        k(   20) = (   0.0000000  -0.5000000  -0.5000000), wk =   0.0092593
        k(   21) = (   0.1666667   0.0000000  -0.0000000), wk =   0.0185185
        k(   22) = (   0.1666667  -0.0000000   0.1666667), wk =   0.0185185
        k(   23) = (   0.1666667  -0.0000000   0.3333333), wk =   0.0185185
        k(   24) = (   0.1666667   0.0000000  -0.5000000), wk =   0.0185185
        k(   25) = (   0.1666667   0.0000000  -0.3333333), wk =   0.0185185
        k(   26) = (   0.1666667   0.0000000  -0.1666667), wk =   0.0185185
        k(   27) = (   0.1666667   0.1666667   0.0000000), wk =   0.0185185
        k(   28) = (   0.1666667   0.1666667   0.1666667), wk =   0.0185185
        k(   29) = (   0.1666667   0.1666667   0.3333333), wk =   0.0185185
        k(   30) = (   0.1666667   0.1666667  -0.5000000), wk =   0.0185185
        k(   31) = (   0.1666667   0.1666667  -0.3333333), wk =   0.0185185
        k(   32) = (   0.1666667   0.1666667  -0.1666667), wk =   0.0185185
        k(   33) = (   0.1666667   0.3333333   0.0000000), wk =   0.0185185
        k(   34) = (   0.1666667   0.3333333   0.1666667), wk =   0.0185185
        k(   35) = (   0.1666667   0.3333333   0.3333333), wk =   0.0185185
        k(   36) = (   0.1666667   0.3333333  -0.5000000), wk =   0.0185185
        k(   37) = (   0.1666667   0.3333333  -0.3333333), wk =   0.0185185
        k(   38) = (   0.1666667   0.3333333  -0.1666667), wk =   0.0185185
        k(   39) = (   0.1666667  -0.5000000   0.0000000), wk =   0.0185185
        k(   40) = (   0.1666667  -0.5000000   0.1666667), wk =   0.0185185
        k(   41) = (   0.1666667  -0.5000000   0.3333333), wk =   0.0185185
        k(   42) = (   0.1666667  -0.5000000  -0.5000000), wk =   0.0185185
        k(   43) = (   0.1666667  -0.5000000  -0.3333333), wk =   0.0185185
        k(   44) = (   0.1666667  -0.5000000  -0.1666667), wk =   0.0185185
        k(   45) = (   0.1666667  -0.3333333   0.0000000), wk =   0.0185185
        k(   46) = (   0.1666667  -0.3333333   0.1666667), wk =   0.0185185
        k(   47) = (   0.1666667  -0.3333333   0.3333333), wk =   0.0185185
        k(   48) = (   0.1666667  -0.3333333  -0.5000000), wk =   0.0185185
        k(   49) = (   0.1666667  -0.3333333  -0.3333333), wk =   0.0185185
        k(   50) = (   0.1666667  -0.3333333  -0.1666667), wk =   0.0185185
        k(   51) = (   0.1666667  -0.1666667   0.0000000), wk =   0.0185185
        k(   52) = (   0.1666667  -0.1666667   0.1666667), wk =   0.0185185
        k(   53) = (   0.1666667  -0.1666667   0.3333333), wk =   0.0185185
        k(   54) = (   0.1666667  -0.1666667  -0.5000000), wk =   0.0185185
        k(   55) = (   0.1666667  -0.1666667  -0.3333333), wk =   0.0185185
        k(   56) = (   0.1666667  -0.1666667  -0.1666667), wk =   0.0185185
        k(   57) = (   0.3333333   0.0000000  -0.0000000), wk =   0.0185185
        k(   58) = (   0.3333333   0.0000000   0.1666667), wk =   0.0185185
        k(   59) = (   0.3333333  -0.0000000   0.3333333), wk =   0.0185185
        k(   60) = (   0.3333333   0.0000000  -0.5000000), wk =   0.0185185
        k(   61) = (   0.3333333   0.0000000  -0.3333333), wk =   0.0185185
        k(   62) = (   0.3333333   0.0000000  -0.1666667), wk =   0.0185185
        k(   63) = (   0.3333333   0.1666667   0.0000000), wk =   0.0185185
        k(   64) = (   0.3333333   0.1666667   0.1666667), wk =   0.0185185
        k(   65) = (   0.3333333   0.1666667   0.3333333), wk =   0.0185185
        k(   66) = (   0.3333333   0.1666667  -0.5000000), wk =   0.0185185
        k(   67) = (   0.3333333   0.1666667  -0.3333333), wk =   0.0185185
        k(   68) = (   0.3333333   0.1666667  -0.1666667), wk =   0.0185185
        k(   69) = (   0.3333333   0.3333333   0.0000000), wk =   0.0185185
        k(   70) = (   0.3333333   0.3333333   0.1666667), wk =   0.0185185
        k(   71) = (   0.3333333   0.3333333   0.3333333), wk =   0.0185185
        k(   72) = (   0.3333333   0.3333333  -0.5000000), wk =   0.0185185
        k(   73) = (   0.3333333   0.3333333  -0.3333333), wk =   0.0185185
        k(   74) = (   0.3333333   0.3333333  -0.1666667), wk =   0.0185185
        k(   75) = (   0.3333333  -0.5000000  -0.0000000), wk =   0.0185185
        k(   76) = (   0.3333333  -0.5000000   0.1666667), wk =   0.0185185
        k(   77) = (   0.3333333  -0.5000000   0.3333333), wk =   0.0185185
        k(   78) = (   0.3333333  -0.5000000  -0.5000000), wk =   0.0185185
        k(   79) = (   0.3333333  -0.5000000  -0.3333333), wk =   0.0185185
        k(   80) = (   0.3333333  -0.5000000  -0.1666667), wk =   0.0185185
        k(   81) = (   0.3333333  -0.3333333  -0.0000000), wk =   0.0185185
        k(   82) = (   0.3333333  -0.3333333   0.1666667), wk =   0.0185185
        k(   83) = (   0.3333333  -0.3333333   0.3333333), wk =   0.0185185
        k(   84) = (   0.3333333  -0.3333333  -0.5000000), wk =   0.0185185
        k(   85) = (   0.3333333  -0.3333333  -0.3333333), wk =   0.0185185
        k(   86) = (   0.3333333  -0.3333333  -0.1666667), wk =   0.0185185
        k(   87) = (   0.3333333  -0.1666667  -0.0000000), wk =   0.0185185
        k(   88) = (   0.3333333  -0.1666667   0.1666667), wk =   0.0185185
        k(   89) = (   0.3333333  -0.1666667   0.3333333), wk =   0.0185185
        k(   90) = (   0.3333333  -0.1666667  -0.5000000), wk =   0.0185185
        k(   91) = (   0.3333333  -0.1666667  -0.3333333), wk =   0.0185185
        k(   92) = (   0.3333333  -0.1666667  -0.1666667), wk =   0.0185185
        k(   93) = (  -0.5000000   0.0000000   0.0000000), wk =   0.0092593
        k(   94) = (  -0.5000000   0.0000000   0.1666667), wk =   0.0185185
        k(   95) = (  -0.5000000  -0.0000000   0.3333333), wk =   0.0185185
        k(   96) = (  -0.5000000   0.0000000  -0.5000000), wk =   0.0092593
        k(   97) = (  -0.5000000   0.1666667   0.0000000), wk =   0.0185185
        k(   98) = (  -0.5000000   0.1666667   0.1666667), wk =   0.0185185
        k(   99) = (  -0.5000000   0.1666667   0.3333333), wk =   0.0185185
        k(  100) = (  -0.5000000   0.1666667  -0.5000000), wk =   0.0185185
        k(  101) = (  -0.5000000   0.1666667  -0.3333333), wk =   0.0185185
        k(  102) = (  -0.5000000   0.1666667  -0.1666667), wk =   0.0185185
        k(  103) = (  -0.5000000   0.3333333   0.0000000), wk =   0.0185185
        k(  104) = (  -0.5000000   0.3333333   0.1666667), wk =   0.0185185
        k(  105) = (  -0.5000000   0.3333333   0.3333333), wk =   0.0185185
        k(  106) = (  -0.5000000   0.3333333  -0.5000000), wk =   0.0185185
        k(  107) = (  -0.5000000   0.3333333  -0.3333333), wk =   0.0185185
        k(  108) = (  -0.5000000   0.3333333  -0.1666667), wk =   0.0185185
        k(  109) = (  -0.5000000  -0.5000000   0.0000000), wk =   0.0092593
        k(  110) = (  -0.5000000  -0.5000000   0.1666667), wk =   0.0185185
        k(  111) = (  -0.5000000  -0.5000000   0.3333333), wk =   0.0185185
        k(  112) = (  -0.5000000  -0.5000000  -0.5000000), wk =   0.0092593

     Dense  grid:   150699 G-vectors     FFT dimensions: (  72,  72,  72)

     Smooth grid:    53355 G-vectors     FFT dimensions: (  48,  48,  48)

     Dynamical RAM for                 wfc:       0.41 MB

     Dynamical RAM for     wfc (w. buffer):      45.96 MB

     Dynamical RAM for           str. fact:       0.86 MB

     Dynamical RAM for           local pot:       0.23 MB

     Dynamical RAM for          nlocal pot:       0.76 MB

     Dynamical RAM for                qrad:      12.18 MB

     Dynamical RAM for          rho,v,vnew:       1.93 MB

     Dynamical RAM for               rhoin:       0.64 MB

     Dynamical RAM for            rho*nmix:       4.60 MB

     Dynamical RAM for           G-vectors:       1.13 MB

     Dynamical RAM for          h,s,v(r/c):       0.19 MB

     Dynamical RAM for          <psi|beta>:       0.03 MB

     Dynamical RAM for                 psi:       0.81 MB

     Dynamical RAM for                hpsi:       0.81 MB

     Dynamical RAM for                spsi:       0.81 MB

     Dynamical RAM for      wfcinit/wfcrot:       0.84 MB

     Dynamical RAM for           addusdens:      54.33 MB

     Dynamical RAM for          addusforce:      55.63 MB

     Dynamical RAM for         addusstress:      57.78 MB

     Estimated static dynamical RAM per process >      66.63 MB

     Estimated max dynamical RAM per process >     129.01 MB

     Estimated total dynamical RAM >       1.01 GB

     Check: negative core charge=   -0.000003

     Initial potential from superposition of free atoms

     starting charge      52.9960, renormalised to      53.0000
     Starting wfcs are   31 randomized atomic wfcs +    1 random wfcs
     Checking if some PAW data can be deallocated... 
       PAW data deallocated on    6 nodes for type:  1
       PAW data deallocated on    6 nodes for type:  2
       PAW data deallocated on    4 nodes for type:  3

     total cpu time spent up to now is    19303.6 secs

     Self-consistent Calculation

     iteration #  1     ecut=    80.00 Ry     beta= 0.30
     Davidson diagonalization with overlap

---- Real-time Memory Report at c_bands before calling an iterative solver
           117 MiB given to the printing process from OS
             0 MiB allocation reported by mallinfo(arena+hblkhd)
         57266 MiB available memory on the node where the printing process lives
------------------
     c_bands:  1 eigenvalues not converged
     c_bands:  1 eigenvalues not converged
     c_bands:  1 eigenvalues not converged
     c_bands:  1 eigenvalues not converged
     c_bands:  1 eigenvalues not converged
     ethr =  1.00E-06,  avg # of iterations = 12.3

     total cpu time spent up to now is    19967.3 secs

     total energy              =   -1146.26896255 Ry
     estimated scf accuracy    <       0.68427442 Ry

     iteration #  2     ecut=    80.00 Ry     beta= 0.30
     Davidson diagonalization with overlap

---- Real-time Memory Report at c_bands before calling an iterative solver
           171 MiB given to the printing process from OS
             0 MiB allocation reported by mallinfo(arena+hblkhd)
         56614 MiB available memory on the node where the printing process lives
------------------
     ethr =  1.29E-03,  avg # of iterations =  2.0

     total cpu time spent up to now is    20115.3 secs

     total energy              =   -1146.36085251 Ry
     estimated scf accuracy    <       0.04704402 Ry

     iteration #  3     ecut=    80.00 Ry     beta= 0.30
     Davidson diagonalization with overlap

---- Real-time Memory Report at c_bands before calling an iterative solver
           172 MiB given to the printing process from OS
             0 MiB allocation reported by mallinfo(arena+hblkhd)
         56733 MiB available memory on the node where the printing process lives
------------------
     ethr =  8.88E-05,  avg # of iterations =  2.0

     total cpu time spent up to now is    20263.6 secs

     total energy              =   -1146.37980038 Ry
     estimated scf accuracy    <       0.01283719 Ry

     iteration #  4     ecut=    80.00 Ry     beta= 0.30
     Davidson diagonalization with overlap

---- Real-time Memory Report at c_bands before calling an iterative solver
           172 MiB given to the printing process from OS
             0 MiB allocation reported by mallinfo(arena+hblkhd)
         56595 MiB available memory on the node where the printing process lives
------------------
     ethr =  2.42E-05,  avg # of iterations =  1.5

     total cpu time spent up to now is    20386.4 secs

     total energy              =   -1146.38735480 Ry
     estimated scf accuracy    <       0.00122242 Ry

     iteration #  5     ecut=    80.00 Ry     beta= 0.30
     Davidson diagonalization with overlap

---- Real-time Memory Report at c_bands before calling an iterative solver
           172 MiB given to the printing process from OS
             0 MiB allocation reported by mallinfo(arena+hblkhd)
         56627 MiB available memory on the node where the printing process lives
------------------
     ethr =  2.31E-06,  avg # of iterations =  3.7

     total cpu time spent up to now is    20596.0 secs

     total energy              =   -1146.38848856 Ry
     estimated scf accuracy    <       0.00005335 Ry

     iteration #  6     ecut=    80.00 Ry     beta= 0.30
     Davidson diagonalization with overlap

---- Real-time Memory Report at c_bands before calling an iterative solver
           172 MiB given to the printing process from OS
             0 MiB allocation reported by mallinfo(arena+hblkhd)
         56740 MiB available memory on the node where the printing process lives
------------------
     ethr =  1.01E-07,  avg # of iterations =  2.1

     total cpu time spent up to now is    20749.8 secs

     total energy              =   -1146.38889701 Ry
     estimated scf accuracy    <       0.00001597 Ry

     iteration #  7     ecut=    80.00 Ry     beta= 0.30
     Davidson diagonalization with overlap

---- Real-time Memory Report at c_bands before calling an iterative solver
           173 MiB given to the printing process from OS
             0 MiB allocation reported by mallinfo(arena+hblkhd)
         56665 MiB available memory on the node where the printing process lives
------------------
     ethr =  3.01E-08,  avg # of iterations =  2.0

     total cpu time spent up to now is    20898.9 secs

     total energy              =   -1146.38917144 Ry
     estimated scf accuracy    <       0.00000099 Ry

     iteration #  8     ecut=    80.00 Ry     beta= 0.30
     Davidson diagonalization with overlap

---- Real-time Memory Report at c_bands before calling an iterative solver
           173 MiB given to the printing process from OS
             0 MiB allocation reported by mallinfo(arena+hblkhd)
         56662 MiB available memory on the node where the printing process lives
------------------
     ethr =  1.88E-09,  avg # of iterations =  2.2

     total cpu time spent up to now is    21059.7 secs

     total energy              =   -1146.38913765 Ry
     estimated scf accuracy    <       0.00000006 Ry

     iteration #  9     ecut=    80.00 Ry     beta= 0.30
     Davidson diagonalization with overlap

---- Real-time Memory Report at c_bands before calling an iterative solver
           173 MiB given to the printing process from OS
             0 MiB allocation reported by mallinfo(arena+hblkhd)
         56607 MiB available memory on the node where the printing process lives
------------------
     ethr =  1.10E-10,  avg # of iterations =  2.7

     total cpu time spent up to now is    21241.4 secs

     total energy              =   -1146.38913178 Ry
     estimated scf accuracy    <          9.6E-09 Ry

     iteration # 10     ecut=    80.00 Ry     beta= 0.30
     Davidson diagonalization with overlap

---- Real-time Memory Report at c_bands before calling an iterative solver
           173 MiB given to the printing process from OS
             0 MiB allocation reported by mallinfo(arena+hblkhd)
         56657 MiB available memory on the node where the printing process lives
------------------
     ethr =  1.81E-11,  avg # of iterations =  2.4

     total cpu time spent up to now is    21419.3 secs

     total energy              =   -1146.38912394 Ry
     estimated scf accuracy    <          7.1E-10 Ry

     iteration # 11     ecut=    80.00 Ry     beta= 0.30
     Davidson diagonalization with overlap

---- Real-time Memory Report at c_bands before calling an iterative solver
           173 MiB given to the printing process from OS
             0 MiB allocation reported by mallinfo(arena+hblkhd)
         56611 MiB available memory on the node where the printing process lives
------------------
     ethr =  1.33E-12,  avg # of iterations =  3.5

     total cpu time spent up to now is    21650.0 secs

     total energy              =   -1146.38912183 Ry
     estimated scf accuracy    <          9.4E-10 Ry

     iteration # 12     ecut=    80.00 Ry     beta= 0.30
     Davidson diagonalization with overlap

---- Real-time Memory Report at c_bands before calling an iterative solver
           173 MiB given to the printing process from OS
             0 MiB allocation reported by mallinfo(arena+hblkhd)
         56594 MiB available memory on the node where the printing process lives
------------------
     ethr =  1.33E-12,  avg # of iterations =  2.0

     total cpu time spent up to now is    21798.9 secs

     total energy              =   -1146.38912161 Ry
     estimated scf accuracy    <          1.4E-11 Ry

     iteration # 13     ecut=    80.00 Ry     beta= 0.30
     Davidson diagonalization with overlap

---- Real-time Memory Report at c_bands before calling an iterative solver
           173 MiB given to the printing process from OS
             0 MiB allocation reported by mallinfo(arena+hblkhd)
         56650 MiB available memory on the node where the printing process lives
------------------
     ethr =  1.00E-13,  avg # of iterations =  2.0

     total cpu time spent up to now is    21947.7 secs

     total energy              =   -1146.38912133 Ry
     estimated scf accuracy    <          1.4E-12 Ry

     iteration # 14     ecut=    80.00 Ry     beta= 0.30
     Davidson diagonalization with overlap

---- Real-time Memory Report at c_bands before calling an iterative solver
           174 MiB given to the printing process from OS
             0 MiB allocation reported by mallinfo(arena+hblkhd)
         56640 MiB available memory on the node where the printing process lives
------------------
     ethr =  1.00E-13,  avg # of iterations =  1.0

     total cpu time spent up to now is    22046.2 secs

     End of self-consistent calculation

          k = 0.0000 0.0000 0.0000 (  6667 PWs)   bands (ev):

   -83.0811 -46.6082 -46.6082 -46.6082 -16.5698 -16.2607 -16.2607  -6.9413
    -6.9413  -6.9413  -6.5335  -6.5335   0.6129   0.6129   0.6129   2.7397
     2.7397   2.7397   2.8286   2.8286   2.8286   4.3840   4.3840   4.5207
     4.5207   4.5207   5.4084   9.0591  14.8087  14.8087  14.8087  17.2704

     occupation numbers 
     1.0000   1.0000   1.0000   1.0000   1.0000   1.0000   1.0000   1.0000
     1.0000   1.0000   1.0000   1.0000   1.0000   1.0000   1.0000   1.0000
     1.0000   1.0000   1.0000   1.0000   1.0000   1.0000   1.0000   1.0000
     1.0000   1.0000   1.0000   0.0000   0.0000   0.0000   0.0000   0.0000

          k = 0.0000 0.0000 0.1359 (  6679 PWs)   bands (ev):

   -83.0811 -46.6083 -46.6083 -46.6083 -16.5418 -16.2599 -16.2542  -6.9500
    -6.9500  -6.9410  -6.6987  -6.5335   0.6466   0.6466   0.6942   2.4805
     2.7248   2.7248   2.7469   2.7934   2.7934   4.4219   4.4634   4.5218
     4.5858   4.5858   5.9824   9.2494  13.9081  14.8674  14.8674  17.4847

     occupation numbers 
     1.0000   1.0000   1.0000   1.0000   1.0000   1.0000   1.0000   1.0000
     1.0000   1.0000   1.0000   1.0000   1.0000   1.0000   1.0000   1.0000
     1.0000   1.0000   1.0000   1.0000   1.0000   1.0000   1.0000   1.0000
     1.0000   1.0000   1.0000   0.0000   0.0000   0.0000   0.0000   0.0000

          k = 0.0000 0.0000 0.2719 (  6676 PWs)   bands (ev):

   -83.0811 -46.6084 -46.6083 -46.6083 -16.4879 -16.2584 -16.2376  -7.0149
    -6.9673  -6.9673  -6.9405  -6.5334   0.7147   0.7147   0.8586   2.0813
     2.6036   2.6813   2.6813   2.7446   2.7446   4.4986   4.5241   4.6020
     4.7084   4.7084   7.2254   9.3845  12.9646  15.0551  15.0551  16.8879

     occupation numbers 
     1.0000   1.0000   1.0000   1.0000   1.0000   1.0000   1.0000   1.0000
     1.0000   1.0000   1.0000   1.0000   1.0000   1.0000   1.0000   1.0000
     1.0000   1.0000   1.0000   1.0000   1.0000   1.0000   1.0000   1.0000
     1.0000   1.0000   1.0000   0.0000   0.0000   0.0000   0.0000   0.0000

          k =-0.0000-0.0000-0.4078 (  6696 PWs)   bands (ev):

   -83.0812 -46.6085 -46.6083 -46.6083 -16.4625 -16.2576 -16.2268  -7.1669
    -6.9759  -6.9759  -6.9403  -6.5333   0.7490   0.7490   0.9490   1.9034
     2.5393   2.6548   2.6548   2.7280   2.7280   4.5252   4.5373   4.6639
     4.7666   4.7666   8.4750   8.6644  12.9373  15.2433  15.2433  16.3180

     occupation numbers 
     1.0000   1.0000   1.0000   1.0000   1.0000   1.0000   1.0000   1.0000
     1.0000   1.0000   1.0000   1.0000   1.0000   1.0000   1.0000   1.0000
     1.0000   1.0000   1.0000   1.0000   1.0000   1.0000   1.0000   1.0000
     1.0000   1.0000   1.0772   0.0037   0.0000   0.0000   0.0000   0.0000

          k = 0.0000 0.1359 0.0000 (  6679 PWs)   bands (ev):

   -83.0811 -46.6083 -46.6083 -46.6083 -16.5418 -16.2599 -16.2542  -6.9500
    -6.9500  -6.9410  -6.6987  -6.5335   0.6466   0.6466   0.6942   2.4805
     2.7248   2.7248   2.7469   2.7934   2.7934   4.4219   4.4634   4.5218
     4.5858   4.5858   5.9824   9.2494  13.9081  14.8674  14.8674  17.4847

     occupation numbers 
     1.0000   1.0000   1.0000   1.0000   1.0000   1.0000   1.0000   1.0000
     1.0000   1.0000   1.0000   1.0000   1.0000   1.0000   1.0000   1.0000
     1.0000   1.0000   1.0000   1.0000   1.0000   1.0000   1.0000   1.0000
     1.0000   1.0000   1.0000   0.0000   0.0000   0.0000   0.0000   0.0000

          k = 0.0000 0.1359 0.1359 (  6675 PWs)   bands (ev):

   -83.0811 -46.6083 -46.6083 -46.6083 -16.5135 -16.2560 -16.2512  -6.9591
    -6.9498  -6.9497  -6.7730  -6.6190   0.3333   0.6832   1.1241   2.2847
     2.6223   2.7101   2.7463   2.7553   2.8854   4.4688   4.4769   4.5821
     4.5914   4.6340   6.4403   9.4213  13.5757  14.4600  14.9168  16.9681

     occupation numbers 
     1.0000   1.0000   1.0000   1.0000   1.0000   1.0000   1.0000   1.0000
     1.0000   1.0000   1.0000   1.0000   1.0000   1.0000   1.0000   1.0000
     1.0000   1.0000   1.0000   1.0000   1.0000   1.0000   1.0000   1.0000
     1.0000   1.0000   1.0000   0.0000   0.0000   0.0000   0.0000   0.0000

          k = 0.0000 0.1359 0.2719 (  6670 PWs)   bands (ev):

   -83.0811 -46.6084 -46.6083 -46.6083 -16.4590 -16.2531 -16.2363  -7.0505
    -6.9771  -6.9671  -6.9493  -6.6492   0.1642   0.7574   1.5326   2.0231
     2.4809   2.6641   2.7022   2.7121   2.9183   4.5316   4.5831   4.5887
     4.6962   4.7095   7.5374   9.5517  12.8029  14.2521  15.0765  16.0823

     occupation numbers 
     1.0000   1.0000   1.0000   1.0000   1.0000   1.0000   1.0000   1.0000
     1.0000   1.0000   1.0000   1.0000   1.0000   1.0000   1.0000   1.0000
     1.0000   1.0000   1.0000   1.0000   1.0000   1.0000   1.0000   1.0000
     1.0000   1.0000   1.0000   0.0000   0.0000   0.0000   0.0000   0.0000

          k =-0.0000 0.1359-0.4078 (  6678 PWs)   bands (ev):

   -83.0811 -46.6084 -46.6084 -46.6083 -16.4338 -16.2522 -16.2255  -7.1959
    -6.9861  -6.9757  -6.9491  -6.6524   0.1176   0.7951   1.7240   1.8978
     2.4161   2.6351   2.6844   2.6894   2.9102   4.5736   4.5899   4.6598
     4.6948   4.7676   8.7851   8.7948  12.8721  13.7834  15.2370  16.1934

     occupation numbers 
     1.0000   1.0000   1.0000   1.0000   1.0000   1.0000   1.0000   1.0000
     1.0000   1.0000   1.0000   1.0000   1.0000   1.0000   1.0000   1.0000
     1.0000   1.0000   1.0000   1.0000   1.0000   1.0000   1.0000   1.0000
     1.0000   1.0000   0.0000   0.0000   0.0000   0.0000   0.0000   0.0000

          k =-0.0000 0.1359-0.2719 (  6670 PWs)   bands (ev):

   -83.0811 -46.6084 -46.6083 -46.6083 -16.4590 -16.2531 -16.2363  -7.0505
    -6.9771  -6.9671  -6.9493  -6.6492   0.1642   0.7574   1.5326   2.0231
     2.4809   2.6641   2.7022   2.7121   2.9183   4.5316   4.5831   4.5887
     4.6962   4.7095   7.5374   9.5517  12.8029  14.2521  15.0765  16.0823

     occupation numbers 
     1.0000   1.0000   1.0000   1.0000   1.0000   1.0000   1.0000   1.0000
     1.0000   1.0000   1.0000   1.0000   1.0000   1.0000   1.0000   1.0000
     1.0000   1.0000   1.0000   1.0000   1.0000   1.0000   1.0000   1.0000
     1.0000   1.0000   1.0000   0.0000   0.0000   0.0000   0.0000   0.0000

          k =-0.0000 0.1359-0.1359 (  6675 PWs)   bands (ev):

   -83.0811 -46.6083 -46.6083 -46.6083 -16.5135 -16.2560 -16.2512  -6.9591
    -6.9498  -6.9497  -6.7730  -6.6190   0.3333   0.6832   1.1241   2.2847
     2.6223   2.7101   2.7463   2.7553   2.8854   4.4688   4.4769   4.5821
     4.5914   4.6340   6.4403   9.4213  13.5757  14.4600  14.9168  16.9681

     occupation numbers 
     1.0000   1.0000   1.0000   1.0000   1.0000   1.0000   1.0000   1.0000
     1.0000   1.0000   1.0000   1.0000   1.0000   1.0000   1.0000   1.0000
     1.0000   1.0000   1.0000   1.0000   1.0000   1.0000   1.0000   1.0000
     1.0000   1.0000   1.0000   0.0000   0.0000   0.0000   0.0000   0.0000

          k = 0.0000 0.2719 0.0000 (  6676 PWs)   bands (ev):

   -83.0811 -46.6084 -46.6083 -46.6083 -16.4879 -16.2584 -16.2376  -7.0149
    -6.9673  -6.9673  -6.9405  -6.5334   0.7147   0.7147   0.8586   2.0813
     2.6036   2.6812   2.6812   2.7446   2.7446   4.4986   4.5241   4.6020
     4.7084   4.7084   7.2254   9.3845  12.9646  15.0551  15.0551  16.8879

     occupation numbers 
     1.0000   1.0000   1.0000   1.0000   1.0000   1.0000   1.0000   1.0000
     1.0000   1.0000   1.0000   1.0000   1.0000   1.0000   1.0000   1.0000
     1.0000   1.0000   1.0000   1.0000   1.0000   1.0000   1.0000   1.0000
     1.0000   1.0000   1.0000   0.0000   0.0000   0.0000   0.0000   0.0000

          k = 0.0000 0.2719 0.1359 (  6670 PWs)   bands (ev):

   -83.0811 -46.6084 -46.6083 -46.6083 -16.4590 -16.2531 -16.2363  -7.0505
    -6.9771  -6.9671  -6.9493  -6.6492   0.1642   0.7574   1.5326   2.0231
     2.4809   2.6641   2.7022   2.7120   2.9183   4.5316   4.5831   4.5887
     4.6962   4.7095   7.5374   9.5517  12.8029  14.2521  15.0765  16.0823

     occupation numbers 
     1.0000   1.0000   1.0000   1.0000   1.0000   1.0000   1.0000   1.0000
     1.0000   1.0000   1.0000   1.0000   1.0000   1.0000   1.0000   1.0000
     1.0000   1.0000   1.0000   1.0000   1.0000   1.0000   1.0000   1.0000
     1.0000   1.0000   1.0000   0.0000   0.0000   0.0000   0.0000   0.0000

          k = 0.0000 0.2719 0.2719 (  6670 PWs)   bands (ev):

   -83.0811 -46.6084 -46.6084 -46.6083 -16.4048 -16.2395 -16.2317  -7.1940
    -6.9967  -6.9669  -6.9668  -6.7999  -0.1867   0.8456   1.9034   2.0924
     2.4061   2.6257   2.6263   2.7945   3.0763   4.5385   4.6355   4.6618
     4.7071   4.7156   8.3570   9.8745  12.1324  13.2604  15.1503  15.9312

     occupation numbers 
     1.0000   1.0000   1.0000   1.0000   1.0000   1.0000   1.0000   1.0000
     1.0000   1.0000   1.0000   1.0000   1.0000   1.0000   1.0000   1.0000
     1.0000   1.0000   1.0000   1.0000   1.0000   1.0000   1.0000   1.0000
     1.0000   1.0000   1.0015   0.0000   0.0000   0.0000   0.0000   0.0000

          k =-0.0000 0.2719-0.4078 (  6658 PWs)   bands (ev):

   -83.0811 -46.6084 -46.6084 -46.6082 -16.3808 -16.2351 -16.2229  -7.3007
    -7.0064  -6.9755  -6.9667  -6.8364  -0.2946   0.8912   1.8477   2.2840
     2.3768   2.5918   2.6046   2.8695   3.1107   4.5628   4.6198   4.6749
     4.7125   4.7699   9.1606   9.6544  12.2473  12.3240  15.2229  15.9519

     occupation numbers 
     1.0000   1.0000   1.0000   1.0000   1.0000   1.0000   1.0000   1.0000
     1.0000   1.0000   1.0000   1.0000   1.0000   1.0000   1.0000   1.0000
     1.0000   1.0000   1.0000   1.0000   1.0000   1.0000   1.0000   1.0000
     1.0000   1.0000   0.0000   0.0000   0.0000   0.0000   0.0000   0.0000

          k =-0.0000 0.2719-0.2719 (  6670 PWs)   bands (ev):

   -83.0811 -46.6084 -46.6084 -46.6083 -16.4048 -16.2395 -16.2317  -7.1940
    -6.9967  -6.9669  -6.9668  -6.7999  -0.1867   0.8456   1.9034   2.0924
     2.4061   2.6259   2.6262   2.7945   3.0763   4.5385   4.6355   4.6618
     4.7071   4.7156   8.3570   9.8745  12.1324  13.2604  15.1503  15.9312

     occupation numbers 
     1.0000   1.0000   1.0000   1.0000   1.0000   1.0000   1.0000   1.0000
     1.0000   1.0000   1.0000   1.0000   1.0000   1.0000   1.0000   1.0000
     1.0000   1.0000   1.0000   1.0000   1.0000   1.0000   1.0000   1.0000
     1.0000   1.0000   1.0015   0.0000   0.0000   0.0000   0.0000   0.0000

          k = 0.0000 0.2719-0.1359 (  6670 PWs)   bands (ev):

   -83.0811 -46.6084 -46.6083 -46.6083 -16.4590 -16.2531 -16.2363  -7.0505
    -6.9771  -6.9671  -6.9493  -6.6492   0.1642   0.7574   1.5326   2.0231
     2.4809   2.6641   2.7022   2.7120   2.9183   4.5316   4.5831   4.5887
     4.6962   4.7095   7.5374   9.5517  12.8029  14.2521  15.0765  16.0823

     occupation numbers 
     1.0000   1.0000   1.0000   1.0000   1.0000   1.0000   1.0000   1.0000
     1.0000   1.0000   1.0000   1.0000   1.0000   1.0000   1.0000   1.0000
     1.0000   1.0000   1.0000   1.0000   1.0000   1.0000   1.0000   1.0000
     1.0000   1.0000   1.0000   0.0000   0.0000   0.0000   0.0000   0.0000

          k =-0.0000-0.4078-0.0000 (  6696 PWs)   bands (ev):

   -83.0812 -46.6085 -46.6083 -46.6083 -16.4626 -16.2576 -16.2268  -7.1669
    -6.9759  -6.9759  -6.9403  -6.5333   0.7490   0.7490   0.9490   1.9034
     2.5393   2.6548   2.6548   2.7280   2.7280   4.5252   4.5373   4.6639
     4.7666   4.7666   8.4750   8.6644  12.9373  15.2433  15.2433  16.3179

     occupation numbers 
     1.0000   1.0000   1.0000   1.0000   1.0000   1.0000   1.0000   1.0000
     1.0000   1.0000   1.0000   1.0000   1.0000   1.0000   1.0000   1.0000
     1.0000   1.0000   1.0000   1.0000   1.0000   1.0000   1.0000   1.0000
     1.0000   1.0000   1.0772   0.0037   0.0000   0.0000   0.0000   0.0000

          k =-0.0000-0.4078 0.1359 (  6678 PWs)   bands (ev):

   -83.0811 -46.6084 -46.6084 -46.6083 -16.4338 -16.2522 -16.2255  -7.1959
    -6.9861  -6.9757  -6.9491  -6.6524   0.1176   0.7951   1.7240   1.8978
     2.4161   2.6351   2.6844   2.6894   2.9102   4.5736   4.5899   4.6598
     4.6948   4.7676   8.7851   8.7948  12.8721  13.7834  15.2370  16.1934

     occupation numbers 
     1.0000   1.0000   1.0000   1.0000   1.0000   1.0000   1.0000   1.0000
     1.0000   1.0000   1.0000   1.0000   1.0000   1.0000   1.0000   1.0000
     1.0000   1.0000   1.0000   1.0000   1.0000   1.0000   1.0000   1.0000
     1.0000   1.0000   0.0000   0.0000   0.0000   0.0000   0.0000   0.0000

          k =-0.0000-0.4078 0.2719 (  6658 PWs)   bands (ev):

   -83.0811 -46.6084 -46.6084 -46.6082 -16.3808 -16.2352 -16.2229  -7.3007
    -7.0064  -6.9755  -6.9667  -6.8364  -0.2946   0.8912   1.8477   2.2840
     2.3768   2.5918   2.6047   2.8695   3.1107   4.5628   4.6198   4.6749
     4.7125   4.7699   9.1607   9.6544  12.2473  12.3240  15.2229  15.9519

     occupation numbers 
     1.0000   1.0000   1.0000   1.0000   1.0000   1.0000   1.0000   1.0000
     1.0000   1.0000   1.0000   1.0000   1.0000   1.0000   1.0000   1.0000
     1.0000   1.0000   1.0000   1.0000   1.0000   1.0000   1.0000   1.0000
     1.0000   1.0000   0.0000   0.0000   0.0000   0.0000   0.0000   0.0000

          k =-0.0000-0.4078-0.4078 (  6632 PWs)   bands (ev):

   -83.0811 -46.6083 -46.6083 -46.6082 -16.3585 -16.2216 -16.2216  -7.3829
    -7.0165  -6.9754  -6.9754  -6.8954  -0.4221   0.9415   1.8103   2.3941
     2.3942   2.5678   2.5678   3.0354   3.1884   4.5023   4.6186   4.7053
     4.7711   4.7711   9.4623  10.5355  11.5255  11.5255  15.2150  15.8351

     occupation numbers 
     1.0000   1.0000   1.0000   1.0000   1.0000   1.0000   1.0000   1.0000
     1.0000   1.0000   1.0000   1.0000   1.0000   1.0000   1.0000   1.0000
     1.0000   1.0000   1.0000   1.0000   1.0000   1.0000   1.0000   1.0000
     1.0000   1.0000   0.0000   0.0000   0.0000   0.0000   0.0000   0.0000

          k = 0.1359 0.0000 0.0000 (  6679 PWs)   bands (ev):

   -83.0811 -46.6083 -46.6083 -46.6083 -16.5418 -16.2599 -16.2542  -6.9500
    -6.9500  -6.9410  -6.6987  -6.5335   0.6466   0.6466   0.6942   2.4805
     2.7248   2.7248   2.7469   2.7934   2.7934   4.4219   4.4634   4.5218
     4.5858   4.5858   5.9824   9.2494  13.9081  14.8674  14.8674  17.4847

     occupation numbers 
     1.0000   1.0000   1.0000   1.0000   1.0000   1.0000   1.0000   1.0000
     1.0000   1.0000   1.0000   1.0000   1.0000   1.0000   1.0000   1.0000
     1.0000   1.0000   1.0000   1.0000   1.0000   1.0000   1.0000   1.0000
     1.0000   1.0000   1.0000   0.0000   0.0000   0.0000   0.0000   0.0000

          k = 0.1359 0.0000 0.1359 (  6675 PWs)   bands (ev):

   -83.0811 -46.6083 -46.6083 -46.6083 -16.5135 -16.2560 -16.2512  -6.9591
    -6.9498  -6.9497  -6.7730  -6.6190   0.3333   0.6832   1.1241   2.2847
     2.6223   2.7101   2.7462   2.7553   2.8854   4.4688   4.4769   4.5821
     4.5914   4.6340   6.4403   9.4213  13.5757  14.4600  14.9168  16.9681

     occupation numbers 
     1.0000   1.0000   1.0000   1.0000   1.0000   1.0000   1.0000   1.0000
     1.0000   1.0000   1.0000   1.0000   1.0000   1.0000   1.0000   1.0000
     1.0000   1.0000   1.0000   1.0000   1.0000   1.0000   1.0000   1.0000
     1.0000   1.0000   1.0000   0.0000   0.0000   0.0000   0.0000   0.0000

          k = 0.1359 0.0000 0.2719 (  6670 PWs)   bands (ev):

   -83.0811 -46.6084 -46.6083 -46.6083 -16.4590 -16.2531 -16.2363  -7.0505
    -6.9771  -6.9671  -6.9493  -6.6492   0.1642   0.7574   1.5326   2.0231
     2.4809   2.6641   2.7022   2.7121   2.9183   4.5316   4.5831   4.5887
     4.6962   4.7095   7.5374   9.5517  12.8029  14.2521  15.0765  16.0823

     occupation numbers 
     1.0000   1.0000   1.0000   1.0000   1.0000   1.0000   1.0000   1.0000
     1.0000   1.0000   1.0000   1.0000   1.0000   1.0000   1.0000   1.0000
     1.0000   1.0000   1.0000   1.0000   1.0000   1.0000   1.0000   1.0000
     1.0000   1.0000   1.0000   0.0000   0.0000   0.0000   0.0000   0.0000

          k = 0.1359-0.0000-0.4078 (  6678 PWs)   bands (ev):

   -83.0811 -46.6084 -46.6084 -46.6083 -16.4338 -16.2522 -16.2255  -7.1959
    -6.9861  -6.9757  -6.9491  -6.6524   0.1176   0.7951   1.7240   1.8978
     2.4161   2.6351   2.6844   2.6894   2.9102   4.5736   4.5899   4.6598
     4.6948   4.7676   8.7851   8.7948  12.8721  13.7834  15.2370  16.1933

     occupation numbers 
     1.0000   1.0000   1.0000   1.0000   1.0000   1.0000   1.0000   1.0000
     1.0000   1.0000   1.0000   1.0000   1.0000   1.0000   1.0000   1.0000
     1.0000   1.0000   1.0000   1.0000   1.0000   1.0000   1.0000   1.0000
     1.0000   1.0000   0.0000   0.0000   0.0000   0.0000   0.0000   0.0000

          k = 0.1359-0.0000-0.2719 (  6670 PWs)   bands (ev):

   -83.0811 -46.6084 -46.6083 -46.6083 -16.4590 -16.2531 -16.2363  -7.0505
    -6.9771  -6.9671  -6.9493  -6.6492   0.1642   0.7574   1.5326   2.0231
     2.4809   2.6641   2.7022   2.7121   2.9183   4.5316   4.5831   4.5887
     4.6962   4.7095   7.5374   9.5517  12.8029  14.2521  15.0765  16.0823

     occupation numbers 
     1.0000   1.0000   1.0000   1.0000   1.0000   1.0000   1.0000   1.0000
     1.0000   1.0000   1.0000   1.0000   1.0000   1.0000   1.0000   1.0000
     1.0000   1.0000   1.0000   1.0000   1.0000   1.0000   1.0000   1.0000
     1.0000   1.0000   1.0000   0.0000   0.0000   0.0000   0.0000   0.0000

          k = 0.1359-0.0000-0.1359 (  6675 PWs)   bands (ev):

   -83.0811 -46.6083 -46.6083 -46.6083 -16.5135 -16.2560 -16.2512  -6.9591
    -6.9498  -6.9497  -6.7730  -6.6190   0.3333   0.6832   1.1241   2.2847
     2.6223   2.7101   2.7462   2.7553   2.8854   4.4688   4.4769   4.5821
     4.5914   4.6340   6.4403   9.4213  13.5757  14.4600  14.9168  16.9681

     occupation numbers 
     1.0000   1.0000   1.0000   1.0000   1.0000   1.0000   1.0000   1.0000
     1.0000   1.0000   1.0000   1.0000   1.0000   1.0000   1.0000   1.0000
     1.0000   1.0000   1.0000   1.0000   1.0000   1.0000   1.0000   1.0000
     1.0000   1.0000   1.0000   0.0000   0.0000   0.0000   0.0000   0.0000

          k = 0.1359 0.1359 0.0000 (  6675 PWs)   bands (ev):

   -83.0811 -46.6083 -46.6083 -46.6083 -16.5135 -16.2560 -16.2512  -6.9591
    -6.9498  -6.9497  -6.7730  -6.6190   0.3333   0.6832   1.1241   2.2847
     2.6223   2.7101   2.7462   2.7553   2.8854   4.4688   4.4769   4.5821
     4.5914   4.6340   6.4403   9.4213  13.5757  14.4600  14.9168  16.9681

     occupation numbers 
     1.0000   1.0000   1.0000   1.0000   1.0000   1.0000   1.0000   1.0000
     1.0000   1.0000   1.0000   1.0000   1.0000   1.0000   1.0000   1.0000
     1.0000   1.0000   1.0000   1.0000   1.0000   1.0000   1.0000   1.0000
     1.0000   1.0000   1.0000   0.0000   0.0000   0.0000   0.0000   0.0000

          k = 0.1359 0.1359 0.1359 (  6700 PWs)   bands (ev):

   -83.0812 -46.6084 -46.6084 -46.6084 -16.4845 -16.2506 -16.2503  -6.9590
    -6.9588  -6.9588  -6.7729  -6.7729  -0.0211   1.1626   1.1645   2.1688
     2.5550   2.5559   2.8199   2.8204   2.9320   4.4784   4.4786   4.5808
     4.6638   4.6641   6.8310   9.5730  13.7247  13.7271  14.7661  16.6161

     occupation numbers 
     1.0000   1.0000   1.0000   1.0000   1.0000   1.0000   1.0000   1.0000
     1.0000   1.0000   1.0000   1.0000   1.0000   1.0000   1.0000   1.0000
     1.0000   1.0000   1.0000   1.0000   1.0000   1.0000   1.0000   1.0000
     1.0000   1.0000   1.0000   0.0000   0.0000   0.0000   0.0000   0.0000

          k = 0.1359 0.1359 0.2719 (  6654 PWs)   bands (ev):

   -83.0811 -46.6084 -46.6083 -46.6082 -16.4290 -16.2489 -16.2351  -7.0710
    -6.9772  -6.9765  -6.9584  -6.7725  -0.2882   1.2455   1.6827   1.9954
     2.3778   2.5346   2.7986   2.8410   2.9669   4.5184   4.5649   4.6164
     4.6920   4.7283   7.8182   9.6926  12.8187  14.1266  14.1554  16.2029

     occupation numbers 
     1.0000   1.0000   1.0000   1.0000   1.0000   1.0000   1.0000   1.0000
     1.0000   1.0000   1.0000   1.0000   1.0000   1.0000   1.0000   1.0000
     1.0000   1.0000   1.0000   1.0000   1.0000   1.0000   1.0000   1.0000
     1.0000   1.0000   1.0000   0.0000   0.0000   0.0000   0.0000   0.0000

          k = 0.1359 0.1359-0.4078 (  6666 PWs)   bands (ev):

   -83.0811 -46.6084 -46.6083 -46.6083 -16.4035 -16.2481 -16.2244  -7.2158
    -6.9863  -6.9854  -6.9582  -6.7724  -0.3692   1.2885   1.9059   1.9072
     2.3066   2.5762   2.7740   2.7828   2.9700   4.5410   4.6543   4.6711
     4.6757   4.7140   8.9046   9.0713  12.9102  13.3991  14.6035  15.4518

     occupation numbers 
     1.0000   1.0000   1.0000   1.0000   1.0000   1.0000   1.0000   1.0000
     1.0000   1.0000   1.0000   1.0000   1.0000   1.0000   1.0000   1.0000
     1.0000   1.0000   1.0000   1.0000   1.0000   1.0000   1.0000   1.0000
     1.0000   1.0000   0.0000   0.0000   0.0000   0.0000   0.0000   0.0000

          k = 0.1359 0.1359-0.2719 (  6654 PWs)   bands (ev):

   -83.0811 -46.6084 -46.6083 -46.6082 -16.4290 -16.2489 -16.2351  -7.0710
    -6.9772  -6.9765  -6.9584  -6.7725  -0.2882   1.2455   1.6827   1.9954
     2.3778   2.5346   2.7986   2.8410   2.9669   4.5184   4.5649   4.6164
     4.6920   4.7283   7.8182   9.6926  12.8187  14.1266  14.1554  16.2029

     occupation numbers 
     1.0000   1.0000   1.0000   1.0000   1.0000   1.0000   1.0000   1.0000
     1.0000   1.0000   1.0000   1.0000   1.0000   1.0000   1.0000   1.0000
     1.0000   1.0000   1.0000   1.0000   1.0000   1.0000   1.0000   1.0000
     1.0000   1.0000   1.0000   0.0000   0.0000   0.0000   0.0000   0.0000

          k = 0.1359 0.1359-0.1359 (  6700 PWs)   bands (ev):

   -83.0812 -46.6084 -46.6084 -46.6084 -16.4845 -16.2504 -16.2504  -6.9590
    -6.9588  -6.9588  -6.7729  -6.7729  -0.0211   1.1635   1.1635   2.1688
     2.5554   2.5555   2.8202   2.8202   2.9320   4.4785   4.4785   4.5808
     4.6640   4.6640   6.8310   9.5730  13.7259  13.7259  14.7661  16.6161

     occupation numbers 
     1.0000   1.0000   1.0000   1.0000   1.0000   1.0000   1.0000   1.0000
     1.0000   1.0000   1.0000   1.0000   1.0000   1.0000   1.0000   1.0000
     1.0000   1.0000   1.0000   1.0000   1.0000   1.0000   1.0000   1.0000
     1.0000   1.0000   1.0000   0.0000   0.0000   0.0000   0.0000   0.0000

          k = 0.1359 0.2719 0.0000 (  6670 PWs)   bands (ev):

   -83.0811 -46.6084 -46.6083 -46.6083 -16.4590 -16.2531 -16.2363  -7.0505
    -6.9771  -6.9671  -6.9493  -6.6492   0.1642   0.7574   1.5326   2.0231
     2.4809   2.6641   2.7022   2.7121   2.9183   4.5316   4.5831   4.5887
     4.6962   4.7095   7.5374   9.5517  12.8029  14.2521  15.0765  16.0823

     occupation numbers 
     1.0000   1.0000   1.0000   1.0000   1.0000   1.0000   1.0000   1.0000
     1.0000   1.0000   1.0000   1.0000   1.0000   1.0000   1.0000   1.0000
     1.0000   1.0000   1.0000   1.0000   1.0000   1.0000   1.0000   1.0000
     1.0000   1.0000   1.0000   0.0000   0.0000   0.0000   0.0000   0.0000

          k = 0.1359 0.2719 0.1359 (  6654 PWs)   bands (ev):

   -83.0811 -46.6084 -46.6083 -46.6082 -16.4290 -16.2489 -16.2351  -7.0710
    -6.9772  -6.9765  -6.9584  -6.7725  -0.2882   1.2455   1.6827   1.9954
     2.3778   2.5346   2.7986   2.8410   2.9670   4.5184   4.5649   4.6164
     4.6920   4.7283   7.8182   9.6926  12.8187  14.1266  14.1554  16.2029

     occupation numbers 
     1.0000   1.0000   1.0000   1.0000   1.0000   1.0000   1.0000   1.0000
     1.0000   1.0000   1.0000   1.0000   1.0000   1.0000   1.0000   1.0000
     1.0000   1.0000   1.0000   1.0000   1.0000   1.0000   1.0000   1.0000
     1.0000   1.0000   1.0000   0.0000   0.0000   0.0000   0.0000   0.0000

          k = 0.1359 0.2719 0.2719 (  6664 PWs)   bands (ev):

   -83.0811 -46.6084 -46.6084 -46.6083 -16.3723 -16.2373 -16.2309  -7.1938
    -6.9963  -6.9765  -6.9763  -6.9316  -0.6716   1.5121   1.9254   2.1042
     2.2831   2.5187   2.8231   2.9236   3.0915   4.5384   4.5759   4.6091
     4.7111   4.7344   8.5526   9.9690  12.3479  13.2883  14.1237  15.6410

     occupation numbers 
     1.0000   1.0000   1.0000   1.0000   1.0000   1.0000   1.0000   1.0000
     1.0000   1.0000   1.0000   1.0000   1.0000   1.0000   1.0000   1.0000
     1.0000   1.0000   1.0000   1.0000   1.0000   1.0000   1.0000   1.0000
     1.0000   1.0000   0.4892   0.0000   0.0000   0.0000   0.0000   0.0000

          k = 0.1359 0.2719-0.4078 (  6652 PWs)   bands (ev):

   -83.0811 -46.6085 -46.6084 -46.6082 -16.3475 -16.2338 -16.2220  -7.3030
    -7.0059  -6.9853  -6.9761  -6.9607  -0.7933   1.5852   1.8887   2.2089
     2.2316   2.6933   2.8040   2.9174   3.1301   4.5531   4.5886   4.6447
     4.6983   4.7221   9.1876   9.8898  12.3149  12.5306  14.5426  15.0783

     occupation numbers 
     1.0000   1.0000   1.0000   1.0000   1.0000   1.0000   1.0000   1.0000
     1.0000   1.0000   1.0000   1.0000   1.0000   1.0000   1.0000   1.0000
     1.0000   1.0000   1.0000   1.0000   1.0000   1.0000   1.0000   1.0000
     1.0000   1.0000   0.0000   0.0000   0.0000   0.0000   0.0000   0.0000

          k = 0.1359 0.2719-0.2719 (  6664 PWs)   bands (ev):

   -83.0811 -46.6084 -46.6084 -46.6083 -16.3723 -16.2373 -16.2309  -7.1938
    -6.9963  -6.9765  -6.9763  -6.9316  -0.6716   1.5121   1.9254   2.1042
     2.2831   2.5187   2.8231   2.9236   3.0915   4.5384   4.5759   4.6091
     4.7111   4.7344   8.5526   9.9690  12.3479  13.2883  14.1237  15.6410

     occupation numbers 
     1.0000   1.0000   1.0000   1.0000   1.0000   1.0000   1.0000   1.0000
     1.0000   1.0000   1.0000   1.0000   1.0000   1.0000   1.0000   1.0000
     1.0000   1.0000   1.0000   1.0000   1.0000   1.0000   1.0000   1.0000
     1.0000   1.0000   0.4892   0.0000   0.0000   0.0000   0.0000   0.0000

          k = 0.1359 0.2719-0.1359 (  6654 PWs)   bands (ev):

   -83.0811 -46.6084 -46.6083 -46.6082 -16.4290 -16.2489 -16.2351  -7.0710
    -6.9772  -6.9765  -6.9584  -6.7725  -0.2882   1.2455   1.6827   1.9954
     2.3778   2.5346   2.7986   2.8410   2.9670   4.5184   4.5649   4.6164
     4.6920   4.7283   7.8182   9.6926  12.8187  14.1266  14.1554  16.2029

     occupation numbers 
     1.0000   1.0000   1.0000   1.0000   1.0000   1.0000   1.0000   1.0000
     1.0000   1.0000   1.0000   1.0000   1.0000   1.0000   1.0000   1.0000
     1.0000   1.0000   1.0000   1.0000   1.0000   1.0000   1.0000   1.0000
     1.0000   1.0000   1.0000   0.0000   0.0000   0.0000   0.0000   0.0000

          k = 0.1359-0.4078-0.0000 (  6678 PWs)   bands (ev):

   -83.0811 -46.6084 -46.6084 -46.6083 -16.4338 -16.2522 -16.2255  -7.1959
    -6.9861  -6.9757  -6.9491  -6.6524   0.1176   0.7951   1.7240   1.8978
     2.4161   2.6351   2.6844   2.6894   2.9102   4.5736   4.5899   4.6598
     4.6948   4.7676   8.7851   8.7948  12.8721  13.7834  15.2370  16.1934

     occupation numbers 
     1.0000   1.0000   1.0000   1.0000   1.0000   1.0000   1.0000   1.0000
     1.0000   1.0000   1.0000   1.0000   1.0000   1.0000   1.0000   1.0000
     1.0000   1.0000   1.0000   1.0000   1.0000   1.0000   1.0000   1.0000
     1.0000   1.0000   0.0000   0.0000   0.0000   0.0000   0.0000   0.0000

          k = 0.1359-0.4078 0.1359 (  6666 PWs)   bands (ev):

   -83.0811 -46.6084 -46.6083 -46.6083 -16.4035 -16.2481 -16.2243  -7.2158
    -6.9863  -6.9854  -6.9581  -6.7724  -0.3692   1.2885   1.9060   1.9070
     2.3066   2.5762   2.7740   2.7828   2.9700   4.5410   4.6543   4.6711
     4.6757   4.7140   8.9046   9.0713  12.9102  13.3991  14.6035  15.4518

     occupation numbers 
     1.0000   1.0000   1.0000   1.0000   1.0000   1.0000   1.0000   1.0000
     1.0000   1.0000   1.0000   1.0000   1.0000   1.0000   1.0000   1.0000
     1.0000   1.0000   1.0000   1.0000   1.0000   1.0000   1.0000   1.0000
     1.0000   1.0000   0.0000   0.0000   0.0000   0.0000   0.0000   0.0000

          k = 0.1359-0.4078 0.2719 (  6652 PWs)   bands (ev):

   -83.0811 -46.6085 -46.6084 -46.6082 -16.3475 -16.2338 -16.2220  -7.3030
    -7.0059  -6.9853  -6.9761  -6.9607  -0.7933   1.5852   1.8887   2.2089
     2.2316   2.6933   2.8040   2.9174   3.1301   4.5531   4.5886   4.6447
     4.6983   4.7221   9.1876   9.8897  12.3149  12.5306  14.5426  15.0783

     occupation numbers 
     1.0000   1.0000   1.0000   1.0000   1.0000   1.0000   1.0000   1.0000
     1.0000   1.0000   1.0000   1.0000   1.0000   1.0000   1.0000   1.0000
     1.0000   1.0000   1.0000   1.0000   1.0000   1.0000   1.0000   1.0000
     1.0000   1.0000   0.0000   0.0000   0.0000   0.0000   0.0000   0.0000

          k = 0.1359-0.4078-0.4078 (  6656 PWs)   bands (ev):

   -83.0811 -46.6084 -46.6084 -46.6082 -16.3244 -16.2208 -16.2208  -7.3827
    -7.0165  -7.0158  -6.9850  -6.9850  -0.9293   1.6705   1.8647   2.2259
     2.2259   2.8084   2.8085   3.0362   3.2046   4.4905   4.6204   4.6850
     4.6959   4.6959   9.3896  10.7330  11.7583  11.7583  14.6793  15.2635

     occupation numbers 
     1.0000   1.0000   1.0000   1.0000   1.0000   1.0000   1.0000   1.0000
     1.0000   1.0000   1.0000   1.0000   1.0000   1.0000   1.0000   1.0000
     1.0000   1.0000   1.0000   1.0000   1.0000   1.0000   1.0000   1.0000
     1.0000   1.0000   0.0000   0.0000   0.0000   0.0000   0.0000   0.0000

          k = 0.1359-0.4078-0.2719 (  6652 PWs)   bands (ev):

   -83.0811 -46.6085 -46.6084 -46.6082 -16.3475 -16.2338 -16.2220  -7.3030
    -7.0059  -6.9853  -6.9761  -6.9607  -0.7933   1.5852   1.8887   2.2089
     2.2316   2.6933   2.8040   2.9174   3.1301   4.5531   4.5886   4.6447
     4.6983   4.7221   9.1876   9.8897  12.3149  12.5306  14.5426  15.0783

     occupation numbers 
     1.0000   1.0000   1.0000   1.0000   1.0000   1.0000   1.0000   1.0000
     1.0000   1.0000   1.0000   1.0000   1.0000   1.0000   1.0000   1.0000
     1.0000   1.0000   1.0000   1.0000   1.0000   1.0000   1.0000   1.0000
     1.0000   1.0000   0.0000   0.0000   0.0000   0.0000   0.0000   0.0000

          k = 0.1359-0.4078-0.1359 (  6666 PWs)   bands (ev):

   -83.0811 -46.6084 -46.6083 -46.6083 -16.4035 -16.2481 -16.2243  -7.2158
    -6.9863  -6.9854  -6.9582  -6.7724  -0.3692   1.2885   1.9060   1.9070
     2.3066   2.5762   2.7740   2.7828   2.9700   4.5410   4.6543   4.6711
     4.6757   4.7140   8.9046   9.0713  12.9102  13.3991  14.6035  15.4518

     occupation numbers 
     1.0000   1.0000   1.0000   1.0000   1.0000   1.0000   1.0000   1.0000
     1.0000   1.0000   1.0000   1.0000   1.0000   1.0000   1.0000   1.0000
     1.0000   1.0000   1.0000   1.0000   1.0000   1.0000   1.0000   1.0000
     1.0000   1.0000   0.0000   0.0000   0.0000   0.0000   0.0000   0.0000

          k = 0.1359-0.2719-0.0000 (  6670 PWs)   bands (ev):

   -83.0811 -46.6084 -46.6083 -46.6083 -16.4590 -16.2531 -16.2363  -7.0505
    -6.9771  -6.9671  -6.9493  -6.6492   0.1642   0.7574   1.5326   2.0231
     2.4809   2.6641   2.7022   2.7121   2.9183   4.5316   4.5831   4.5887
     4.6962   4.7095   7.5374   9.5517  12.8029  14.2521  15.0765  16.0823

     occupation numbers 
     1.0000   1.0000   1.0000   1.0000   1.0000   1.0000   1.0000   1.0000
     1.0000   1.0000   1.0000   1.0000   1.0000   1.0000   1.0000   1.0000
     1.0000   1.0000   1.0000   1.0000   1.0000   1.0000   1.0000   1.0000
     1.0000   1.0000   1.0000   0.0000   0.0000   0.0000   0.0000   0.0000

          k = 0.1359-0.2719 0.1359 (  6654 PWs)   bands (ev):

   -83.0811 -46.6084 -46.6083 -46.6082 -16.4290 -16.2489 -16.2351  -7.0710
    -6.9772  -6.9765  -6.9584  -6.7725  -0.2882   1.2455   1.6827   1.9954
     2.3778   2.5346   2.7986   2.8410   2.9670   4.5184   4.5649   4.6164
     4.6920   4.7283   7.8182   9.6926  12.8187  14.1266  14.1554  16.2029

     occupation numbers 
     1.0000   1.0000   1.0000   1.0000   1.0000   1.0000   1.0000   1.0000
     1.0000   1.0000   1.0000   1.0000   1.0000   1.0000   1.0000   1.0000
     1.0000   1.0000   1.0000   1.0000   1.0000   1.0000   1.0000   1.0000
     1.0000   1.0000   1.0000   0.0000   0.0000   0.0000   0.0000   0.0000

          k = 0.1359-0.2719 0.2719 (  6664 PWs)   bands (ev):

   -83.0811 -46.6084 -46.6084 -46.6083 -16.3723 -16.2373 -16.2309  -7.1938
    -6.9963  -6.9765  -6.9763  -6.9316  -0.6716   1.5121   1.9254   2.1042
     2.2831   2.5187   2.8231   2.9236   3.0915   4.5384   4.5759   4.6091
     4.7111   4.7344   8.5526   9.9690  12.3479  13.2883  14.1237  15.6410

     occupation numbers 
     1.0000   1.0000   1.0000   1.0000   1.0000   1.0000   1.0000   1.0000
     1.0000   1.0000   1.0000   1.0000   1.0000   1.0000   1.0000   1.0000
     1.0000   1.0000   1.0000   1.0000   1.0000   1.0000   1.0000   1.0000
     1.0000   1.0000   0.4892   0.0000   0.0000   0.0000   0.0000   0.0000

          k = 0.1359-0.2719-0.4078 (  6652 PWs)   bands (ev):

   -83.0811 -46.6085 -46.6084 -46.6082 -16.3475 -16.2338 -16.2220  -7.3030
    -7.0059  -6.9853  -6.9761  -6.9607  -0.7933   1.5852   1.8887   2.2089
     2.2316   2.6933   2.8040   2.9174   3.1301   4.5531   4.5886   4.6447
     4.6983   4.7221   9.1876   9.8898  12.3149  12.5306  14.5426  15.0783

     occupation numbers 
     1.0000   1.0000   1.0000   1.0000   1.0000   1.0000   1.0000   1.0000
     1.0000   1.0000   1.0000   1.0000   1.0000   1.0000   1.0000   1.0000
     1.0000   1.0000   1.0000   1.0000   1.0000   1.0000   1.0000   1.0000
     1.0000   1.0000   0.0000   0.0000   0.0000   0.0000   0.0000   0.0000

          k = 0.1359-0.2719-0.2719 (  6664 PWs)   bands (ev):

   -83.0811 -46.6084 -46.6084 -46.6083 -16.3723 -16.2373 -16.2309  -7.1938
    -6.9963  -6.9765  -6.9763  -6.9316  -0.6716   1.5121   1.9254   2.1042
     2.2831   2.5187   2.8231   2.9236   3.0915   4.5384   4.5759   4.6091
     4.7111   4.7344   8.5526   9.9690  12.3479  13.2883  14.1236  15.6410

     occupation numbers 
     1.0000   1.0000   1.0000   1.0000   1.0000   1.0000   1.0000   1.0000
     1.0000   1.0000   1.0000   1.0000   1.0000   1.0000   1.0000   1.0000
     1.0000   1.0000   1.0000   1.0000   1.0000   1.0000   1.0000   1.0000
     1.0000   1.0000   0.4892   0.0000   0.0000   0.0000   0.0000   0.0000

          k = 0.1359-0.2719-0.1359 (  6654 PWs)   bands (ev):

   -83.0811 -46.6084 -46.6083 -46.6082 -16.4290 -16.2489 -16.2351  -7.0710
    -6.9772  -6.9765  -6.9584  -6.7725  -0.2882   1.2455   1.6827   1.9954
     2.3778   2.5346   2.7986   2.8410   2.9670   4.5184   4.5649   4.6164
     4.6920   4.7283   7.8182   9.6926  12.8187  14.1266  14.1554  16.2029

     occupation numbers 
     1.0000   1.0000   1.0000   1.0000   1.0000   1.0000   1.0000   1.0000
     1.0000   1.0000   1.0000   1.0000   1.0000   1.0000   1.0000   1.0000
     1.0000   1.0000   1.0000   1.0000   1.0000   1.0000   1.0000   1.0000
     1.0000   1.0000   1.0000   0.0000   0.0000   0.0000   0.0000   0.0000

          k = 0.1359-0.1359-0.0000 (  6675 PWs)   bands (ev):

   -83.0811 -46.6083 -46.6083 -46.6083 -16.5135 -16.2560 -16.2512  -6.9591
    -6.9498  -6.9497  -6.7730  -6.6190   0.3333   0.6832   1.1241   2.2847
     2.6223   2.7101   2.7462   2.7553   2.8854   4.4688   4.4769   4.5821
     4.5914   4.6340   6.4403   9.4213  13.5757  14.4600  14.9168  16.9681

     occupation numbers 
     1.0000   1.0000   1.0000   1.0000   1.0000   1.0000   1.0000   1.0000
     1.0000   1.0000   1.0000   1.0000   1.0000   1.0000   1.0000   1.0000
     1.0000   1.0000   1.0000   1.0000   1.0000   1.0000   1.0000   1.0000
     1.0000   1.0000   1.0000   0.0000   0.0000   0.0000   0.0000   0.0000

          k = 0.1359-0.1359 0.1359 (  6700 PWs)   bands (ev):

   -83.0812 -46.6084 -46.6084 -46.6084 -16.4845 -16.2505 -16.2504  -6.9590
    -6.9588  -6.9588  -6.7729  -6.7729  -0.0211   1.1632   1.1638   2.1688
     2.5553   2.5556   2.8201   2.8202   2.9320   4.4784   4.4785   4.5808
     4.6639   4.6640   6.8310   9.5730  13.7255  13.7263  14.7661  16.6161

     occupation numbers 
     1.0000   1.0000   1.0000   1.0000   1.0000   1.0000   1.0000   1.0000
     1.0000   1.0000   1.0000   1.0000   1.0000   1.0000   1.0000   1.0000
     1.0000   1.0000   1.0000   1.0000   1.0000   1.0000   1.0000   1.0000
     1.0000   1.0000   1.0000   0.0000   0.0000   0.0000   0.0000   0.0000

          k = 0.1359-0.1359 0.2719 (  6654 PWs)   bands (ev):

   -83.0811 -46.6084 -46.6083 -46.6082 -16.4290 -16.2489 -16.2351  -7.0710
    -6.9772  -6.9765  -6.9584  -6.7725  -0.2882   1.2455   1.6827   1.9954
     2.3778   2.5346   2.7986   2.8410   2.9669   4.5184   4.5649   4.6164
     4.6920   4.7283   7.8182   9.6926  12.8187  14.1266  14.1554  16.2029

     occupation numbers 
     1.0000   1.0000   1.0000   1.0000   1.0000   1.0000   1.0000   1.0000
     1.0000   1.0000   1.0000   1.0000   1.0000   1.0000   1.0000   1.0000
     1.0000   1.0000   1.0000   1.0000   1.0000   1.0000   1.0000   1.0000
     1.0000   1.0000   1.0000   0.0000   0.0000   0.0000   0.0000   0.0000

          k = 0.1359-0.1359-0.4078 (  6666 PWs)   bands (ev):

   -83.0811 -46.6084 -46.6083 -46.6083 -16.4035 -16.2481 -16.2244  -7.2158
    -6.9863  -6.9854  -6.9582  -6.7724  -0.3692   1.2885   1.9059   1.9072
     2.3066   2.5762   2.7740   2.7828   2.9700   4.5410   4.6543   4.6711
     4.6757   4.7140   8.9046   9.0713  12.9102  13.3991  14.6035  15.4518

     occupation numbers 
     1.0000   1.0000   1.0000   1.0000   1.0000   1.0000   1.0000   1.0000
     1.0000   1.0000   1.0000   1.0000   1.0000   1.0000   1.0000   1.0000
     1.0000   1.0000   1.0000   1.0000   1.0000   1.0000   1.0000   1.0000
     1.0000   1.0000   0.0000   0.0000   0.0000   0.0000   0.0000   0.0000

          k = 0.1359-0.1359-0.2719 (  6654 PWs)   bands (ev):

   -83.0811 -46.6084 -46.6083 -46.6082 -16.4290 -16.2489 -16.2351  -7.0710
    -6.9772  -6.9765  -6.9584  -6.7725  -0.2882   1.2455   1.6827   1.9954
     2.3778   2.5346   2.7986   2.8410   2.9669   4.5184   4.5649   4.6164
     4.6920   4.7283   7.8182   9.6926  12.8187  14.1266  14.1554  16.2029

     occupation numbers 
     1.0000   1.0000   1.0000   1.0000   1.0000   1.0000   1.0000   1.0000
     1.0000   1.0000   1.0000   1.0000   1.0000   1.0000   1.0000   1.0000
     1.0000   1.0000   1.0000   1.0000   1.0000   1.0000   1.0000   1.0000
     1.0000   1.0000   1.0000   0.0000   0.0000   0.0000   0.0000   0.0000

          k = 0.1359-0.1359-0.1359 (  6700 PWs)   bands (ev):

   -83.0812 -46.6084 -46.6084 -46.6084 -16.4845 -16.2505 -16.2503  -6.9590
    -6.9588  -6.9588  -6.7729  -6.7729  -0.0211   1.1629   1.1641   2.1688
     2.5551   2.5558   2.8200   2.8203   2.9320   4.4784   4.4785   4.5808
     4.6639   4.6641   6.8310   9.5730  13.7251  13.7267  14.7661  16.6161

     occupation numbers 
     1.0000   1.0000   1.0000   1.0000   1.0000   1.0000   1.0000   1.0000
     1.0000   1.0000   1.0000   1.0000   1.0000   1.0000   1.0000   1.0000
     1.0000   1.0000   1.0000   1.0000   1.0000   1.0000   1.0000   1.0000
     1.0000   1.0000   1.0000   0.0000   0.0000   0.0000   0.0000   0.0000

          k = 0.2719 0.0000 0.0000 (  6676 PWs)   bands (ev):

   -83.0811 -46.6084 -46.6083 -46.6083 -16.4879 -16.2584 -16.2376  -7.0149
    -6.9673  -6.9673  -6.9405  -6.5334   0.7147   0.7147   0.8586   2.0813
     2.6036   2.6812   2.6813   2.7446   2.7446   4.4986   4.5241   4.6020
     4.7084   4.7084   7.2254   9.3845  12.9646  15.0551  15.0551  16.8880

     occupation numbers 
     1.0000   1.0000   1.0000   1.0000   1.0000   1.0000   1.0000   1.0000
     1.0000   1.0000   1.0000   1.0000   1.0000   1.0000   1.0000   1.0000
     1.0000   1.0000   1.0000   1.0000   1.0000   1.0000   1.0000   1.0000
     1.0000   1.0000   1.0000   0.0000   0.0000   0.0000   0.0000   0.0000

          k = 0.2719 0.0000 0.1359 (  6670 PWs)   bands (ev):

   -83.0811 -46.6084 -46.6083 -46.6083 -16.4590 -16.2531 -16.2363  -7.0505
    -6.9771  -6.9671  -6.9493  -6.6492   0.1642   0.7574   1.5326   2.0231
     2.4809   2.6641   2.7022   2.7121   2.9183   4.5316   4.5831   4.5887
     4.6962   4.7095   7.5374   9.5517  12.8029  14.2521  15.0765  16.0823

     occupation numbers 
     1.0000   1.0000   1.0000   1.0000   1.0000   1.0000   1.0000   1.0000
     1.0000   1.0000   1.0000   1.0000   1.0000   1.0000   1.0000   1.0000
     1.0000   1.0000   1.0000   1.0000   1.0000   1.0000   1.0000   1.0000
     1.0000   1.0000   1.0000   0.0000   0.0000   0.0000   0.0000   0.0000

          k = 0.2719 0.0000 0.2719 (  6670 PWs)   bands (ev):

   -83.0811 -46.6084 -46.6084 -46.6083 -16.4048 -16.2395 -16.2317  -7.1940
    -6.9967  -6.9669  -6.9668  -6.7999  -0.1867   0.8456   1.9034   2.0924
     2.4061   2.6258   2.6263   2.7945   3.0763   4.5385   4.6355   4.6618
     4.7071   4.7156   8.3570   9.8745  12.1324  13.2604  15.1503  15.9312

     occupation numbers 
     1.0000   1.0000   1.0000   1.0000   1.0000   1.0000   1.0000   1.0000
     1.0000   1.0000   1.0000   1.0000   1.0000   1.0000   1.0000   1.0000
     1.0000   1.0000   1.0000   1.0000   1.0000   1.0000   1.0000   1.0000
     1.0000   1.0000   1.0015   0.0000   0.0000   0.0000   0.0000   0.0000

          k = 0.2719-0.0000-0.4078 (  6658 PWs)   bands (ev):

   -83.0811 -46.6084 -46.6084 -46.6082 -16.3808 -16.2352 -16.2229  -7.3007
    -7.0064  -6.9755  -6.9667  -6.8364  -0.2946   0.8912   1.8477   2.2840
     2.3768   2.5918   2.6046   2.8695   3.1107   4.5628   4.6198   4.6749
     4.7125   4.7699   9.1607   9.6544  12.2473  12.3240  15.2229  15.9519

     occupation numbers 
     1.0000   1.0000   1.0000   1.0000   1.0000   1.0000   1.0000   1.0000
     1.0000   1.0000   1.0000   1.0000   1.0000   1.0000   1.0000   1.0000
     1.0000   1.0000   1.0000   1.0000   1.0000   1.0000   1.0000   1.0000
     1.0000   1.0000   0.0000   0.0000   0.0000   0.0000   0.0000   0.0000

          k = 0.2719-0.0000-0.2719 (  6670 PWs)   bands (ev):

   -83.0811 -46.6084 -46.6084 -46.6083 -16.4048 -16.2395 -16.2317  -7.1940
    -6.9967  -6.9669  -6.9668  -6.7999  -0.1867   0.8456   1.9034   2.0924
     2.4061   2.6259   2.6262   2.7945   3.0763   4.5385   4.6355   4.6618
     4.7071   4.7156   8.3570   9.8745  12.1324  13.2604  15.1503  15.9312

     occupation numbers 
     1.0000   1.0000   1.0000   1.0000   1.0000   1.0000   1.0000   1.0000
     1.0000   1.0000   1.0000   1.0000   1.0000   1.0000   1.0000   1.0000
     1.0000   1.0000   1.0000   1.0000   1.0000   1.0000   1.0000   1.0000
     1.0000   1.0000   1.0015   0.0000   0.0000   0.0000   0.0000   0.0000

          k = 0.2719-0.0000-0.1359 (  6670 PWs)   bands (ev):

   -83.0811 -46.6084 -46.6083 -46.6083 -16.4590 -16.2531 -16.2363  -7.0505
    -6.9771  -6.9671  -6.9493  -6.6492   0.1642   0.7574   1.5326   2.0231
     2.4809   2.6641   2.7022   2.7121   2.9183   4.5316   4.5831   4.5887
     4.6962   4.7095   7.5374   9.5517  12.8029  14.2521  15.0765  16.0823

     occupation numbers 
     1.0000   1.0000   1.0000   1.0000   1.0000   1.0000   1.0000   1.0000
     1.0000   1.0000   1.0000   1.0000   1.0000   1.0000   1.0000   1.0000
     1.0000   1.0000   1.0000   1.0000   1.0000   1.0000   1.0000   1.0000
     1.0000   1.0000   1.0000   0.0000   0.0000   0.0000   0.0000   0.0000

          k = 0.2719 0.1359 0.0000 (  6670 PWs)   bands (ev):

   -83.0811 -46.6084 -46.6083 -46.6083 -16.4590 -16.2531 -16.2363  -7.0505
    -6.9771  -6.9671  -6.9493  -6.6492   0.1642   0.7574   1.5326   2.0231
     2.4809   2.6641   2.7022   2.7121   2.9183   4.5316   4.5831   4.5887
     4.6962   4.7095   7.5374   9.5517  12.8029  14.2521  15.0765  16.0823

     occupation numbers 
     1.0000   1.0000   1.0000   1.0000   1.0000   1.0000   1.0000   1.0000
     1.0000   1.0000   1.0000   1.0000   1.0000   1.0000   1.0000   1.0000
     1.0000   1.0000   1.0000   1.0000   1.0000   1.0000   1.0000   1.0000
     1.0000   1.0000   1.0000   0.0000   0.0000   0.0000   0.0000   0.0000

          k = 0.2719 0.1359 0.1359 (  6654 PWs)   bands (ev):

   -83.0811 -46.6084 -46.6083 -46.6082 -16.4290 -16.2489 -16.2351  -7.0710
    -6.9772  -6.9765  -6.9584  -6.7725  -0.2882   1.2455   1.6827   1.9954
     2.3778   2.5346   2.7986   2.8410   2.9670   4.5184   4.5649   4.6164
     4.6920   4.7283   7.8182   9.6926  12.8187  14.1266  14.1554  16.2029

     occupation numbers 
     1.0000   1.0000   1.0000   1.0000   1.0000   1.0000   1.0000   1.0000
     1.0000   1.0000   1.0000   1.0000   1.0000   1.0000   1.0000   1.0000
     1.0000   1.0000   1.0000   1.0000   1.0000   1.0000   1.0000   1.0000
     1.0000   1.0000   1.0000   0.0000   0.0000   0.0000   0.0000   0.0000

          k = 0.2719 0.1359 0.2719 (  6664 PWs)   bands (ev):

   -83.0811 -46.6084 -46.6084 -46.6083 -16.3723 -16.2373 -16.2309  -7.1938
    -6.9963  -6.9765  -6.9763  -6.9316  -0.6716   1.5121   1.9254   2.1042
     2.2831   2.5187   2.8231   2.9236   3.0915   4.5384   4.5759   4.6091
     4.7111   4.7344   8.5526   9.9690  12.3479  13.2883  14.1237  15.6410

     occupation numbers 
     1.0000   1.0000   1.0000   1.0000   1.0000   1.0000   1.0000   1.0000
     1.0000   1.0000   1.0000   1.0000   1.0000   1.0000   1.0000   1.0000
     1.0000   1.0000   1.0000   1.0000   1.0000   1.0000   1.0000   1.0000
     1.0000   1.0000   0.4891   0.0000   0.0000   0.0000   0.0000   0.0000

          k = 0.2719 0.1359-0.4078 (  6652 PWs)   bands (ev):

   -83.0811 -46.6085 -46.6084 -46.6082 -16.3475 -16.2338 -16.2220  -7.3030
    -7.0059  -6.9853  -6.9761  -6.9607  -0.7933   1.5852   1.8887   2.2089
     2.2316   2.6933   2.8040   2.9174   3.1301   4.5531   4.5886   4.6447
     4.6983   4.7221   9.1876   9.8898  12.3149  12.5306  14.5426  15.0783

     occupation numbers 
     1.0000   1.0000   1.0000   1.0000   1.0000   1.0000   1.0000   1.0000
     1.0000   1.0000   1.0000   1.0000   1.0000   1.0000   1.0000   1.0000
     1.0000   1.0000   1.0000   1.0000   1.0000   1.0000   1.0000   1.0000
     1.0000   1.0000   0.0000   0.0000   0.0000   0.0000   0.0000   0.0000

          k = 0.2719 0.1359-0.2719 (  6664 PWs)   bands (ev):

   -83.0811 -46.6084 -46.6084 -46.6083 -16.3723 -16.2373 -16.2309  -7.1938
    -6.9963  -6.9765  -6.9763  -6.9316  -0.6716   1.5121   1.9254   2.1042
     2.2831   2.5187   2.8231   2.9236   3.0915   4.5384   4.5759   4.6091
     4.7111   4.7344   8.5526   9.9690  12.3479  13.2883  14.1237  15.6410

     occupation numbers 
     1.0000   1.0000   1.0000   1.0000   1.0000   1.0000   1.0000   1.0000
     1.0000   1.0000   1.0000   1.0000   1.0000   1.0000   1.0000   1.0000
     1.0000   1.0000   1.0000   1.0000   1.0000   1.0000   1.0000   1.0000
     1.0000   1.0000   0.4892   0.0000   0.0000   0.0000   0.0000   0.0000

          k = 0.2719 0.1359-0.1359 (  6654 PWs)   bands (ev):

   -83.0811 -46.6084 -46.6083 -46.6082 -16.4290 -16.2489 -16.2351  -7.0710
    -6.9772  -6.9765  -6.9584  -6.7725  -0.2882   1.2455   1.6827   1.9954
     2.3778   2.5346   2.7986   2.8410   2.9670   4.5184   4.5649   4.6164
     4.6920   4.7283   7.8182   9.6926  12.8187  14.1266  14.1554  16.2028

     occupation numbers 
     1.0000   1.0000   1.0000   1.0000   1.0000   1.0000   1.0000   1.0000
     1.0000   1.0000   1.0000   1.0000   1.0000   1.0000   1.0000   1.0000
     1.0000   1.0000   1.0000   1.0000   1.0000   1.0000   1.0000   1.0000
     1.0000   1.0000   1.0000   0.0000   0.0000   0.0000   0.0000   0.0000

          k = 0.2719 0.2719 0.0000 (  6670 PWs)   bands (ev):

   -83.0811 -46.6084 -46.6084 -46.6083 -16.4048 -16.2395 -16.2317  -7.1940
    -6.9967  -6.9669  -6.9668  -6.7999  -0.1867   0.8456   1.9034   2.0924
     2.4060   2.6258   2.6262   2.7945   3.0763   4.5385   4.6355   4.6618
     4.7071   4.7156   8.3570   9.8745  12.1324  13.2604  15.1503  15.9312

     occupation numbers 
     1.0000   1.0000   1.0000   1.0000   1.0000   1.0000   1.0000   1.0000
     1.0000   1.0000   1.0000   1.0000   1.0000   1.0000   1.0000   1.0000
     1.0000   1.0000   1.0000   1.0000   1.0000   1.0000   1.0000   1.0000
     1.0000   1.0000   1.0015   0.0000   0.0000   0.0000   0.0000   0.0000

          k = 0.2719 0.2719 0.1359 (  6664 PWs)   bands (ev):

   -83.0811 -46.6084 -46.6084 -46.6083 -16.3723 -16.2373 -16.2309  -7.1938
    -6.9963  -6.9765  -6.9763  -6.9316  -0.6716   1.5121   1.9254   2.1042
     2.2831   2.5187   2.8231   2.9236   3.0915   4.5384   4.5759   4.6091
     4.7111   4.7344   8.5526   9.9690  12.3479  13.2883  14.1237  15.6410

     occupation numbers 
     1.0000   1.0000   1.0000   1.0000   1.0000   1.0000   1.0000   1.0000
     1.0000   1.0000   1.0000   1.0000   1.0000   1.0000   1.0000   1.0000
     1.0000   1.0000   1.0000   1.0000   1.0000   1.0000   1.0000   1.0000
     1.0000   1.0000   0.4892   0.0000   0.0000   0.0000   0.0000   0.0000

          k = 0.2719 0.2719 0.2719 (  6665 PWs)   bands (ev):

   -83.0811 -46.6084 -46.6084 -46.6083 -16.3090 -16.2295 -16.2292  -7.1934
    -7.1934  -6.9960  -6.9951  -6.9950  -1.1313   1.9568   2.1109   2.1120
     2.4359   2.4378   3.0380   3.0385   3.1457   4.5355   4.5375   4.5378
     4.6964   4.6965   8.9932  10.2722  12.9578  12.9593  13.1683  15.0837

     occupation numbers 
     1.0000   1.0000   1.0000   1.0000   1.0000   1.0000   1.0000   1.0000
     1.0000   1.0000   1.0000   1.0000   1.0000   1.0000   1.0000   1.0000
     1.0000   1.0000   1.0000   1.0000   1.0000   1.0000   1.0000   1.0000
     1.0000   1.0000   0.0000   0.0000   0.0000   0.0000   0.0000   0.0000

          k = 0.2719 0.2719-0.4078 (  6672 PWs)   bands (ev):

   -83.0811 -46.6085 -46.6085 -46.6083 -16.2816 -16.2286 -16.2202  -7.3232
    -7.1932  -7.0052  -7.0044  -6.9949  -1.2815   1.9626   2.1059   2.1164
     2.4211   2.8336   3.0391   3.0653   3.1843   4.5148   4.5358   4.5665
     4.6332   4.6810   9.2256  10.5884  12.4188  12.9097  13.8682  13.9203

     occupation numbers 
     1.0000   1.0000   1.0000   1.0000   1.0000   1.0000   1.0000   1.0000
     1.0000   1.0000   1.0000   1.0000   1.0000   1.0000   1.0000   1.0000
     1.0000   1.0000   1.0000   1.0000   1.0000   1.0000   1.0000   1.0000
     1.0000   1.0000   0.0000   0.0000   0.0000   0.0000   0.0000   0.0000

          k = 0.2719 0.2719-0.2719 (  6665 PWs)   bands (ev):

   -83.0811 -46.6084 -46.6084 -46.6083 -16.3090 -16.2294 -16.2294  -7.1934
    -7.1934  -6.9960  -6.9950  -6.9950  -1.1313   1.9568   2.1115   2.1115
     2.4368   2.4368   3.0382   3.0383   3.1457   4.5355   4.5376   4.5376
     4.6965   4.6965   8.9932  10.2722  12.9585  12.9585  13.1683  15.0862

     occupation numbers 
     1.0000   1.0000   1.0000   1.0000   1.0000   1.0000   1.0000   1.0000
     1.0000   1.0000   1.0000   1.0000   1.0000   1.0000   1.0000   1.0000
     1.0000   1.0000   1.0000   1.0000   1.0000   1.0000   1.0000   1.0000
     1.0000   1.0000   0.0000   0.0000   0.0000   0.0000   0.0000   0.0000

          k = 0.2719 0.2719-0.1359 (  6664 PWs)   bands (ev):

   -83.0811 -46.6084 -46.6084 -46.6083 -16.3723 -16.2373 -16.2309  -7.1938
    -6.9963  -6.9765  -6.9763  -6.9316  -0.6716   1.5121   1.9254   2.1042
     2.2831   2.5187   2.8231   2.9236   3.0915   4.5384   4.5759   4.6091
     4.7111   4.7344   8.5526   9.9690  12.3479  13.2883  14.1237  15.6410

     occupation numbers 
     1.0000   1.0000   1.0000   1.0000   1.0000   1.0000   1.0000   1.0000
     1.0000   1.0000   1.0000   1.0000   1.0000   1.0000   1.0000   1.0000
     1.0000   1.0000   1.0000   1.0000   1.0000   1.0000   1.0000   1.0000
     1.0000   1.0000   0.4892   0.0000   0.0000   0.0000   0.0000   0.0000

          k = 0.2719-0.4078-0.0000 (  6658 PWs)   bands (ev):

   -83.0811 -46.6084 -46.6084 -46.6082 -16.3808 -16.2352 -16.2229  -7.3007
    -7.0064  -6.9755  -6.9667  -6.8364  -0.2946   0.8912   1.8477   2.2840
     2.3768   2.5918   2.6046   2.8695   3.1108   4.5628   4.6198   4.6749
     4.7125   4.7699   9.1607   9.6544  12.2473  12.3240  15.2229  15.9519

     occupation numbers 
     1.0000   1.0000   1.0000   1.0000   1.0000   1.0000   1.0000   1.0000
     1.0000   1.0000   1.0000   1.0000   1.0000   1.0000   1.0000   1.0000
     1.0000   1.0000   1.0000   1.0000   1.0000   1.0000   1.0000   1.0000
     1.0000   1.0000   0.0000   0.0000   0.0000   0.0000   0.0000   0.0000

          k = 0.2719-0.4078 0.1359 (  6652 PWs)   bands (ev):

   -83.0811 -46.6085 -46.6084 -46.6082 -16.3475 -16.2338 -16.2220  -7.3030
    -7.0059  -6.9853  -6.9761  -6.9607  -0.7933   1.5852   1.8888   2.2089
     2.2316   2.6933   2.8040   2.9174   3.1301   4.5531   4.5886   4.6447
     4.6983   4.7221   9.1876   9.8897  12.3149  12.5306  14.5426  15.0783

     occupation numbers 
     1.0000   1.0000   1.0000   1.0000   1.0000   1.0000   1.0000   1.0000
     1.0000   1.0000   1.0000   1.0000   1.0000   1.0000   1.0000   1.0000
     1.0000   1.0000   1.0000   1.0000   1.0000   1.0000   1.0000   1.0000
     1.0000   1.0000   0.0000   0.0000   0.0000   0.0000   0.0000   0.0000

          k = 0.2719-0.4078 0.2719 (  6672 PWs)   bands (ev):

   -83.0811 -46.6085 -46.6085 -46.6083 -16.2816 -16.2286 -16.2202  -7.3232
    -7.1932  -7.0052  -7.0044  -6.9949  -1.2815   1.9626   2.1059   2.1164
     2.4211   2.8336   3.0391   3.0653   3.1843   4.5148   4.5358   4.5665
     4.6332   4.6810   9.2256  10.5884  12.4188  12.9097  13.8682  13.9202

     occupation numbers 
     1.0000   1.0000   1.0000   1.0000   1.0000   1.0000   1.0000   1.0000
     1.0000   1.0000   1.0000   1.0000   1.0000   1.0000   1.0000   1.0000
     1.0000   1.0000   1.0000   1.0000   1.0000   1.0000   1.0000   1.0000
     1.0000   1.0000   0.0000   0.0000   0.0000   0.0000   0.0000   0.0000

          k = 0.2719-0.4078-0.4078 (  6692 PWs)   bands (ev):

   -83.0811 -46.6085 -46.6085 -46.6084 -16.2544 -16.2193 -16.2193  -7.3823
    -7.2601  -7.0145  -7.0043  -7.0043  -1.4426   1.9787   2.0858   2.0858
     2.6353   3.0379   3.1122   3.1122   3.2385   4.4595   4.5315   4.5315
     4.6218   4.6430   9.2359  11.3362  12.3988  12.3988  13.9127  14.0664

     occupation numbers 
     1.0000   1.0000   1.0000   1.0000   1.0000   1.0000   1.0000   1.0000
     1.0000   1.0000   1.0000   1.0000   1.0000   1.0000   1.0000   1.0000
     1.0000   1.0000   1.0000   1.0000   1.0000   1.0000   1.0000   1.0000
     1.0000   1.0000   0.0000   0.0000   0.0000   0.0000   0.0000   0.0000

          k = 0.2719-0.4078-0.2719 (  6672 PWs)   bands (ev):

   -83.0811 -46.6085 -46.6085 -46.6083 -16.2816 -16.2286 -16.2202  -7.3232
    -7.1932  -7.0052  -7.0044  -6.9949  -1.2815   1.9626   2.1059   2.1164
     2.4211   2.8336   3.0391   3.0653   3.1843   4.5148   4.5358   4.5665
     4.6332   4.6810   9.2256  10.5884  12.4188  12.9097  13.8682  13.9202

     occupation numbers 
     1.0000   1.0000   1.0000   1.0000   1.0000   1.0000   1.0000   1.0000
     1.0000   1.0000   1.0000   1.0000   1.0000   1.0000   1.0000   1.0000
     1.0000   1.0000   1.0000   1.0000   1.0000   1.0000   1.0000   1.0000
     1.0000   1.0000   0.0000   0.0000   0.0000   0.0000   0.0000   0.0000

          k = 0.2719-0.4078-0.1359 (  6652 PWs)   bands (ev):

   -83.0811 -46.6085 -46.6084 -46.6082 -16.3475 -16.2338 -16.2220  -7.3030
    -7.0059  -6.9853  -6.9761  -6.9607  -0.7933   1.5852   1.8888   2.2089
     2.2316   2.6933   2.8040   2.9174   3.1301   4.5531   4.5886   4.6447
     4.6983   4.7221   9.1876   9.8897  12.3149  12.5306  14.5426  15.0783

     occupation numbers 
     1.0000   1.0000   1.0000   1.0000   1.0000   1.0000   1.0000   1.0000
     1.0000   1.0000   1.0000   1.0000   1.0000   1.0000   1.0000   1.0000
     1.0000   1.0000   1.0000   1.0000   1.0000   1.0000   1.0000   1.0000
     1.0000   1.0000   0.0000   0.0000   0.0000   0.0000   0.0000   0.0000

          k = 0.2719-0.2719-0.0000 (  6670 PWs)   bands (ev):

   -83.0811 -46.6084 -46.6084 -46.6083 -16.4048 -16.2395 -16.2317  -7.1940
    -6.9967  -6.9669  -6.9668  -6.7999  -0.1867   0.8456   1.9034   2.0924
     2.4060   2.6259   2.6262   2.7945   3.0763   4.5385   4.6355   4.6618
     4.7071   4.7156   8.3570   9.8745  12.1324  13.2604  15.1503  15.9312

     occupation numbers 
     1.0000   1.0000   1.0000   1.0000   1.0000   1.0000   1.0000   1.0000
     1.0000   1.0000   1.0000   1.0000   1.0000   1.0000   1.0000   1.0000
     1.0000   1.0000   1.0000   1.0000   1.0000   1.0000   1.0000   1.0000
     1.0000   1.0000   1.0015   0.0000   0.0000   0.0000   0.0000   0.0000

          k = 0.2719-0.2719 0.1359 (  6664 PWs)   bands (ev):

   -83.0811 -46.6084 -46.6084 -46.6083 -16.3723 -16.2373 -16.2309  -7.1938
    -6.9963  -6.9765  -6.9763  -6.9316  -0.6716   1.5121   1.9254   2.1042
     2.2831   2.5187   2.8231   2.9236   3.0915   4.5384   4.5759   4.6091
     4.7111   4.7344   8.5526   9.9690  12.3479  13.2883  14.1237  15.6410

     occupation numbers 
     1.0000   1.0000   1.0000   1.0000   1.0000   1.0000   1.0000   1.0000
     1.0000   1.0000   1.0000   1.0000   1.0000   1.0000   1.0000   1.0000
     1.0000   1.0000   1.0000   1.0000   1.0000   1.0000   1.0000   1.0000
     1.0000   1.0000   0.4892   0.0000   0.0000   0.0000   0.0000   0.0000

          k = 0.2719-0.2719 0.2719 (  6665 PWs)   bands (ev):

   -83.0811 -46.6084 -46.6084 -46.6083 -16.3090 -16.2294 -16.2293  -7.1934
    -7.1934  -6.9960  -6.9950  -6.9950  -1.1313   1.9568   2.1113   2.1116
     2.4365   2.4371   3.0382   3.0383   3.1457   4.5355   4.5376   4.5377
     4.6965   4.6965   8.9932  10.2722  12.9583  12.9588  13.1683  15.0854

     occupation numbers 
     1.0000   1.0000   1.0000   1.0000   1.0000   1.0000   1.0000   1.0000
     1.0000   1.0000   1.0000   1.0000   1.0000   1.0000   1.0000   1.0000
     1.0000   1.0000   1.0000   1.0000   1.0000   1.0000   1.0000   1.0000
     1.0000   1.0000   0.0000   0.0000   0.0000   0.0000   0.0000   0.0000

          k = 0.2719-0.2719-0.4078 (  6672 PWs)   bands (ev):

   -83.0811 -46.6085 -46.6085 -46.6083 -16.2816 -16.2286 -16.2202  -7.3232
    -7.1932  -7.0052  -7.0044  -6.9949  -1.2815   1.9626   2.1059   2.1164
     2.4211   2.8336   3.0391   3.0653   3.1843   4.5148   4.5358   4.5665
     4.6332   4.6810   9.2256  10.5884  12.4188  12.9097  13.8682  13.9203

     occupation numbers 
     1.0000   1.0000   1.0000   1.0000   1.0000   1.0000   1.0000   1.0000
     1.0000   1.0000   1.0000   1.0000   1.0000   1.0000   1.0000   1.0000
     1.0000   1.0000   1.0000   1.0000   1.0000   1.0000   1.0000   1.0000
     1.0000   1.0000   0.0000   0.0000   0.0000   0.0000   0.0000   0.0000

          k = 0.2719-0.2719-0.2719 (  6665 PWs)   bands (ev):

   -83.0811 -46.6084 -46.6084 -46.6083 -16.3090 -16.2295 -16.2293  -7.1934
    -7.1934  -6.9960  -6.9951  -6.9950  -1.1313   1.9568   2.1111   2.1118
     2.4362   2.4374   3.0381   3.0384   3.1457   4.5355   4.5375   4.5377
     4.6965   4.6965   8.9932  10.2722  12.9580  12.9590  13.1683  15.0847

     occupation numbers 
     1.0000   1.0000   1.0000   1.0000   1.0000   1.0000   1.0000   1.0000
     1.0000   1.0000   1.0000   1.0000   1.0000   1.0000   1.0000   1.0000
     1.0000   1.0000   1.0000   1.0000   1.0000   1.0000   1.0000   1.0000
     1.0000   1.0000   0.0000   0.0000   0.0000   0.0000   0.0000   0.0000

          k = 0.2719-0.2719-0.1359 (  6664 PWs)   bands (ev):

   -83.0811 -46.6084 -46.6084 -46.6083 -16.3723 -16.2373 -16.2309  -7.1938
    -6.9963  -6.9765  -6.9763  -6.9316  -0.6716   1.5121   1.9254   2.1042
     2.2831   2.5187   2.8231   2.9236   3.0915   4.5384   4.5759   4.6091
     4.7111   4.7344   8.5526   9.9690  12.3479  13.2883  14.1237  15.6410

     occupation numbers 
     1.0000   1.0000   1.0000   1.0000   1.0000   1.0000   1.0000   1.0000
     1.0000   1.0000   1.0000   1.0000   1.0000   1.0000   1.0000   1.0000
     1.0000   1.0000   1.0000   1.0000   1.0000   1.0000   1.0000   1.0000
     1.0000   1.0000   0.4892   0.0000   0.0000   0.0000   0.0000   0.0000

          k = 0.2719-0.1359 0.0000 (  6670 PWs)   bands (ev):

   -83.0811 -46.6084 -46.6083 -46.6083 -16.4590 -16.2531 -16.2363  -7.0505
    -6.9771  -6.9671  -6.9493  -6.6492   0.1642   0.7574   1.5326   2.0231
     2.4809   2.6641   2.7022   2.7121   2.9183   4.5316   4.5831   4.5887
     4.6962   4.7095   7.5374   9.5517  12.8029  14.2521  15.0765  16.0823

     occupation numbers 
     1.0000   1.0000   1.0000   1.0000   1.0000   1.0000   1.0000   1.0000
     1.0000   1.0000   1.0000   1.0000   1.0000   1.0000   1.0000   1.0000
     1.0000   1.0000   1.0000   1.0000   1.0000   1.0000   1.0000   1.0000
     1.0000   1.0000   1.0000   0.0000   0.0000   0.0000   0.0000   0.0000

          k = 0.2719-0.1359 0.1359 (  6654 PWs)   bands (ev):

   -83.0811 -46.6084 -46.6083 -46.6082 -16.4290 -16.2489 -16.2351  -7.0710
    -6.9772  -6.9765  -6.9584  -6.7725  -0.2882   1.2455   1.6827   1.9954
     2.3778   2.5346   2.7986   2.8410   2.9670   4.5184   4.5649   4.6164
     4.6920   4.7283   7.8182   9.6926  12.8187  14.1266  14.1554  16.2029

     occupation numbers 
     1.0000   1.0000   1.0000   1.0000   1.0000   1.0000   1.0000   1.0000
     1.0000   1.0000   1.0000   1.0000   1.0000   1.0000   1.0000   1.0000
     1.0000   1.0000   1.0000   1.0000   1.0000   1.0000   1.0000   1.0000
     1.0000   1.0000   1.0000   0.0000   0.0000   0.0000   0.0000   0.0000

          k = 0.2719-0.1359 0.2719 (  6664 PWs)   bands (ev):

   -83.0811 -46.6084 -46.6084 -46.6083 -16.3723 -16.2373 -16.2309  -7.1938
    -6.9963  -6.9765  -6.9763  -6.9316  -0.6716   1.5121   1.9254   2.1042
     2.2831   2.5187   2.8231   2.9236   3.0915   4.5384   4.5759   4.6091
     4.7111   4.7344   8.5526   9.9690  12.3479  13.2883  14.1236  15.6410

     occupation numbers 
     1.0000   1.0000   1.0000   1.0000   1.0000   1.0000   1.0000   1.0000
     1.0000   1.0000   1.0000   1.0000   1.0000   1.0000   1.0000   1.0000
     1.0000   1.0000   1.0000   1.0000   1.0000   1.0000   1.0000   1.0000
     1.0000   1.0000   0.4891   0.0000   0.0000   0.0000   0.0000   0.0000

          k = 0.2719-0.1359-0.4078 (  6652 PWs)   bands (ev):

   -83.0811 -46.6085 -46.6084 -46.6082 -16.3475 -16.2338 -16.2220  -7.3030
    -7.0059  -6.9853  -6.9761  -6.9607  -0.7933   1.5852   1.8887   2.2089
     2.2316   2.6933   2.8040   2.9174   3.1301   4.5531   4.5886   4.6447
     4.6983   4.7221   9.1876   9.8898  12.3149  12.5306  14.5426  15.0783

     occupation numbers 
     1.0000   1.0000   1.0000   1.0000   1.0000   1.0000   1.0000   1.0000
     1.0000   1.0000   1.0000   1.0000   1.0000   1.0000   1.0000   1.0000
     1.0000   1.0000   1.0000   1.0000   1.0000   1.0000   1.0000   1.0000
     1.0000   1.0000   0.0000   0.0000   0.0000   0.0000   0.0000   0.0000

          k = 0.2719-0.1359-0.2719 (  6664 PWs)   bands (ev):

   -83.0811 -46.6084 -46.6084 -46.6083 -16.3723 -16.2373 -16.2309  -7.1938
    -6.9963  -6.9765  -6.9763  -6.9316  -0.6716   1.5121   1.9254   2.1042
     2.2831   2.5187   2.8231   2.9236   3.0915   4.5384   4.5759   4.6091
     4.7111   4.7344   8.5526   9.9690  12.3479  13.2883  14.1237  15.6410

     occupation numbers 
     1.0000   1.0000   1.0000   1.0000   1.0000   1.0000   1.0000   1.0000
     1.0000   1.0000   1.0000   1.0000   1.0000   1.0000   1.0000   1.0000
     1.0000   1.0000   1.0000   1.0000   1.0000   1.0000   1.0000   1.0000
     1.0000   1.0000   0.4892   0.0000   0.0000   0.0000   0.0000   0.0000

          k = 0.2719-0.1359-0.1359 (  6654 PWs)   bands (ev):

   -83.0811 -46.6084 -46.6083 -46.6082 -16.4290 -16.2489 -16.2351  -7.0710
    -6.9772  -6.9765  -6.9584  -6.7725  -0.2882   1.2455   1.6827   1.9954
     2.3778   2.5346   2.7986   2.8410   2.9670   4.5184   4.5649   4.6164
     4.6920   4.7283   7.8182   9.6926  12.8187  14.1266  14.1554  16.2029

     occupation numbers 
     1.0000   1.0000   1.0000   1.0000   1.0000   1.0000   1.0000   1.0000
     1.0000   1.0000   1.0000   1.0000   1.0000   1.0000   1.0000   1.0000
     1.0000   1.0000   1.0000   1.0000   1.0000   1.0000   1.0000   1.0000
     1.0000   1.0000   1.0000   0.0000   0.0000   0.0000   0.0000   0.0000

          k =-0.4078-0.0000-0.0000 (  6696 PWs)   bands (ev):

   -83.0812 -46.6085 -46.6083 -46.6083 -16.4626 -16.2576 -16.2268  -7.1669
    -6.9759  -6.9759  -6.9403  -6.5333   0.7490   0.7490   0.9490   1.9034
     2.5393   2.6548   2.6548   2.7280   2.7280   4.5252   4.5373   4.6639
     4.7666   4.7666   8.4750   8.6644  12.9373  15.2433  15.2433  16.3177

     occupation numbers 
     1.0000   1.0000   1.0000   1.0000   1.0000   1.0000   1.0000   1.0000
     1.0000   1.0000   1.0000   1.0000   1.0000   1.0000   1.0000   1.0000
     1.0000   1.0000   1.0000   1.0000   1.0000   1.0000   1.0000   1.0000
     1.0000   1.0000   1.0772   0.0037   0.0000   0.0000   0.0000   0.0000

          k =-0.4078-0.0000 0.1359 (  6678 PWs)   bands (ev):

   -83.0811 -46.6084 -46.6084 -46.6083 -16.4338 -16.2522 -16.2255  -7.1959
    -6.9861  -6.9757  -6.9491  -6.6524   0.1176   0.7951   1.7240   1.8978
     2.4161   2.6351   2.6844   2.6894   2.9102   4.5736   4.5899   4.6598
     4.6948   4.7676   8.7851   8.7948  12.8721  13.7834  15.2370  16.1934

     occupation numbers 
     1.0000   1.0000   1.0000   1.0000   1.0000   1.0000   1.0000   1.0000
     1.0000   1.0000   1.0000   1.0000   1.0000   1.0000   1.0000   1.0000
     1.0000   1.0000   1.0000   1.0000   1.0000   1.0000   1.0000   1.0000
     1.0000   1.0000   0.0000   0.0000   0.0000   0.0000   0.0000   0.0000

          k =-0.4078 0.0000 0.2719 (  6658 PWs)   bands (ev):

   -83.0811 -46.6084 -46.6084 -46.6082 -16.3808 -16.2352 -16.2229  -7.3007
    -7.0064  -6.9755  -6.9667  -6.8364  -0.2946   0.8912   1.8477   2.2840
     2.3768   2.5918   2.6047   2.8695   3.1107   4.5628   4.6198   4.6749
     4.7125   4.7699   9.1607   9.6544  12.2473  12.3240  15.2229  15.9519

     occupation numbers 
     1.0000   1.0000   1.0000   1.0000   1.0000   1.0000   1.0000   1.0000
     1.0000   1.0000   1.0000   1.0000   1.0000   1.0000   1.0000   1.0000
     1.0000   1.0000   1.0000   1.0000   1.0000   1.0000   1.0000   1.0000
     1.0000   1.0000   0.0000   0.0000   0.0000   0.0000   0.0000   0.0000

          k =-0.4078-0.0000-0.4078 (  6632 PWs)   bands (ev):

   -83.0811 -46.6083 -46.6083 -46.6082 -16.3585 -16.2216 -16.2216  -7.3829
    -7.0165  -6.9754  -6.9754  -6.8954  -0.4221   0.9416   1.8103   2.3942
     2.3942   2.5678   2.5678   3.0354   3.1884   4.5023   4.6186   4.7053
     4.7711   4.7711   9.4623  10.5355  11.5255  11.5255  15.2150  15.8351

     occupation numbers 
     1.0000   1.0000   1.0000   1.0000   1.0000   1.0000   1.0000   1.0000
     1.0000   1.0000   1.0000   1.0000   1.0000   1.0000   1.0000   1.0000
     1.0000   1.0000   1.0000   1.0000   1.0000   1.0000   1.0000   1.0000
     1.0000   1.0000   0.0000   0.0000   0.0000   0.0000   0.0000   0.0000

          k =-0.4078 0.1359-0.0000 (  6678 PWs)   bands (ev):

   -83.0811 -46.6084 -46.6084 -46.6083 -16.4338 -16.2522 -16.2255  -7.1959
    -6.9861  -6.9757  -6.9491  -6.6524   0.1176   0.7951   1.7240   1.8978
     2.4161   2.6351   2.6844   2.6894   2.9102   4.5736   4.5899   4.6598
     4.6948   4.7676   8.7851   8.7948  12.8721  13.7834  15.2370  16.1933

     occupation numbers 
     1.0000   1.0000   1.0000   1.0000   1.0000   1.0000   1.0000   1.0000
     1.0000   1.0000   1.0000   1.0000   1.0000   1.0000   1.0000   1.0000
     1.0000   1.0000   1.0000   1.0000   1.0000   1.0000   1.0000   1.0000
     1.0000   1.0000   0.0000   0.0000   0.0000   0.0000   0.0000   0.0000

          k =-0.4078 0.1359 0.1359 (  6666 PWs)   bands (ev):

   -83.0811 -46.6084 -46.6083 -46.6083 -16.4035 -16.2481 -16.2243  -7.2158
    -6.9863  -6.9854  -6.9582  -6.7724  -0.3692   1.2885   1.9061   1.9069
     2.3066   2.5762   2.7740   2.7828   2.9700   4.5410   4.6543   4.6711
     4.6757   4.7140   8.9046   9.0713  12.9102  13.3991  14.6035  15.4518

     occupation numbers 
     1.0000   1.0000   1.0000   1.0000   1.0000   1.0000   1.0000   1.0000
     1.0000   1.0000   1.0000   1.0000   1.0000   1.0000   1.0000   1.0000
     1.0000   1.0000   1.0000   1.0000   1.0000   1.0000   1.0000   1.0000
     1.0000   1.0000   0.0000   0.0000   0.0000   0.0000   0.0000   0.0000

          k =-0.4078 0.1359 0.2719 (  6652 PWs)   bands (ev):

   -83.0811 -46.6085 -46.6084 -46.6082 -16.3475 -16.2338 -16.2220  -7.3030
    -7.0059  -6.9853  -6.9761  -6.9607  -0.7933   1.5852   1.8887   2.2089
     2.2316   2.6933   2.8040   2.9174   3.1301   4.5531   4.5886   4.6447
     4.6983   4.7221   9.1876   9.8897  12.3149  12.5306  14.5426  15.0783

     occupation numbers 
     1.0000   1.0000   1.0000   1.0000   1.0000   1.0000   1.0000   1.0000
     1.0000   1.0000   1.0000   1.0000   1.0000   1.0000   1.0000   1.0000
     1.0000   1.0000   1.0000   1.0000   1.0000   1.0000   1.0000   1.0000
     1.0000   1.0000   0.0000   0.0000   0.0000   0.0000   0.0000   0.0000

          k =-0.4078 0.1359-0.4078 (  6656 PWs)   bands (ev):

   -83.0811 -46.6084 -46.6084 -46.6082 -16.3244 -16.2208 -16.2208  -7.3827
    -7.0165  -7.0158  -6.9850  -6.9850  -0.9293   1.6705   1.8648   2.2259
     2.2259   2.8084   2.8085   3.0362   3.2046   4.4905   4.6204   4.6850
     4.6959   4.6959   9.3896  10.7330  11.7583  11.7583  14.6793  15.2635

     occupation numbers 
     1.0000   1.0000   1.0000   1.0000   1.0000   1.0000   1.0000   1.0000
     1.0000   1.0000   1.0000   1.0000   1.0000   1.0000   1.0000   1.0000
     1.0000   1.0000   1.0000   1.0000   1.0000   1.0000   1.0000   1.0000
     1.0000   1.0000   0.0000   0.0000   0.0000   0.0000   0.0000   0.0000

          k =-0.4078 0.1359-0.2719 (  6652 PWs)   bands (ev):

   -83.0811 -46.6085 -46.6084 -46.6082 -16.3475 -16.2338 -16.2220  -7.3030
    -7.0059  -6.9853  -6.9761  -6.9607  -0.7933   1.5852   1.8887   2.2089
     2.2316   2.6933   2.8040   2.9174   3.1301   4.5531   4.5886   4.6447
     4.6983   4.7221   9.1876   9.8897  12.3149  12.5306  14.5426  15.0783

     occupation numbers 
     1.0000   1.0000   1.0000   1.0000   1.0000   1.0000   1.0000   1.0000
     1.0000   1.0000   1.0000   1.0000   1.0000   1.0000   1.0000   1.0000
     1.0000   1.0000   1.0000   1.0000   1.0000   1.0000   1.0000   1.0000
     1.0000   1.0000   0.0000   0.0000   0.0000   0.0000   0.0000   0.0000

          k =-0.4078 0.1359-0.1359 (  6666 PWs)   bands (ev):

   -83.0811 -46.6084 -46.6083 -46.6083 -16.4035 -16.2481 -16.2243  -7.2158
    -6.9863  -6.9854  -6.9582  -6.7724  -0.3692   1.2885   1.9061   1.9069
     2.3066   2.5762   2.7740   2.7828   2.9700   4.5410   4.6543   4.6711
     4.6757   4.7140   8.9046   9.0713  12.9102  13.3991  14.6035  15.4517

     occupation numbers 
     1.0000   1.0000   1.0000   1.0000   1.0000   1.0000   1.0000   1.0000
     1.0000   1.0000   1.0000   1.0000   1.0000   1.0000   1.0000   1.0000
     1.0000   1.0000   1.0000   1.0000   1.0000   1.0000   1.0000   1.0000
     1.0000   1.0000   0.0000   0.0000   0.0000   0.0000   0.0000   0.0000

          k =-0.4078 0.2719 0.0000 (  6658 PWs)   bands (ev):

   -83.0811 -46.6084 -46.6084 -46.6082 -16.3808 -16.2351 -16.2229  -7.3007
    -7.0064  -6.9755  -6.9667  -6.8364  -0.2946   0.8912   1.8477   2.2840
     2.3768   2.5918   2.6046   2.8695   3.1108   4.5628   4.6198   4.6749
     4.7125   4.7699   9.1607   9.6544  12.2473  12.3239  15.2229  15.9519

     occupation numbers 
     1.0000   1.0000   1.0000   1.0000   1.0000   1.0000   1.0000   1.0000
     1.0000   1.0000   1.0000   1.0000   1.0000   1.0000   1.0000   1.0000
     1.0000   1.0000   1.0000   1.0000   1.0000   1.0000   1.0000   1.0000
     1.0000   1.0000   0.0000   0.0000   0.0000   0.0000   0.0000   0.0000

          k =-0.4078 0.2719 0.1359 (  6652 PWs)   bands (ev):

   -83.0811 -46.6085 -46.6084 -46.6082 -16.3475 -16.2338 -16.2220  -7.3030
    -7.0059  -6.9853  -6.9761  -6.9607  -0.7933   1.5852   1.8888   2.2089
     2.2316   2.6933   2.8040   2.9174   3.1301   4.5531   4.5886   4.6447
     4.6983   4.7221   9.1876   9.8897  12.3149  12.5306  14.5426  15.0783

     occupation numbers 
     1.0000   1.0000   1.0000   1.0000   1.0000   1.0000   1.0000   1.0000
     1.0000   1.0000   1.0000   1.0000   1.0000   1.0000   1.0000   1.0000
     1.0000   1.0000   1.0000   1.0000   1.0000   1.0000   1.0000   1.0000
     1.0000   1.0000   0.0000   0.0000   0.0000   0.0000   0.0000   0.0000

          k =-0.4078 0.2719 0.2719 (  6672 PWs)   bands (ev):

   -83.0811 -46.6085 -46.6085 -46.6083 -16.2816 -16.2286 -16.2202  -7.3232
    -7.1932  -7.0052  -7.0044  -6.9949  -1.2815   1.9626   2.1059   2.1164
     2.4211   2.8336   3.0391   3.0653   3.1843   4.5148   4.5358   4.5665
     4.6332   4.6810   9.2256  10.5884  12.4188  12.9097  13.8682  13.9202

     occupation numbers 
     1.0000   1.0000   1.0000   1.0000   1.0000   1.0000   1.0000   1.0000
     1.0000   1.0000   1.0000   1.0000   1.0000   1.0000   1.0000   1.0000
     1.0000   1.0000   1.0000   1.0000   1.0000   1.0000   1.0000   1.0000
     1.0000   1.0000   0.0000   0.0000   0.0000   0.0000   0.0000   0.0000

          k =-0.4078 0.2719-0.4078 (  6692 PWs)   bands (ev):

   -83.0811 -46.6085 -46.6085 -46.6084 -16.2544 -16.2193 -16.2193  -7.3823
    -7.2601  -7.0145  -7.0043  -7.0043  -1.4426   1.9787   2.0858   2.0858
     2.6353   3.0379   3.1122   3.1122   3.2385   4.4595   4.5315   4.5315
     4.6218   4.6430   9.2359  11.3363  12.3988  12.3988  13.9127  14.0664

     occupation numbers 
     1.0000   1.0000   1.0000   1.0000   1.0000   1.0000   1.0000   1.0000
     1.0000   1.0000   1.0000   1.0000   1.0000   1.0000   1.0000   1.0000
     1.0000   1.0000   1.0000   1.0000   1.0000   1.0000   1.0000   1.0000
     1.0000   1.0000   0.0000   0.0000   0.0000   0.0000   0.0000   0.0000

          k =-0.4078 0.2719-0.2719 (  6672 PWs)   bands (ev):

   -83.0811 -46.6085 -46.6085 -46.6083 -16.2816 -16.2286 -16.2202  -7.3232
    -7.1932  -7.0052  -7.0044  -6.9949  -1.2815   1.9626   2.1059   2.1164
     2.4211   2.8336   3.0391   3.0653   3.1843   4.5148   4.5358   4.5665
     4.6332   4.6810   9.2256  10.5884  12.4188  12.9097  13.8682  13.9202

     occupation numbers 
     1.0000   1.0000   1.0000   1.0000   1.0000   1.0000   1.0000   1.0000
     1.0000   1.0000   1.0000   1.0000   1.0000   1.0000   1.0000   1.0000
     1.0000   1.0000   1.0000   1.0000   1.0000   1.0000   1.0000   1.0000
     1.0000   1.0000   0.0000   0.0000   0.0000   0.0000   0.0000   0.0000

          k =-0.4078 0.2719-0.1359 (  6652 PWs)   bands (ev):

   -83.0811 -46.6085 -46.6084 -46.6082 -16.3475 -16.2338 -16.2220  -7.3030
    -7.0059  -6.9853  -6.9761  -6.9607  -0.7933   1.5852   1.8888   2.2089
     2.2316   2.6933   2.8040   2.9174   3.1301   4.5531   4.5886   4.6447
     4.6983   4.7221   9.1876   9.8897  12.3149  12.5306  14.5426  15.0783

     occupation numbers 
     1.0000   1.0000   1.0000   1.0000   1.0000   1.0000   1.0000   1.0000
     1.0000   1.0000   1.0000   1.0000   1.0000   1.0000   1.0000   1.0000
     1.0000   1.0000   1.0000   1.0000   1.0000   1.0000   1.0000   1.0000
     1.0000   1.0000   0.0000   0.0000   0.0000   0.0000   0.0000   0.0000

          k =-0.4078-0.4078-0.0000 (  6632 PWs)   bands (ev):

   -83.0811 -46.6083 -46.6083 -46.6082 -16.3585 -16.2216 -16.2216  -7.3829
    -7.0165  -6.9754  -6.9754  -6.8954  -0.4221   0.9416   1.8103   2.3941
     2.3941   2.5678   2.5678   3.0354   3.1884   4.5023   4.6186   4.7053
     4.7711   4.7711   9.4623  10.5355  11.5255  11.5255  15.2150  15.8351

     occupation numbers 
     1.0000   1.0000   1.0000   1.0000   1.0000   1.0000   1.0000   1.0000
     1.0000   1.0000   1.0000   1.0000   1.0000   1.0000   1.0000   1.0000
     1.0000   1.0000   1.0000   1.0000   1.0000   1.0000   1.0000   1.0000
     1.0000   1.0000   0.0000   0.0000   0.0000   0.0000   0.0000   0.0000

          k =-0.4078-0.4078 0.1359 (  6656 PWs)   bands (ev):

   -83.0811 -46.6084 -46.6084 -46.6082 -16.3244 -16.2208 -16.2208  -7.3827
    -7.0165  -7.0158  -6.9850  -6.9850  -0.9293   1.6705   1.8648   2.2259
     2.2259   2.8084   2.8084   3.0362   3.2047   4.4905   4.6204   4.6850
     4.6959   4.6959   9.3896  10.7330  11.7583  11.7583  14.6793  15.2636

     occupation numbers 
     1.0000   1.0000   1.0000   1.0000   1.0000   1.0000   1.0000   1.0000
     1.0000   1.0000   1.0000   1.0000   1.0000   1.0000   1.0000   1.0000
     1.0000   1.0000   1.0000   1.0000   1.0000   1.0000   1.0000   1.0000
     1.0000   1.0000   0.0000   0.0000   0.0000   0.0000   0.0000   0.0000

          k =-0.4078-0.4078 0.2719 (  6692 PWs)   bands (ev):

   -83.0811 -46.6085 -46.6085 -46.6084 -16.2544 -16.2193 -16.2193  -7.3823
    -7.2601  -7.0145  -7.0043  -7.0043  -1.4426   1.9788   2.0858   2.0858
     2.6353   3.0379   3.1122   3.1122   3.2385   4.4595   4.5315   4.5315
     4.6218   4.6430   9.2359  11.3362  12.3988  12.3988  13.9127  14.0664

     occupation numbers 
     1.0000   1.0000   1.0000   1.0000   1.0000   1.0000   1.0000   1.0000
     1.0000   1.0000   1.0000   1.0000   1.0000   1.0000   1.0000   1.0000
     1.0000   1.0000   1.0000   1.0000   1.0000   1.0000   1.0000   1.0000
     1.0000   1.0000   0.0000   0.0000   0.0000   0.0000   0.0000   0.0000

          k =-0.4078-0.4078-0.4078 (  6704 PWs)   bands (ev):

   -83.0811 -46.6085 -46.6085 -46.6085 -16.2186 -16.2186 -16.2186  -7.3821
    -7.3821  -7.0139  -7.0139  -7.0139  -1.6138   2.0386   2.0386   2.0386
     3.0388   3.0388   3.2562   3.2562   3.2562   4.4366   4.4366   4.4366
     4.6213   4.6213   9.1546  11.9849  13.1678  13.1678  13.1678  13.6120

     occupation numbers 
     1.0000   1.0000   1.0000   1.0000   1.0000   1.0000   1.0000   1.0000
     1.0000   1.0000   1.0000   1.0000   1.0000   1.0000   1.0000   1.0000
     1.0000   1.0000   1.0000   1.0000   1.0000   1.0000   1.0000   1.0000
     1.0000   1.0000   0.0000   0.0000   0.0000   0.0000   0.0000   0.0000

     the Fermi energy is     8.5611 ev

!    total energy              =   -1146.38912138 Ry
     total all-electron energy =    -22995.191261 Ry
     estimated scf accuracy    <          2.3E-13 Ry
     smearing contrib. (-TS)   =      -0.00015950 Ry
     internal energy E=F+TS    =   -1146.38896188 Ry

     The total energy is F=E-TS. E is the sum of the following terms:
     one-electron contribution =    -271.34730587 Ry
     hartree contribution      =     168.45370609 Ry
     xc contribution           =    -123.87775930 Ry
     ewald contribution        =    -366.43197501 Ry
     one-center paw contrib.   =    -553.18562779 Ry
      -> PAW hartree energy AE =     233.76984404 Ry
      -> PAW hartree energy PS =    -231.26748929 Ry
      -> PAW xc energy AE      =    -297.45683844 Ry
      -> PAW xc energy PS      =      47.94691004 Ry
      -> total E_H with PAW    =     170.95606084 Ry
      -> total E_XC with PAW   =    -373.38768770 Ry

     convergence has been achieved in  14 iterations

     Forces acting on atoms (cartesian axes, Ry/au):

     atom    1 type  1   force =    -0.00000196   -0.00000371   -0.00000580
     atom    2 type  2   force =     0.00000179    0.00000359    0.00000487
     atom    3 type  3   force =     0.00000015   -0.00000203    0.00000327
     atom    4 type  3   force =     0.00000101    0.00000022   -0.00000287
     atom    5 type  3   force =    -0.00000098    0.00000193    0.00000053
     The non-local contrib.  to forces
     atom    1 type  1   force =     0.00004752    0.00009503    0.00014246
     atom    2 type  2   force =     0.00000961    0.00001937    0.00002846
     atom    3 type  3   force =    -0.00035021   -0.00003564    0.00032249
     atom    4 type  3   force =     0.00010740   -0.00070029   -0.00005369
     atom    5 type  3   force =    -0.00001798    0.00021496   -0.00105063
     The ionic contribution  to forces
     atom    1 type  1   force =     0.00318268    0.00636420    0.00954808
     atom    2 type  2   force =    -0.00302899   -0.00605648   -0.00908733
     atom    3 type  3   force =    -0.00067520   -0.00053305    0.00236398
     atom    4 type  3   force =     0.00078804   -0.00135039   -0.00079936
     atom    5 type  3   force =    -0.00026653    0.00157572   -0.00202536
     The local contribution  to forces
     atom    1 type  1   force =    -0.00322825   -0.00645492   -0.00968499
     atom    2 type  2   force =     0.00302168    0.00604196    0.00906517
     atom    3 type  3   force =     0.00102447    0.00056682   -0.00268220
     atom    4 type  3   force =    -0.00089406    0.00204883    0.00085024
     atom    5 type  3   force =     0.00028355   -0.00178781    0.00307324
     The core correction contribution to forces
     atom    1 type  1   force =    -0.00000374   -0.00000746   -0.00001121
     atom    2 type  2   force =    -0.00000043   -0.00000085   -0.00000134
     atom    3 type  3   force =     0.00000111   -0.00000000   -0.00000093
     atom    4 type  3   force =    -0.00000031    0.00000221   -0.00000000
     atom    5 type  3   force =     0.00000000   -0.00000062    0.00000332
     The Hubbard contrib.    to forces
     atom    1 type  1   force =     0.00000000    0.00000000    0.00000000
     atom    2 type  2   force =     0.00000000    0.00000000    0.00000000
     atom    3 type  3   force =     0.00000000    0.00000000    0.00000000
     atom    4 type  3   force =     0.00000000    0.00000000    0.00000000
     atom    5 type  3   force =     0.00000000    0.00000000    0.00000000
     The SCF correction term to forces
     atom    1 type  1   force =    -0.00000011   -0.00000038   -0.00000009
     atom    2 type  2   force =    -0.00000004   -0.00000021   -0.00000004
     atom    3 type  3   force =     0.00000003    0.00000004   -0.00000001
     atom    4 type  3   force =    -0.00000003    0.00000006   -0.00000001
     atom    5 type  3   force =     0.00000003   -0.00000012    0.00000001

     Total force =     0.000011     Total SCF correction =     0.000000


     Computing stress (Cartesian axis) and pressure

          total   stress  (Ry/bohr**3)                   (kbar)     P=       16.60
   0.00011282  -0.00000000  -0.00000000           16.60       -0.00       -0.00
  -0.00000000   0.00011282  -0.00000000           -0.00       16.60       -0.00
  -0.00000000  -0.00000000   0.00011282           -0.00       -0.00       16.60

     kinetic stress (kbar)  37151.94      0.00      0.00
                                0.00  37151.94      0.00
                                0.00      0.00  37151.94

     local   stress (kbar) -19317.90     -0.00     -0.00
                               -0.00 -19317.88     -0.01
                               -0.00     -0.01 -19317.91

     nonloc. stress (kbar)   7510.08      0.00      0.00
                                0.00   7510.08      0.00
                                0.00      0.00   7510.08

     hartree stress (kbar)  14969.84      0.00      0.00
                                0.00  14969.84      0.00
                                0.00      0.00  14969.84

     exc-cor stress (kbar)   6100.93     -0.00     -0.00
                               -0.00   6100.93     -0.00
                               -0.00     -0.00   6100.93

     corecor stress (kbar) -13834.88     -0.00     -0.00
                               -0.00 -13834.88     -0.00
                               -0.00     -0.00 -13834.88

     ewald   stress (kbar) -32563.41      0.00      0.00
                                0.00 -32563.43      0.00
                                0.00      0.00 -32563.41

     hubbard stress (kbar)      0.00      0.00      0.00
                                0.00      0.00      0.00
                                0.00      0.00      0.00

     DFT-D   stress (kbar)      0.00      0.00      0.00
                                0.00      0.00      0.00
                                0.00      0.00      0.00

     XDM     stress (kbar)      0.00      0.00      0.00
                                0.00      0.00      0.00
                                0.00      0.00      0.00

     dft-nl  stress (kbar)      0.00      0.00      0.00
                                0.00      0.00      0.00
                                0.00      0.00      0.00

     TS-vdW  stress (kbar)      0.00      0.00      0.00
                                0.00      0.00      0.00
                                0.00      0.00      0.00

     MDB     stress (kbar)      0.00      0.00      0.00
                                0.00      0.00      0.00
                                0.00      0.00      0.00

     3D-RISM stress (kbar)      0.00      0.00      0.00
                                0.00      0.00      0.00
                                0.00      0.00      0.00


     Writing all to output data dir ./output/aginf3_broken.save/ :
     XML data file, charge density, pseudopotentials, collected wavefunctions

     init_run     :     99.50s CPU    102.84s WALL (       2 calls)
     electrons    :  22761.40s CPU  21848.29s WALL (       8 calls)
     update_pot   :      1.10s CPU      1.12s WALL (       6 calls)
     forces       :     15.10s CPU     12.06s WALL (       8 calls)
     stress       :    130.33s CPU     98.17s WALL (       8 calls)

     Called by init_run:
     wfcinit      :     96.45s CPU     99.28s WALL (       2 calls)
     wfcinit:atom :      0.19s CPU      0.12s WALL (     224 calls)
     wfcinit:wfcr :     95.87s CPU     98.88s WALL (     224 calls)
     potinit      :      0.79s CPU      0.81s WALL (       2 calls)
     hinit0       :      1.04s CPU      1.06s WALL (       2 calls)

     Called by electrons:
     c_bands      :  22421.72s CPU  21560.07s WALL (     103 calls)
     sum_band     :    266.76s CPU    214.25s WALL (     103 calls)
     v_of_rho     :      4.45s CPU      3.65s WALL (     110 calls)
     v_h          :      0.20s CPU      0.16s WALL (     110 calls)
     v_xc         :      4.86s CPU      3.90s WALL (     126 calls)
     newd         :     51.47s CPU     55.06s WALL (     110 calls)
     PAW_pot      :     19.20s CPU     18.04s WALL (     116 calls)
     mix_rho      :      1.58s CPU      1.28s WALL (     103 calls)

     Called by c_bands:
     init_us_2    :     27.41s CPU     21.04s WALL (   25760 calls)
     cegterg      :  21055.72s CPU  20334.93s WALL (   11536 calls)

     Called by sum_band:
     sum_band:wei :      1.83s CPU      1.80s WALL (     103 calls)
     sum_band:loo :    209.78s CPU    154.91s WALL (     103 calls)
     sum_band:buf :      1.68s CPU      1.14s WALL (   11536 calls)
     sum_band:ini :     14.09s CPU      9.81s WALL (   11536 calls)
     sum_band:cal :     18.43s CPU     11.65s WALL (   12208 calls)
     sum_band:bec :      0.86s CPU      0.57s WALL (   12208 calls)
     addusdens    :     39.05s CPU     42.73s WALL (     103 calls)
                                        0.00s GPU  (     103 calls)
     addusd:skk   :      0.12s CPU      0.15s WALL (     309 calls)
                                        0.00s GPU  (     309 calls)

     Called by *egterg:
     cdiaghg      :   2147.85s CPU   1912.00s WALL (   52227 calls)
     cegterg:over :   8060.07s CPU   7916.01s WALL (   41475 calls)
     cegterg:upda :    400.52s CPU    666.55s WALL (   41475 calls)
     cegterg:last :    458.66s CPU    699.02s WALL (   26317 calls)
     h_psi        :   3393.40s CPU   3073.89s WALL (   53235 calls)
     s_psi        :    169.38s CPU    271.06s WALL (   53235 calls)
     g_psi        :      7.78s CPU      5.32s WALL (   41475 calls)

     Called by h_psi:
     h_psi:calbec :   1181.58s CPU   1036.35s WALL (   53235 calls)
     vloc_psi     :   1918.03s CPU   1481.59s WALL (   53235 calls)
     add_vuspsi   :    289.24s CPU    551.24s WALL (   53235 calls)

     General routines
     calbec       :   1212.67s CPU   1056.07s WALL (   69923 calls)
     fft          :     19.43s CPU     17.73s WALL (    1621 calls)
     ffts         :      0.56s CPU      0.55s WALL (     213 calls)
     fftw         :   1963.90s CPU   1517.41s WALL ( 2477598 calls)
     interpolate  :      0.57s CPU      0.59s WALL (     110 calls)

     Parallel routines

     PAW routines
     PAW_pot      :     19.20s CPU     18.04s WALL (     116 calls)

     PWSCF        :      6h23m CPU      6h 7m WALL


   This run was terminated on:  19:59:19  31Mar2025            

=------------------------------------------------------------------------------=
   JOB DONE.
=------------------------------------------------------------------------------=
