
     Program PWSCF v.7.3.1 starts on 10May2025 at 18:26:59 

     This program is part of the open-source Quantum ESPRESSO suite
     for quantum simulation of materials; please cite
         "P. Giannozzi et al., J. Phys.:Condens. Matter 21 395502 (2009);
         "P. Giannozzi et al., J. Phys.:Condens. Matter 29 465901 (2017);
         "P. Giannozzi et al., J. Chem. Phys. 152 154105 (2020);
          URL http://www.quantum-espresso.org", 
     in publications or presentations arising from this work. More details at
     http://www.quantum-espresso.org/quote

     Parallel version (MPI), running on     8 processors

     MPI processes distributed on     1 nodes
     41801 MiB available memory on the printing compute node when the environment starts

     Waiting for input...
     Reading input from standard input

     Current dimensions of program PWSCF are:
     Max number of different atomic species (ntypx) = 10
     Max number of k-points (npk) = 120000
     Max angular momentum in pseudopotentials (lmaxx) =  4
     file Cs.pbe-spn-rrkjus_psl.1.0.0.UPF: wavefunction(s)  5S 6S renormalized
     file Nb.pbe-spn-rrkjus_psl.1.0.0.UPF: wavefunction(s)  4S 4P renormalized

     IMPORTANT: XC functional enforced from input :
     Exchange-correlation= PBE
                           (   1   4   3   4   0   0   0)
     Any further DFT definition will be discarded
     Please, verify this is what you really want

     Message from routine setup:
     using ibrav=0 with symmetry is DISCOURAGED, use correct ibrav instead

     K-points division:     npool     =       2
     R & G space division:  proc/nbgrp/npool/nimage =       4
     Subspace diagonalization in iterative solution of the eigenvalue problem:
     a serial algorithm will be used


     Parallelization info
     --------------------
     sticks:   dense  smooth     PW     G-vecs:    dense   smooth      PW
     Min        1527     765    213                89645    31729    4701
     Max        1528     766    214                89646    31732    4702
     Sum        6109    3061    853               358581   126923   18805

     Using Slab Decomposition



     bravais-lattice index     =            0
     lattice parameter (alat)  =       9.7906  a.u.
     unit-cell volume          =     938.4774 (a.u.)^3
     number of atoms/cell      =            5
     number of atomic types    =            3
     number of electrons       =        70.00
     number of Kohn-Sham states=           42
     kinetic-energy cutoff     =     100.0000  Ry
     charge density cutoff     =     800.0000  Ry
     scf convergence threshold =      1.0E-12
     mixing beta               =       0.3000
     number of iterations used =            8  plain     mixing
     Exchange-correlation= PBE
                           (   1   4   3   4   0   0   0)

     celldm(1)=   9.790569  celldm(2)=   0.000000  celldm(3)=   0.000000
     celldm(4)=   0.000000  celldm(5)=   0.000000  celldm(6)=   0.000000

     crystal axes: (cart. coord. in units of alat)
               a(1) = (   1.000000   0.000000   0.000000 )  
               a(2) = (   0.000000   1.000000   0.000000 )  
               a(3) = (   0.000000   0.000000   1.000000 )  

     reciprocal axes: (cart. coord. in units 2 pi/alat)
               b(1) = (  1.000000  0.000000  0.000000 )  
               b(2) = (  0.000000  1.000000  0.000000 )  
               b(3) = (  0.000000  0.000000  1.000000 )  


     PseudoPot. # 1 for Cs read from file:
     /home/administrator/Downloads/BURAI/BURAI1.3/pseudopot/Cs.pbe-spn-rrkjus_psl.1.0.0.UPF
     MD5 check sum: 0e4a2db85f86c9a13762b1b689b65a6d
     Pseudo is Ultrasoft + core correction, Zval =  9.0
     Generated using "atomic" code by A. Dal Corso  v.5.1.2
     Using radial grid of 1251 points,  9 beta functions with: 
                l(1) =   0
                l(2) =   0
                l(3) =   0
                l(4) =   1
                l(5) =   1
                l(6) =   2
                l(7) =   2
                l(8) =   3
                l(9) =   3
     Q(r) pseudized with 0 coefficients 


     PseudoPot. # 2 for Nb read from file:
     /home/administrator/Downloads/BURAI/BURAI1.3/pseudopot/Nb.pbe-spn-rrkjus_psl.1.0.0.UPF
     MD5 check sum: 845248541eb4ee858e424f0d43b69a62
     Pseudo is Ultrasoft + core correction, Zval = 13.0
     Generated using "atomic" code by A. Dal Corso  v.5.1.2
     Using radial grid of 1227 points,  6 beta functions with: 
                l(1) =   0
                l(2) =   0
                l(3) =   1
                l(4) =   1
                l(5) =   2
                l(6) =   2
     Q(r) pseudized with 0 coefficients 


     PseudoPot. # 3 for Se read from file:
     /home/administrator/Downloads/BURAI/BURAI1.3/pseudopot/Se.pbe-dn-rrkjus_psl.1.0.0.UPF
     MD5 check sum: 52ed0f01d9466caabcc79b3d6a0154cf
     Pseudo is Ultrasoft + core correction, Zval = 16.0
     Generated using "atomic" code by A. Dal Corso  v.5.1.2
     Using radial grid of 1211 points,  6 beta functions with: 
                l(1) =   0
                l(2) =   0
                l(3) =   1
                l(4) =   1
                l(5) =   2
                l(6) =   2
     Q(r) pseudized with 0 coefficients 


     atomic species   valence    mass     pseudopotential
     Cs                9.00   132.90550     Cs( 1.00)
     Nb               13.00    92.90640     Nb( 1.00)
     Se               16.00    78.97100     Se( 1.00)

     48 Sym. Ops., with inversion, found



   Cartesian axes

     site n.     atom                  positions (alat units)
         1        Cs     tau(   1) = (   0.0000000   0.0000000   0.0000000  )
         2        Nb     tau(   2) = (   0.5000000   0.5000000   0.5000000  )
         3        Se     tau(   3) = (   0.5000000   0.5000000   0.0000000  )
         4        Se     tau(   4) = (   0.5000000   0.0000000   0.5000000  )
         5        Se     tau(   5) = (   0.0000000   0.5000000   0.5000000  )

     number of k points=    35  Gaussian smearing, width (Ry)=  0.0100
                       cart. coord. in units 2pi/alat
        k(    1) = (   0.0000000   0.0000000   0.0000000), wk =   0.0039062
        k(    2) = (   0.0000000   0.0000000   0.1250000), wk =   0.0234375
        k(    3) = (   0.0000000   0.0000000   0.2500000), wk =   0.0234375
        k(    4) = (   0.0000000   0.0000000   0.3750000), wk =   0.0234375
        k(    5) = (   0.0000000   0.0000000  -0.5000000), wk =   0.0117188
        k(    6) = (   0.0000000   0.1250000   0.1250000), wk =   0.0468750
        k(    7) = (   0.0000000   0.1250000   0.2500000), wk =   0.0937500
        k(    8) = (   0.0000000   0.1250000   0.3750000), wk =   0.0937500
        k(    9) = (   0.0000000   0.1250000  -0.5000000), wk =   0.0468750
        k(   10) = (   0.0000000   0.2500000   0.2500000), wk =   0.0468750
        k(   11) = (   0.0000000   0.2500000   0.3750000), wk =   0.0937500
        k(   12) = (   0.0000000   0.2500000  -0.5000000), wk =   0.0468750
        k(   13) = (   0.0000000   0.3750000   0.3750000), wk =   0.0468750
        k(   14) = (   0.0000000   0.3750000  -0.5000000), wk =   0.0468750
        k(   15) = (   0.0000000  -0.5000000  -0.5000000), wk =   0.0117188
        k(   16) = (   0.1250000   0.1250000   0.1250000), wk =   0.0312500
        k(   17) = (   0.1250000   0.1250000   0.2500000), wk =   0.0937500
        k(   18) = (   0.1250000   0.1250000   0.3750000), wk =   0.0937500
        k(   19) = (   0.1250000   0.1250000  -0.5000000), wk =   0.0468750
        k(   20) = (   0.1250000   0.2500000   0.2500000), wk =   0.0937500
        k(   21) = (   0.1250000   0.2500000   0.3750000), wk =   0.1875000
        k(   22) = (   0.1250000   0.2500000  -0.5000000), wk =   0.0937500
        k(   23) = (   0.1250000   0.3750000   0.3750000), wk =   0.0937500
        k(   24) = (   0.1250000   0.3750000  -0.5000000), wk =   0.0937500
        k(   25) = (   0.1250000  -0.5000000  -0.5000000), wk =   0.0234375
        k(   26) = (   0.2500000   0.2500000   0.2500000), wk =   0.0312500
        k(   27) = (   0.2500000   0.2500000   0.3750000), wk =   0.0937500
        k(   28) = (   0.2500000   0.2500000  -0.5000000), wk =   0.0468750
        k(   29) = (   0.2500000   0.3750000   0.3750000), wk =   0.0937500
        k(   30) = (   0.2500000   0.3750000  -0.5000000), wk =   0.0937500
        k(   31) = (   0.2500000  -0.5000000  -0.5000000), wk =   0.0234375
        k(   32) = (   0.3750000   0.3750000   0.3750000), wk =   0.0312500
        k(   33) = (   0.3750000   0.3750000  -0.5000000), wk =   0.0468750
        k(   34) = (   0.3750000  -0.5000000  -0.5000000), wk =   0.0234375
        k(   35) = (  -0.5000000  -0.5000000  -0.5000000), wk =   0.0039062

     Dense  grid:   358581 G-vectors     FFT dimensions: (  90,  90,  90)

     Smooth grid:   126923 G-vectors     FFT dimensions: (  64,  64,  64)

     Estimated max dynamical RAM per process >     534.99 MB

     Estimated total dynamical RAM >       4.09 GB

     Initial potential from superposition of free atoms

     starting charge      69.9577, renormalised to      70.0000
     Starting wfcs are   45 randomized atomic wfcs

     total cpu time spent up to now is        8.5 secs

     Self-consistent Calculation

     iteration #  1     ecut=   100.00 Ry     beta= 0.30
     Davidson diagonalization with overlap
     ethr =  1.00E-02,  avg # of iterations =  6.0

     Threshold (ethr) on eigenvalues was too large:
     Diagonalizing with lowered threshold

     Davidson diagonalization with overlap
     ethr =  4.21E-04,  avg # of iterations =  6.3

     total cpu time spent up to now is       43.9 secs

     total energy              =    -947.69988228 Ry
     estimated scf accuracy    <       0.27903968 Ry

     iteration #  2     ecut=   100.00 Ry     beta= 0.30
     Davidson diagonalization with overlap
     ethr =  3.99E-04,  avg # of iterations =  2.1

     total cpu time spent up to now is       60.2 secs

     total energy              =    -947.72952204 Ry
     estimated scf accuracy    <       0.35178020 Ry

     iteration #  3     ecut=   100.00 Ry     beta= 0.30
     Davidson diagonalization with overlap
     ethr =  3.99E-04,  avg # of iterations =  1.6

     total cpu time spent up to now is       75.2 secs

     total energy              =    -947.76904635 Ry
     estimated scf accuracy    <       0.01709015 Ry

     iteration #  4     ecut=   100.00 Ry     beta= 0.30
     Davidson diagonalization with overlap
     ethr =  2.44E-05,  avg # of iterations =  9.1

     total cpu time spent up to now is       96.1 secs

     total energy              =    -947.77207648 Ry
     estimated scf accuracy    <       0.00208962 Ry

     iteration #  5     ecut=   100.00 Ry     beta= 0.30
     Davidson diagonalization with overlap
     c_bands:  1 eigenvalues not converged
     c_bands:  1 eigenvalues not converged
     c_bands:  1 eigenvalues not converged
     ethr =  2.99E-06,  avg # of iterations =  8.3

     total cpu time spent up to now is      116.5 secs

     total energy              =    -947.77263960 Ry
     estimated scf accuracy    <       0.00070549 Ry

     iteration #  6     ecut=   100.00 Ry     beta= 0.30
     Davidson diagonalization with overlap
     ethr =  1.01E-06,  avg # of iterations =  2.6

     total cpu time spent up to now is      132.1 secs

     total energy              =    -947.77271144 Ry
     estimated scf accuracy    <       0.00002966 Ry

     iteration #  7     ecut=   100.00 Ry     beta= 0.30
     Davidson diagonalization with overlap
     ethr =  4.24E-08,  avg # of iterations =  4.2

     total cpu time spent up to now is      151.3 secs

     total energy              =    -947.77272368 Ry
     estimated scf accuracy    <       0.00000626 Ry

     iteration #  8     ecut=   100.00 Ry     beta= 0.30
     Davidson diagonalization with overlap
     ethr =  8.94E-09,  avg # of iterations =  2.6

     total cpu time spent up to now is      168.7 secs

     total energy              =    -947.77272504 Ry
     estimated scf accuracy    <       0.00000051 Ry

     iteration #  9     ecut=   100.00 Ry     beta= 0.30
     Davidson diagonalization with overlap
     ethr =  7.35E-10,  avg # of iterations =  4.0

     total cpu time spent up to now is      189.1 secs

     total energy              =    -947.77272548 Ry
     estimated scf accuracy    <       0.00000011 Ry

     iteration # 10     ecut=   100.00 Ry     beta= 0.30
     Davidson diagonalization with overlap
     ethr =  1.62E-10,  avg # of iterations =  2.8

     total cpu time spent up to now is      207.0 secs

     total energy              =    -947.77272560 Ry
     estimated scf accuracy    <       0.00000007 Ry

     iteration # 11     ecut=   100.00 Ry     beta= 0.30
     Davidson diagonalization with overlap
     ethr =  9.71E-11,  avg # of iterations =  2.1

     total cpu time spent up to now is      223.4 secs

     total energy              =    -947.77272567 Ry
     estimated scf accuracy    <          1.4E-09 Ry

     iteration # 12     ecut=   100.00 Ry     beta= 0.30
     Davidson diagonalization with overlap
     ethr =  2.02E-12,  avg # of iterations =  6.6

     total cpu time spent up to now is      252.3 secs

     total energy              =    -947.77272570 Ry
     estimated scf accuracy    <          4.5E-09 Ry

     iteration # 13     ecut=   100.00 Ry     beta= 0.30
     Davidson diagonalization with overlap
     ethr =  2.02E-12,  avg # of iterations =  2.5

     total cpu time spent up to now is      269.2 secs

     total energy              =    -947.77272571 Ry
     estimated scf accuracy    <          3.2E-11 Ry

     iteration # 14     ecut=   100.00 Ry     beta= 0.30
     Davidson diagonalization with overlap
     ethr =  1.00E-13,  avg # of iterations =  5.3

     total cpu time spent up to now is      291.1 secs

     total energy              =    -947.77272572 Ry
     estimated scf accuracy    <          4.2E-11 Ry

     iteration # 15     ecut=   100.00 Ry     beta= 0.30
     Davidson diagonalization with overlap
     ethr =  1.00E-13,  avg # of iterations =  2.0

     total cpu time spent up to now is      306.9 secs

     total energy              =    -947.77272572 Ry
     estimated scf accuracy    <          1.2E-12 Ry

     iteration # 16     ecut=   100.00 Ry     beta= 0.30
     Davidson diagonalization with overlap
     ethr =  1.00E-13,  avg # of iterations =  1.0

     total cpu time spent up to now is      321.5 secs

     End of self-consistent calculation

          k = 0.0000 0.0000 0.0000 ( 15791 PWs)   bands (ev):

   -48.0209 -39.0474 -39.0474 -39.0458 -39.0253 -39.0253 -39.0253 -39.0237
   -39.0237 -39.0237 -39.0012 -39.0012 -39.0012 -39.0005 -39.0005 -38.9998
   -24.0543 -24.0543 -24.0543 -12.5692  -5.0483  -4.0701  -4.0701   0.4348
     0.4348   0.4348   4.9211   4.9211   4.9211   6.9809   6.9809   6.9809
     7.3863   7.3863   7.3863   7.8564   7.8564   7.8564   8.9895   8.9895
    12.1118  12.1118

          k = 0.0000 0.0000 0.1250 ( 15851 PWs)   bands (ev):

   -48.0209 -39.0475 -39.0474 -39.0459 -39.0253 -39.0253 -39.0253 -39.0238
   -39.0238 -39.0237 -39.0012 -39.0012 -39.0012 -39.0005 -39.0005 -38.9999
   -24.0545 -24.0542 -24.0542 -12.5676  -5.0168  -4.0744  -4.0675   0.4447
     0.4447   0.4686   4.6908   4.9231   4.9231   6.5607   6.5607   6.8867
     7.2721   7.3936   7.5049   7.5049   8.1988   8.1988   8.9957   9.5711
    12.2791  12.3737

          k = 0.0000 0.0000 0.2500 ( 15863 PWs)   bands (ev):

   -48.0208 -39.0478 -39.0474 -39.0461 -39.0253 -39.0251 -39.0251 -39.0240
   -39.0240 -39.0237 -39.0012 -39.0012 -39.0012 -39.0005 -39.0004 -38.9999
   -24.0550 -24.0541 -24.0541 -12.5638  -4.9431  -4.0775  -4.0610   0.4690
     0.4690   0.5503   4.1708   4.9336   4.9336   6.0601   6.0601   6.5571
     6.6818   7.4113   7.4603   7.4603   8.8564   8.8564   9.0071  10.1887
    12.7168  13.3041

          k = 0.0000 0.0000 0.3750 ( 15827 PWs)   bands (ev):

   -48.0206 -39.0482 -39.0474 -39.0463 -39.0253 -39.0248 -39.0248 -39.0242
   -39.0242 -39.0237 -39.0012 -39.0012 -39.0012 -39.0005 -39.0003 -39.0000
   -24.0554 -24.0540 -24.0540 -12.5599  -4.8751  -4.0676  -4.0546   0.4938
     0.4938   0.6312   3.6961   4.9588   4.9588   5.7063   5.7063   6.0891
     6.5010   7.3938   7.3938   7.4292   9.0154   9.4070   9.4070  10.4877
    13.3871  13.6831

          k = 0.0000 0.0000-0.5000 ( 15896 PWs)   bands (ev):

   -48.0206 -39.0484 -39.0474 -39.0463 -39.0253 -39.0245 -39.0245 -39.0245
   -39.0245 -39.0237 -39.0012 -39.0012 -39.0012 -39.0005 -39.0003 -39.0000
   -24.0556 -24.0539 -24.0539 -12.5583  -4.8494  -4.0588  -4.0519   0.5043
     0.5043   0.6641   3.5112   4.9782   4.9782   5.5716   5.5716   5.9261
     6.4317   7.3664   7.3664   7.4367   9.0183   9.6253   9.6253  10.5705
    13.6459  13.9441

          k = 0.0000 0.1250 0.1250 ( 15842 PWs)   bands (ev):

   -48.0208 -39.0475 -39.0474 -39.0461 -39.0253 -39.0252 -39.0252 -39.0238
   -39.0238 -39.0238 -39.0012 -39.0012 -39.0012 -39.0005 -39.0005 -38.9999
   -24.0544 -24.0544 -24.0542 -12.5661  -4.9831  -4.0761  -4.0674   0.4472
     0.4546   0.5001   4.5861   4.8025   4.9272   6.1777   6.3845   7.0055
     7.0169   7.0750   7.3714   8.0510   8.2191   8.2482   9.2720   9.9399
    12.5106  12.5521

          k = 0.0000 0.1250 0.2500 ( 15865 PWs)   bands (ev):

   -48.0207 -39.0478 -39.0475 -39.0463 -39.0253 -39.0251 -39.0250 -39.0240
   -39.0240 -39.0238 -39.0013 -39.0012 -39.0012 -39.0005 -39.0004 -38.9999
   -24.0549 -24.0543 -24.0540 -12.5624  -4.9033  -4.0803  -4.0608   0.4674
     0.4790   0.5614   4.1296   4.7492   4.9433   5.6553   5.9903   6.6092
     6.8604   6.9812   7.1720   8.1235   8.7555   8.8430   9.3512  10.6076
    12.9555  13.1294

          k = 0.0000 0.1250 0.3750 ( 15875 PWs)   bands (ev):

   -48.0206 -39.0482 -39.0475 -39.0464 -39.0253 -39.0248 -39.0248 -39.0242
   -39.0242 -39.0238 -39.0013 -39.0012 -39.0012 -39.0005 -39.0003 -39.0000
   -24.0554 -24.0542 -24.0539 -12.5586  -4.8280  -4.0732  -4.0539   0.4925
     0.5040   0.6165   3.6688   4.7593   4.9764   5.2450   5.6600   6.3209
     6.7913   6.8522   7.0607   8.1072   9.2639   9.3909   9.4161  10.9384
    13.6000  13.8823

          k = 0.0000 0.1250-0.5000 ( 15880 PWs)   bands (ev):

   -48.0205 -39.0484 -39.0475 -39.0465 -39.0253 -39.0245 -39.0245 -39.0245
   -39.0245 -39.0238 -39.0013 -39.0012 -39.0012 -39.0005 -39.0003 -39.0001
   -24.0556 -24.0541 -24.0539 -12.5571  -4.7990  -4.0651  -4.0516   0.5035
     0.5145   0.6379   3.4859   4.7936   5.0015   5.0655   5.5276   6.2295
     6.7682   6.7903   7.0246   8.1008   9.3412   9.5799   9.6075  11.0149
    13.8553  14.1537

          k = 0.0000 0.2500 0.2500 ( 15842 PWs)   bands (ev):

   -48.0206 -39.0479 -39.0477 -39.0465 -39.0251 -39.0250 -39.0249 -39.0241
   -39.0240 -39.0239 -39.0013 -39.0012 -39.0012 -39.0005 -39.0004 -39.0000
   -24.0548 -24.0548 -24.0539 -12.5590  -4.8056  -4.0886  -4.0560   0.4745
     0.5037   0.5770   3.9286   4.4379   4.9745   5.1006   5.7886   6.4825
     6.5259   6.8461   7.4287   8.8067   8.8227   8.8972   9.5170  11.5193
    13.3021  13.5813

          k = 0.0000 0.2500 0.3750 ( 15860 PWs)   bands (ev):

   -48.0205 -39.0482 -39.0478 -39.0467 -39.0251 -39.0248 -39.0247 -39.0243
   -39.0242 -39.0239 -39.0013 -39.0012 -39.0012 -39.0004 -39.0003 -39.0001
   -24.0553 -24.0547 -24.0538 -12.5556  -4.7073  -4.0880  -4.0539   0.4927
     0.5290   0.5809   3.5624   4.3313   4.6904   5.0296   5.5442   6.2975
     6.4477   6.7741   7.5091   8.7931   9.2900   9.3577   9.5635  12.0920
    13.7897  14.2315

          k = 0.0000 0.2500-0.5000 ( 15842 PWs)   bands (ev):

   -48.0204 -39.0484 -39.0478 -39.0467 -39.0251 -39.0245 -39.0245 -39.0245
   -39.0245 -39.0239 -39.0013 -39.0012 -39.0011 -39.0004 -39.0003 -39.0001
   -24.0555 -24.0546 -24.0538 -12.5541  -4.6672  -4.0805  -4.0574   0.5037
     0.5396   0.5789   3.3908   4.3322   4.5272   5.0723   5.4230   6.2427
     6.4397   6.7390   7.5008   8.7854   9.5155   9.5677   9.5707  12.2176
    14.4455  14.4941

          k = 0.0000 0.3750 0.3750 ( 15852 PWs)   bands (ev):

   -48.0203 -39.0482 -39.0481 -39.0468 -39.0249 -39.0248 -39.0247 -39.0244
   -39.0243 -39.0241 -39.0013 -39.0012 -39.0011 -39.0004 -39.0003 -39.0001
   -24.0551 -24.0551 -24.0537 -12.5525  -4.5734  -4.0989  -4.0649   0.4992
     0.5450   0.5545   3.3322   4.0437   4.3070   5.1150   5.4086   5.9678
     6.5453   6.7177   7.9283   9.3216   9.3392   9.4291   9.6219  13.1959
    13.9203  14.8617

          k = 0.0000 0.3750-0.5000 ( 15818 PWs)   bands (ev):

   -48.0202 -39.0484 -39.0482 -39.0468 -39.0249 -39.0245 -39.0245 -39.0245
   -39.0245 -39.0242 -39.0013 -39.0012 -39.0011 -39.0004 -39.0003 -39.0002
   -24.0553 -24.0551 -24.0536 -12.5512  -4.5122  -4.0960  -4.0806   0.5068
     0.5275   0.5653   3.1907   3.9774   4.1727   5.1877   5.3206   5.8480
     6.6158   6.6853   8.0387   9.3205   9.5407   9.5647   9.6346  13.5525
    14.4299  14.4336

          k = 0.0000-0.5000-0.5000 ( 15820 PWs)   bands (ev):

   -48.0202 -39.0484 -39.0484 -39.0469 -39.0247 -39.0245 -39.0245 -39.0245
   -39.0245 -39.0244 -39.0013 -39.0012 -39.0011 -39.0003 -39.0003 -39.0003
   -24.0553 -24.0553 -24.0536 -12.5500  -4.4338  -4.1025  -4.1025   0.5090
     0.5090   0.5761   3.0622   3.8830   4.0492   5.2788   5.2788   5.6628
     6.6882   6.6882   8.2120   9.5300   9.5300   9.6488   9.6501  14.3888
    14.4261  14.4509

          k = 0.1250 0.1250 0.1250 ( 15867 PWs)   bands (ev):

   -48.0208 -39.0475 -39.0475 -39.0462 -39.0252 -39.0252 -39.0252 -39.0239
   -39.0239 -39.0238 -39.0013 -39.0012 -39.0012 -39.0005 -39.0005 -38.9999
   -24.0544 -24.0544 -24.0544 -12.5646  -4.9474  -4.0723  -4.0723   0.4493
     0.4493   0.5367   4.4865   4.8071   4.8071   6.0929   6.0929   6.4507
     7.1344   7.3112   7.3112   8.1786   8.2540   8.2540   9.9409   9.9409
    12.7096  12.7098

          k = 0.1250 0.1250 0.2500 ( 15856 PWs)   bands (ev):

   -48.0207 -39.0478 -39.0475 -39.0464 -39.0252 -39.0251 -39.0250 -39.0240
   -39.0240 -39.0238 -39.0013 -39.0012 -39.0012 -39.0005 -39.0004 -38.9999
   -24.0549 -24.0542 -24.0542 -12.5610  -4.8622  -4.0788  -4.0631   0.4541
     0.4716   0.5886   4.0862   4.7026   4.8231   5.6212   5.6847   6.2392
     7.0184   7.1058   7.2012   8.2395   8.7503   8.7884   9.9363  10.7672
    13.1185  13.3330

          k = 0.1250 0.1250 0.3750 ( 15875 PWs)   bands (ev):

   -48.0205 -39.0482 -39.0475 -39.0466 -39.0252 -39.0248 -39.0248 -39.0243
   -39.0242 -39.0238 -39.0013 -39.0012 -39.0012 -39.0005 -39.0003 -39.0000
   -24.0553 -24.0541 -24.0541 -12.5574  -4.7803  -4.0748  -4.0539   0.4588
     0.5196   0.6127   3.6424   4.7009   4.8525   5.1594   5.3920   6.2399
     6.7482   6.9651   7.1320   8.2521   9.3044   9.3403   9.9067  11.1664
    13.6569  13.9247

          k = 0.1250 0.1250-0.5000 ( 15854 PWs)   bands (ev):

   -48.0205 -39.0484 -39.0475 -39.0466 -39.0252 -39.0245 -39.0245 -39.0245
   -39.0245 -39.0238 -39.0013 -39.0012 -39.0012 -39.0005 -39.0003 -39.0001
   -24.0555 -24.0541 -24.0541 -12.5559  -4.7483  -4.0690  -4.0501   0.4606
     0.5520   0.6092   3.4613   4.7629   4.8737   4.9342   5.2801   6.2737
     6.6247   6.9038   7.1038   8.2555   9.5406   9.6116   9.8519  11.2553
    13.8356  14.4823

          k = 0.1250 0.2500 0.2500 ( 15838 PWs)   bands (ev):

   -48.0205 -39.0479 -39.0477 -39.0467 -39.0251 -39.0250 -39.0249 -39.0241
   -39.0240 -39.0240 -39.0013 -39.0012 -39.0012 -39.0004 -39.0004 -39.0000
   -24.0547 -24.0547 -24.0541 -12.5577  -4.7609  -4.0823  -4.0593   0.4549
     0.4576   0.6157   3.8918   4.4429   4.7914   5.1344   5.5773   5.8067
     6.9789   7.0810   7.4293   8.7033   8.8452   8.9346  10.2790  11.5181
    13.3878  13.5809

          k = 0.1250 0.2500 0.3750 ( 15857 PWs)   bands (ev):

   -48.0204 -39.0482 -39.0478 -39.0469 -39.0251 -39.0248 -39.0247 -39.0243
   -39.0242 -39.0240 -39.0013 -39.0012 -39.0012 -39.0004 -39.0003 -39.0001
   -24.0552 -24.0546 -24.0540 -12.5544  -4.6581  -4.0828  -4.0530   0.4403
     0.4953   0.6038   3.5378   4.3327   4.6873   4.8802   5.3199   5.7627
     6.8552   7.0198   7.5171   8.7843   9.2907   9.3560  10.2980  12.1111
    13.8182  13.9870

          k = 0.1250 0.2500-0.5000 ( 15854 PWs)   bands (ev):

   -48.0203 -39.0484 -39.0478 -39.0469 -39.0251 -39.0246 -39.0245 -39.0245
   -39.0245 -39.0240 -39.0013 -39.0012 -39.0011 -39.0004 -39.0003 -39.0001
   -24.0554 -24.0546 -24.0540 -12.5530  -4.6159  -4.0786  -4.0523   0.4335
     0.5439   0.5657   3.3661   4.3388   4.5460   4.8954   5.1964   5.7748
     6.8114   6.9880   7.5132   8.7931   9.5075   9.5967  10.2702  12.2434
    14.0844  14.4482

          k = 0.1250 0.3750 0.3750 ( 15864 PWs)   bands (ev):

   -48.0203 -39.0482 -39.0481 -39.0470 -39.0249 -39.0248 -39.0246 -39.0244
   -39.0243 -39.0242 -39.0014 -39.0012 -39.0011 -39.0004 -39.0003 -39.0001
   -24.0551 -24.0551 -24.0539 -12.5514  -4.5223  -4.0899  -4.0601   0.4530
     0.4628   0.5748   3.3061   4.0463   4.3682   4.9358   5.2568   5.4989
     6.8764   6.9842   7.9308   9.2786   9.3687   9.4650  10.3501  13.1974
    13.9078  14.4099

          k = 0.1250 0.3750-0.5000 ( 15840 PWs)   bands (ev):

   -48.0202 -39.0484 -39.0482 -39.0471 -39.0248 -39.0246 -39.0246 -39.0245
   -39.0245 -39.0242 -39.0014 -39.0012 -39.0011 -39.0004 -39.0003 -39.0002
   -24.0553 -24.0550 -24.0538 -12.5502  -4.4598  -4.0884  -4.0716   0.4417
     0.4858   0.5442   3.1618   3.9799   4.2560   5.0056   5.1644   5.4364
     6.9124   6.9544   8.0445   9.3245   9.5542   9.6066  10.3303  13.5534
    14.2364  14.4042

          k = 0.1250-0.5000-0.5000 ( 15844 PWs)   bands (ev):

   -48.0201 -39.0484 -39.0484 -39.0471 -39.0247 -39.0246 -39.0246 -39.0245
   -39.0245 -39.0244 -39.0014 -39.0012 -39.0011 -39.0003 -39.0003 -39.0003
   -24.0552 -24.0552 -24.0538 -12.5490  -4.3802  -4.0925  -4.0925   0.4644
     0.4644   0.5159   3.0306   3.8849   4.1558   5.1500   5.1500   5.2191
     6.9569   6.9569   8.2205   9.5636   9.5636   9.6814  10.3087  14.1248
    14.3747  14.4316

          k = 0.2500 0.2500 0.2500 ( 15843 PWs)   bands (ev):

   -48.0204 -39.0479 -39.0479 -39.0471 -39.0250 -39.0249 -39.0249 -39.0242
   -39.0242 -39.0241 -39.0013 -39.0012 -39.0012 -39.0004 -39.0004 -39.0000
   -24.0546 -24.0546 -24.0546 -12.5547  -4.6493  -4.0666  -4.0666   0.4161
     0.4161   0.6271   3.7423   4.4566   4.4566   5.0523   5.2585   5.2585
     7.2685   7.2685   7.5453   8.8560   9.0437   9.0437  11.4988  11.4988
    13.4597  13.7192

          k = 0.2500 0.2500 0.3750 ( 15856 PWs)   bands (ev):

   -48.0203 -39.0482 -39.0479 -39.0473 -39.0250 -39.0248 -39.0247 -39.0243
   -39.0243 -39.0241 -39.0014 -39.0012 -39.0012 -39.0004 -39.0003 -39.0001
   -24.0551 -24.0545 -24.0545 -12.5516  -4.5323  -4.0725  -4.0508   0.3740
     0.4290   0.5833   3.4336   4.2875   4.4746   4.6948   5.0385   5.2642
     7.2705   7.3644   7.6324   9.0246   9.3340   9.4252  11.4392  12.3091
    13.6710  14.0256

          k = 0.2500 0.2500-0.5000 ( 15832 PWs)   bands (ev):

   -48.0202 -39.0484 -39.0479 -39.0474 -39.0250 -39.0246 -39.0246 -39.0245
   -39.0245 -39.0241 -39.0014 -39.0012 -39.0011 -39.0004 -39.0003 -39.0002
   -24.0553 -24.0544 -24.0544 -12.5503  -4.4823  -4.0740  -4.0442   0.3564
     0.4629   0.5360   3.2643   4.2912   4.4841   4.5394   4.9612   5.2865
     7.2685   7.3739   7.6320   9.0607   9.5304   9.6413  11.3920  12.4881
    13.8668  14.2427

          k = 0.2500 0.3750 0.3750 ( 15817 PWs)   bands (ev):

   -48.0201 -39.0482 -39.0482 -39.0475 -39.0248 -39.0247 -39.0246 -39.0244
   -39.0243 -39.0242 -39.0014 -39.0012 -39.0011 -39.0003 -39.0003 -39.0002
   -24.0550 -24.0550 -24.0544 -12.5488  -4.3917  -4.0680  -4.0498   0.3468
     0.3758   0.5120   3.1947   4.0528   4.4224   4.5405   5.0112   5.0155
     7.4095   7.4914   7.9492   9.3801   9.4722   9.5596  11.7285  13.1607
    13.6310  14.0383

          k = 0.2500 0.3750-0.5000 ( 15830 PWs)   bands (ev):

   -48.0201 -39.0484 -39.0482 -39.0476 -39.0248 -39.0246 -39.0246 -39.0245
   -39.0244 -39.0243 -39.0014 -39.0012 -39.0011 -39.0003 -39.0003 -39.0002
   -24.0552 -24.0549 -24.0543 -12.5476  -4.3260  -4.0697  -4.0507   0.3298
     0.3877   0.4552   3.0457   3.9847   4.4511   4.4562   4.9278   5.0312
     7.4582   7.5021   8.0635   9.4589   9.6211   9.7000  11.7025  13.4546
    13.8209  13.9102

          k = 0.2500-0.5000-0.5000 ( 15832 PWs)   bands (ev):

   -48.0200 -39.0484 -39.0484 -39.0476 -39.0247 -39.0246 -39.0246 -39.0244
   -39.0244 -39.0244 -39.0014 -39.0012 -39.0011 -39.0003 -39.0003 -39.0003
   -24.0551 -24.0551 -24.0543 -12.5465  -4.2441  -4.0679  -4.0679   0.3587
     0.3587   0.3818   2.9092   3.8895   4.4053   4.4797   4.9400   4.9400
     7.5242   7.5242   8.2414   9.6655   9.6655   9.7697  11.6749  13.7423
    13.9456  13.9457

          k = 0.3750 0.3750 0.3750 ( 15831 PWs)   bands (ev):

   -48.0200 -39.0482 -39.0482 -39.0480 -39.0248 -39.0246 -39.0246 -39.0244
   -39.0244 -39.0243 -39.0014 -39.0011 -39.0011 -39.0003 -39.0003 -39.0002
   -24.0549 -24.0549 -24.0549 -12.5462  -4.2459  -4.0455  -4.0455   0.2899
     0.2899   0.4067   2.9614   4.0598   4.0598   4.6247   4.8504   4.8504
     7.8338   7.8338   8.0351   9.5832   9.6706   9.6706  12.9915  12.9915
    13.2978  13.8338

          k = 0.3750 0.3750-0.5000 ( 15820 PWs)   bands (ev):

   -48.0199 -39.0484 -39.0482 -39.0481 -39.0247 -39.0246 -39.0246 -39.0244
   -39.0244 -39.0243 -39.0014 -39.0011 -39.0011 -39.0003 -39.0003 -39.0002
   -24.0551 -24.0548 -24.0548 -12.5451  -4.1755  -4.0506  -4.0360   0.2546
     0.2932   0.3383   2.8210   3.9635   4.0628   4.6210   4.7941   4.8527
     7.8917   7.9829   8.1258   9.6854   9.7511   9.8062  12.8512  13.1179
    13.3678  13.6465

          k = 0.3750-0.5000-0.5000 ( 15796 PWs)   bands (ev):

   -48.0198 -39.0484 -39.0484 -39.0482 -39.0247 -39.0247 -39.0247 -39.0244
   -39.0244 -39.0244 -39.0014 -39.0011 -39.0011 -39.0003 -39.0003 -39.0003
   -24.0550 -24.0550 -24.0547 -12.5441  -4.0968  -4.0426  -4.0426   0.2553
     0.2553   0.2603   2.6886   3.8941   4.0218   4.6470   4.7950   4.7950
     8.0556   8.0556   8.2627   9.8252   9.8252   9.8765  12.7703  13.2257
    13.2258  13.8576

          k =-0.5000-0.5000-0.5000 ( 15984 PWs)   bands (ev):

   -48.0199 -39.0484 -39.0484 -39.0484 -39.0247 -39.0247 -39.0247 -39.0244
   -39.0244 -39.0244 -39.0015 -39.0011 -39.0011 -39.0003 -39.0003 -39.0003
   -24.0550 -24.0550 -24.0550 -12.5430  -4.0320  -4.0320  -4.0320   0.2131
     0.2131   0.2131   2.5618   3.8960   3.8960   4.7456   4.7456   4.7456
     8.2717   8.2717   8.2717   9.9284   9.9284   9.9284  12.9085  12.9085
    12.9085  13.0873

     the Fermi energy is     8.0879 ev

!    total energy              =    -947.77272573 Ry
     estimated scf accuracy    <          4.9E-13 Ry
     smearing contrib. (-TS)   =      -0.00248060 Ry
     internal energy E=F+TS    =    -947.77024512 Ry

     The total energy is F=E-TS. E is the sum of the following terms:
     one-electron contribution =    -744.48571107 Ry
     hartree contribution      =     391.00930082 Ry
     xc contribution           =    -125.08750859 Ry
     ewald contribution        =    -469.20632628 Ry

     convergence has been achieved in  16 iterations

     Writing all to output data dir ./tmp/CsNbSe3.save/ :
     XML data file, charge density, pseudopotentials, collected wavefunctions

     init_run     :      8.80s CPU      7.83s WALL (       1 calls)
     electrons    :    407.57s CPU    312.98s WALL (       1 calls)

     Called by init_run:
     wfcinit      :      5.70s CPU      4.48s WALL (       1 calls)
     potinit      :      0.53s CPU      0.56s WALL (       1 calls)
     hinit0       :      0.95s CPU      0.98s WALL (       1 calls)

     Called by electrons:
     c_bands      :    293.67s CPU    210.55s WALL (      17 calls)
     sum_band     :     88.41s CPU     72.23s WALL (      17 calls)
     v_of_rho     :      3.37s CPU      3.49s WALL (      17 calls)
     newd         :     22.94s CPU     27.73s WALL (      17 calls)
     mix_rho      :      0.35s CPU      0.36s WALL (      17 calls)

     Called by c_bands:
     init_us_2    :      9.58s CPU      6.75s WALL (     630 calls)
     cegterg      :    254.20s CPU    180.78s WALL (     306 calls)

     Called by *egterg:
     cdiaghg      :     12.58s CPU      8.94s WALL (    1536 calls)
     h_psi        :    176.98s CPU    136.72s WALL (    1572 calls)
     s_psi        :     13.79s CPU      7.34s WALL (    1572 calls)
     g_psi        :      1.50s CPU      1.11s WALL (    1248 calls)

     Called by h_psi:
     h_psi:calbec :     15.19s CPU      8.41s WALL (    1572 calls)
     vloc_psi     :    145.44s CPU    119.31s WALL (    1572 calls)
     add_vuspsi   :     14.94s CPU      7.97s WALL (    1572 calls)

     General routines
     calbec       :     20.35s CPU     11.24s WALL (    1878 calls)
     fft          :      2.13s CPU      2.28s WALL (     220 calls)
     ffts         :      0.27s CPU      0.26s WALL (      34 calls)
     fftw         :    133.55s CPU    107.73s WALL (   81000 calls)
     interpolate  :      0.41s CPU      0.43s WALL (      17 calls)

     Parallel routines

     PWSCF        :   6m57.24s CPU   5m21.89s WALL


   This run was terminated on:  18:32:21  10May2025            

=------------------------------------------------------------------------------=
   JOB DONE.
=------------------------------------------------------------------------------=
