
     Program PWSCF v.7.3.1 starts on 12May2025 at  9:59:37 

     This program is part of the open-source Quantum ESPRESSO suite
     for quantum simulation of materials; please cite
         "P. Giannozzi et al., J. Phys.:Condens. Matter 21 395502 (2009);
         "P. Giannozzi et al., J. Phys.:Condens. Matter 29 465901 (2017);
         "P. Giannozzi et al., J. Chem. Phys. 152 154105 (2020);
          URL http://www.quantum-espresso.org", 
     in publications or presentations arising from this work. More details at
     http://www.quantum-espresso.org/quote

     Parallel version (MPI), running on     8 processors

     MPI processes distributed on     1 nodes
     60883 MiB available memory on the printing compute node when the environment starts

     Waiting for input...
     Reading input from standard input

     Current dimensions of program PWSCF are:
     Max number of different atomic species (ntypx) = 10
     Max number of k-points (npk) = 120000
     Max angular momentum in pseudopotentials (lmaxx) =  4
     file Ag.pbe-spn-kjpaw_psl.1.0.0.UPF: wavefunction(s)  4S 5S 4P 4D renormalized
     file Sb.pbe-n-kjpaw_psl.1.0.0.UPF: wavefunction(s)  5S renormalized
     file Se.pbe-n-kjpaw_psl.1.0.0.UPF: wavefunction(s)  4S renormalized

     IMPORTANT: XC functional enforced from input :
     Exchange-correlation= PBE
                           (   1   4   3   4   0   0   0)
     Any further DFT definition will be discarded
     Please, verify this is what you really want

     Message from routine setup:
     using ibrav=0 with symmetry is DISCOURAGED, use correct ibrav instead

     K-points division:     npool     =       4
     R & G space division:  proc/nbgrp/npool/nimage =       2
     Subspace diagonalization in iterative solution of the eigenvalue problem:
     a serial algorithm will be used


     Parallelization info
     --------------------
     sticks:   dense  smooth     PW     G-vecs:    dense   smooth      PW
     Min        3234    1616    442               194783    68964   10096
     Max        3235    1617    443               194784    68965   10101
     Sum        6469    3233    885               389567   137929   20197

     Using Slab Decomposition



     bravais-lattice index     =            0
     lattice parameter (alat)  =      10.0667  a.u.
     unit-cell volume          =    1020.1532 (a.u.)^3
     number of atoms/cell      =            5
     number of atomic types    =            3
     number of electrons       =        42.00
     number of Kohn-Sham states=           25
     kinetic-energy cutoff     =     100.0000  Ry
     charge density cutoff     =     800.0000  Ry
     scf convergence threshold =      1.0E-12
     mixing beta               =       0.3000
     number of iterations used =            8  plain     mixing
     Exchange-correlation= PBE
                           (   1   4   3   4   0   0   0)

     celldm(1)=  10.066731  celldm(2)=   0.000000  celldm(3)=   0.000000
     celldm(4)=   0.000000  celldm(5)=   0.000000  celldm(6)=   0.000000

     crystal axes: (cart. coord. in units of alat)
               a(1) = (   1.000000   0.000000   0.000000 )  
               a(2) = (   0.000000   1.000000   0.000000 )  
               a(3) = (   0.000000   0.000000   1.000000 )  

     reciprocal axes: (cart. coord. in units 2 pi/alat)
               b(1) = (  1.000000  0.000000  0.000000 )  
               b(2) = (  0.000000  1.000000  0.000000 )  
               b(3) = (  0.000000  0.000000  1.000000 )  


     PseudoPot. # 1 for Ag read from file:
     /home/administrator/Downloads/BURAI/BURAI1.3/pseudopot/Ag.pbe-spn-kjpaw_psl.1.0.0.UPF
     MD5 check sum: 4bb6ed288085a1d2cdc62c229711c47d
     Pseudo is Projector augmented-wave + core cor, Zval = 19.0
     Generated using "atomic" code by A. Dal Corso  v.5.1.2
     Shape of augmentation charge: PSQ
     Using radial grid of 1237 points,  6 beta functions with: 
                l(1) =   0
                l(2) =   0
                l(3) =   1
                l(4) =   1
                l(5) =   2
                l(6) =   2
     Q(r) pseudized with 0 coefficients 


     PseudoPot. # 2 for Sb read from file:
     /home/administrator/Downloads/BURAI/BURAI1.3/pseudopot/Sb.pbe-n-kjpaw_psl.1.0.0.UPF
     MD5 check sum: f1c885dedccffa706451a3b39fc4a741
     Pseudo is Projector augmented-wave + core cor, Zval =  5.0
     Generated using "atomic" code by A. Dal Corso  v.5.1.2
     Shape of augmentation charge: PSQ
     Using radial grid of 1243 points,  6 beta functions with: 
                l(1) =   0
                l(2) =   0
                l(3) =   1
                l(4) =   1
                l(5) =   2
                l(6) =   2
     Q(r) pseudized with 0 coefficients 


     PseudoPot. # 3 for Se read from file:
     /home/administrator/Downloads/BURAI/BURAI1.3/pseudopot/Se.pbe-n-kjpaw_psl.1.0.0.UPF
     MD5 check sum: a24196f260b4188fa853fb27ef2f7c98
     Pseudo is Projector augmented-wave + core cor, Zval =  6.0
     Generated using "atomic" code by A. Dal Corso  v.5.1.2
     Shape of augmentation charge: PSQ
     Using radial grid of 1211 points,  4 beta functions with: 
                l(1) =   0
                l(2) =   0
                l(3) =   1
                l(4) =   1
     Q(r) pseudized with 0 coefficients 


     atomic species   valence    mass     pseudopotential
     Ag               19.00   107.86820     Ag( 1.00)
     Sb                5.00   121.76000     Sb( 1.00)
     Se                6.00    78.97100     Se( 1.00)

     48 Sym. Ops., with inversion, found



   Cartesian axes

     site n.     atom                  positions (alat units)
         1        Ag     tau(   1) = (   0.0000000   0.0000000   0.0000000  )
         2        Sb     tau(   2) = (   0.5000000   0.5000000   0.5000000  )
         3        Se     tau(   3) = (   0.5000000   0.5000000   0.0000000  )
         4        Se     tau(   4) = (   0.5000000   0.0000000   0.5000000  )
         5        Se     tau(   5) = (   0.0000000   0.5000000   0.5000000  )

     number of k points=    35  Gaussian smearing, width (Ry)=  0.0050
                       cart. coord. in units 2pi/alat
        k(    1) = (   0.0000000   0.0000000   0.0000000), wk =   0.0039062
        k(    2) = (   0.0000000   0.0000000   0.1250000), wk =   0.0234375
        k(    3) = (   0.0000000   0.0000000   0.2500000), wk =   0.0234375
        k(    4) = (   0.0000000   0.0000000   0.3750000), wk =   0.0234375
        k(    5) = (   0.0000000   0.0000000  -0.5000000), wk =   0.0117188
        k(    6) = (   0.0000000   0.1250000   0.1250000), wk =   0.0468750
        k(    7) = (   0.0000000   0.1250000   0.2500000), wk =   0.0937500
        k(    8) = (   0.0000000   0.1250000   0.3750000), wk =   0.0937500
        k(    9) = (   0.0000000   0.1250000  -0.5000000), wk =   0.0468750
        k(   10) = (   0.0000000   0.2500000   0.2500000), wk =   0.0468750
        k(   11) = (   0.0000000   0.2500000   0.3750000), wk =   0.0937500
        k(   12) = (   0.0000000   0.2500000  -0.5000000), wk =   0.0468750
        k(   13) = (   0.0000000   0.3750000   0.3750000), wk =   0.0468750
        k(   14) = (   0.0000000   0.3750000  -0.5000000), wk =   0.0468750
        k(   15) = (   0.0000000  -0.5000000  -0.5000000), wk =   0.0117188
        k(   16) = (   0.1250000   0.1250000   0.1250000), wk =   0.0312500
        k(   17) = (   0.1250000   0.1250000   0.2500000), wk =   0.0937500
        k(   18) = (   0.1250000   0.1250000   0.3750000), wk =   0.0937500
        k(   19) = (   0.1250000   0.1250000  -0.5000000), wk =   0.0468750
        k(   20) = (   0.1250000   0.2500000   0.2500000), wk =   0.0937500
        k(   21) = (   0.1250000   0.2500000   0.3750000), wk =   0.1875000
        k(   22) = (   0.1250000   0.2500000  -0.5000000), wk =   0.0937500
        k(   23) = (   0.1250000   0.3750000   0.3750000), wk =   0.0937500
        k(   24) = (   0.1250000   0.3750000  -0.5000000), wk =   0.0937500
        k(   25) = (   0.1250000  -0.5000000  -0.5000000), wk =   0.0234375
        k(   26) = (   0.2500000   0.2500000   0.2500000), wk =   0.0312500
        k(   27) = (   0.2500000   0.2500000   0.3750000), wk =   0.0937500
        k(   28) = (   0.2500000   0.2500000  -0.5000000), wk =   0.0468750
        k(   29) = (   0.2500000   0.3750000   0.3750000), wk =   0.0937500
        k(   30) = (   0.2500000   0.3750000  -0.5000000), wk =   0.0937500
        k(   31) = (   0.2500000  -0.5000000  -0.5000000), wk =   0.0234375
        k(   32) = (   0.3750000   0.3750000   0.3750000), wk =   0.0312500
        k(   33) = (   0.3750000   0.3750000  -0.5000000), wk =   0.0468750
        k(   34) = (   0.3750000  -0.5000000  -0.5000000), wk =   0.0234375
        k(   35) = (  -0.5000000  -0.5000000  -0.5000000), wk =   0.0039062

     Dense  grid:   389567 G-vectors     FFT dimensions: (  96,  96,  96)

     Smooth grid:   137929 G-vectors     FFT dimensions: (  72,  72,  72)

     Estimated max dynamical RAM per process >     312.51 MB

     Estimated total dynamical RAM >       2.16 GB

     Check: negative core charge=   -0.000001

     Initial potential from superposition of free atoms

     starting charge      41.9988, renormalised to      42.0000
     Starting wfcs are   26 randomized atomic wfcs
     Checking if some PAW data can be deallocated... 

     total cpu time spent up to now is        8.0 secs

     Self-consistent Calculation

     iteration #  1     ecut=   100.00 Ry     beta= 0.30
     Davidson diagonalization with overlap
     ethr =  1.00E-02,  avg # of iterations =  2.8

     Threshold (ethr) on eigenvalues was too large:
     Diagonalizing with lowered threshold

     Davidson diagonalization with overlap
     ethr =  6.52E-04,  avg # of iterations =  2.2

     total cpu time spent up to now is       32.3 secs

     total energy              =   -1472.82269282 Ry
     estimated scf accuracy    <       0.26484308 Ry

     iteration #  2     ecut=   100.00 Ry     beta= 0.30
     Davidson diagonalization with overlap
     ethr =  6.31E-04,  avg # of iterations =  2.5

     total cpu time spent up to now is       45.5 secs

     total energy              =   -1472.85207086 Ry
     estimated scf accuracy    <       0.02223091 Ry

     iteration #  3     ecut=   100.00 Ry     beta= 0.30
     Davidson diagonalization with overlap
     ethr =  5.29E-05,  avg # of iterations =  4.8

     total cpu time spent up to now is       60.7 secs

     total energy              =   -1472.85512810 Ry
     estimated scf accuracy    <       0.00497926 Ry

     iteration #  4     ecut=   100.00 Ry     beta= 0.30
     Davidson diagonalization with overlap
     ethr =  1.19E-05,  avg # of iterations =  2.1

     total cpu time spent up to now is       72.8 secs

     total energy              =   -1472.85544682 Ry
     estimated scf accuracy    <       0.00049931 Ry

     iteration #  5     ecut=   100.00 Ry     beta= 0.30
     Davidson diagonalization with overlap
     ethr =  1.19E-06,  avg # of iterations =  3.6

     total cpu time spent up to now is       86.9 secs

     total energy              =   -1472.85551914 Ry
     estimated scf accuracy    <       0.00003029 Ry

     iteration #  6     ecut=   100.00 Ry     beta= 0.30
     Davidson diagonalization with overlap
     ethr =  7.21E-08,  avg # of iterations =  3.0

     total cpu time spent up to now is      101.2 secs

     total energy              =   -1472.85552539 Ry
     estimated scf accuracy    <       0.00000353 Ry

     iteration #  7     ecut=   100.00 Ry     beta= 0.30
     Davidson diagonalization with overlap
     ethr =  8.40E-09,  avg # of iterations =  2.2

     total cpu time spent up to now is      114.9 secs

     total energy              =   -1472.85552593 Ry
     estimated scf accuracy    <       0.00000058 Ry

     iteration #  8     ecut=   100.00 Ry     beta= 0.30
     Davidson diagonalization with overlap
     ethr =  1.38E-09,  avg # of iterations =  2.5

     total cpu time spent up to now is      128.0 secs

     total energy              =   -1472.85552596 Ry
     estimated scf accuracy    <       0.00000009 Ry

     iteration #  9     ecut=   100.00 Ry     beta= 0.30
     Davidson diagonalization with overlap
     ethr =  2.16E-10,  avg # of iterations =  3.7

     total cpu time spent up to now is      143.0 secs

     total energy              =   -1472.85552599 Ry
     estimated scf accuracy    <       0.00000008 Ry

     iteration # 10     ecut=   100.00 Ry     beta= 0.30
     Davidson diagonalization with overlap
     ethr =  1.95E-10,  avg # of iterations =  2.1

     total cpu time spent up to now is      155.8 secs

     total energy              =   -1472.85552601 Ry
     estimated scf accuracy    <          3.6E-09 Ry

     iteration # 11     ecut=   100.00 Ry     beta= 0.30
     Davidson diagonalization with overlap
     ethr =  8.48E-12,  avg # of iterations =  3.8

     total cpu time spent up to now is      169.7 secs

     total energy              =   -1472.85552601 Ry
     estimated scf accuracy    <          5.3E-10 Ry

     iteration # 12     ecut=   100.00 Ry     beta= 0.30
     Davidson diagonalization with overlap
     ethr =  1.27E-12,  avg # of iterations =  1.9

     total cpu time spent up to now is      181.8 secs

     total energy              =   -1472.85552601 Ry
     estimated scf accuracy    <          2.6E-10 Ry

     iteration # 13     ecut=   100.00 Ry     beta= 0.30
     Davidson diagonalization with overlap
     ethr =  6.16E-13,  avg # of iterations =  2.0

     total cpu time spent up to now is      195.4 secs

     total energy              =   -1472.85552601 Ry
     estimated scf accuracy    <          2.6E-11 Ry

     iteration # 14     ecut=   100.00 Ry     beta= 0.30
     Davidson diagonalization with overlap
     ethr =  1.00E-13,  avg # of iterations =  2.3

     total cpu time spent up to now is      207.6 secs

     total energy              =   -1472.85552601 Ry
     estimated scf accuracy    <          2.8E-11 Ry

     iteration # 15     ecut=   100.00 Ry     beta= 0.30
     Davidson diagonalization with overlap
     ethr =  1.00E-13,  avg # of iterations =  2.0

     total cpu time spent up to now is      220.0 secs

     End of self-consistent calculation

          k = 0.0000 0.0000 0.0000 ( 17077 PWs)   bands (ev):

   -85.8836 -49.4109 -49.4109 -49.4109  -9.3292  -7.0413  -7.0413  -1.8094
    -0.7369  -0.7369  -0.7369   1.7179   1.7179   1.7235   1.7235   1.7235
     3.8991   3.8991   3.8991   3.9403   3.9403   3.9403   4.9841  10.1320
    10.1320

          k = 0.0000 0.0000 0.1250 ( 17184 PWs)   bands (ev):

   -85.8836 -49.4109 -49.4109 -49.4109  -9.2812  -7.1202  -7.0395  -2.2589
    -0.7147  -0.7147  -0.0472   1.7019   1.7174   1.7174   1.7233   1.7240
     3.6368   3.8080   3.8080   3.9211   3.9526   3.9526   5.3726  10.2722
    10.2735

          k = 0.0000 0.0000 0.2500 ( 17216 PWs)   bands (ev):

   -85.8836 -49.4109 -49.4109 -49.4109  -9.1486  -7.3301  -7.0351  -2.7685
    -0.6592  -0.6592   1.0875   1.6630   1.7050   1.7050   1.7253   1.7371
     3.3668   3.5614   3.5614   3.8777   4.0206   4.0206   6.0538   9.2010
    10.2569

          k = 0.0000 0.0000 0.3750 ( 17212 PWs)   bands (ev):

   -85.8836 -49.4109 -49.4109 -49.4109  -8.9781  -7.5807  -7.0307  -3.0648
    -0.6005  -0.6005   1.6240   1.6969   1.6969   1.7266   1.7404   1.9229
     3.3239   3.3239   3.7386   3.8379   4.0908   4.0908   6.3929   7.8581
     9.2970

          k = 0.0000 0.0000-0.5000 ( 17240 PWs)   bands (ev):

   -85.8836 -49.4109 -49.4109 -49.4109  -8.8872  -7.7056  -7.0288  -3.1585
    -0.5752  -0.5752   1.6078   1.6952   1.6952   1.7271   1.7495   2.0818
     3.2272   3.2272   3.8224   4.1202   4.1202   4.6836   5.5609   7.8707
     8.7333

          k = 0.0000 0.1250 0.1250 ( 17211 PWs)   bands (ev):

   -85.8836 -49.4109 -49.4109 -49.4109  -9.2327  -7.1518  -7.0805  -2.6021
    -0.6920  -0.3707   0.2063   1.6873   1.7060   1.7184   1.7265   1.7283
     3.3422   3.8164   3.8496   3.8545   3.8696   4.0493   5.6283  10.1589
    10.1686

          k = 0.0000 0.1250 0.2500 ( 17220 PWs)   bands (ev):

   -85.8836 -49.4109 -49.4109 -49.4109  -9.0985  -7.3359  -7.0925  -3.0706
    -0.6350  -0.1814   1.1322   1.6531   1.6894   1.7232   1.7268   1.7442
     3.0506   3.5970   3.6627   3.9181   3.9211   4.1033   6.1797   9.1804
    10.1025

          k = 0.0000 0.1250 0.3750 ( 17205 PWs)   bands (ev):

   -85.8836 -49.4109 -49.4109 -49.4109  -8.9249  -7.5784  -7.0899  -3.3610
    -0.5746  -0.0999   1.6161   1.6813   1.6818   1.7134   1.7426   1.9204
     3.1104   3.3677   3.8009   3.9912   3.9956   4.1058   6.4428   7.8196
     9.3559

          k = 0.0000 0.1250-0.5000 ( 17190 PWs)   bands (ev):

   -85.8836 -49.4109 -49.4109 -49.4109  -8.8315  -7.7020  -7.0883  -3.4547
    -0.5485  -0.0695   1.5999   1.6836   1.7052   1.7105   1.7449   2.0106
     3.1273   3.2750   4.0088   4.0269   4.0490   4.7161   5.6273   7.6949
     8.9620

          k = 0.0000 0.2500 0.2500 ( 17223 PWs)   bands (ev):

   -85.8836 -49.4109 -49.4109 -49.4109  -8.9589  -7.3912  -7.2140  -3.5342
    -0.5741   0.6084   1.3369   1.6176   1.6617   1.7082   1.7248   1.8468
     2.7887   3.6577   3.7065   3.7198   3.7606   4.3750   6.4668   8.9720
     9.2906

          k = 0.0000 0.2500 0.3750 ( 17213 PWs)   bands (ev):

   -85.8836 -49.4109 -49.4109 -49.4109  -8.7747  -7.5754  -7.2586  -3.8402
    -0.5089   0.9318   1.5462   1.6455   1.6695   1.6810   1.7328   1.9483
     2.9322   3.4724   3.7033   3.7802   3.9998   4.5074   6.5554   7.6150
     9.2602

          k = 0.0000 0.2500-0.5000 ( 17178 PWs)   bands (ev):

   -85.8836 -49.4109 -49.4109 -49.4109  -8.6722  -7.6935  -7.2636  -3.9414
    -0.4806   0.9947   1.5130   1.6518   1.6562   1.7356   1.7686   1.9458
     2.9973   3.3885   3.7538   3.8163   4.4639   4.8361   5.7913   7.2675
     9.3019

          k = 0.0000 0.3750 0.3750 ( 17222 PWs)   bands (ev):

   -85.8836 -49.4109 -49.4109 -49.4109  -8.5686  -7.6011  -7.4641  -4.1680
    -0.4380   1.4199   1.6147   1.6408   1.6605   1.7376   1.9180   1.9701
     2.9147   3.5132   3.5646   3.5940   4.4175   4.7813   6.6334   7.0860
     7.8947

          k = 0.0000 0.3750-0.5000 ( 17248 PWs)   bands (ev):

   -85.8836 -49.4109 -49.4109 -49.4109  -8.4448  -7.6848  -7.5172  -4.2781
    -0.4068   1.3656   1.6118   1.6131   1.6846   1.7422   1.9703   2.2697
     2.9027   3.4794   3.5009   3.6231   4.8553   5.1697   5.9614   6.7968
     7.5442

          k = 0.0000-0.5000-0.5000 ( 17292 PWs)   bands (ev):

   -85.8836 -49.4109 -49.4109 -49.4109  -8.2948  -7.6813  -7.6813  -4.3917
    -0.3743   1.3016   1.5946   1.5946   1.7351   1.7466   1.9928   2.8650
     2.8650   3.2682   3.5476   3.5476   5.0418   6.0414   6.0414   6.0498
     6.5588

          k = 0.1250 0.1250 0.1250 ( 17224 PWs)   bands (ev):

   -85.8836 -49.4109 -49.4109 -49.4109  -9.1837  -7.1498  -7.1498  -2.9007
    -0.3477  -0.3477   0.4058   1.6815   1.6815   1.7253   1.7253   1.7428
     3.2434   3.5572   3.5572   4.0689   4.0689   4.0716   5.8073   9.8189
    10.4118

          k = 0.1250 0.1250 0.2500 ( 17234 PWs)   bands (ev):

   -85.8836 -49.4109 -49.4109 -49.4109  -9.0480  -7.3395  -7.1449  -3.3490
    -0.2896  -0.0563   1.1711   1.6455   1.6743   1.7200   1.7339   1.7804
     3.0211   3.2317   3.5729   4.0358   4.1206   4.1636   6.2544   9.1234
     9.6795

          k = 0.1250 0.1250 0.3750 ( 17222 PWs)   bands (ev):

   -85.8836 -49.4109 -49.4109 -49.4109  -8.8715  -7.5761  -7.1400  -3.6400
    -0.2274   0.0545   1.6163   1.6474   1.6671   1.7100   1.7447   1.9471
     2.9792   3.3126   3.6453   4.0610   4.1608   4.1950   6.4569   7.7564
     9.2686

          k = 0.1250 0.1250-0.5000 ( 17200 PWs)   bands (ev):

   -85.8836 -49.4109 -49.4109 -49.4109  -8.7755  -7.6986  -7.1379  -3.7355
    -0.2003   0.0912   1.6052   1.6601   1.6930   1.7060   1.7485   1.9932
     2.8828   3.5210   3.6753   4.1666   4.2106   4.7369   5.6821   7.5022
     9.1091

          k = 0.1250 0.2500 0.2500 ( 17240 PWs)   bands (ev):

   -85.8836 -49.4109 -49.4109 -49.4109  -8.9072  -7.3888  -7.2560  -3.8047
    -0.1427   0.6341   1.3396   1.6196   1.6474   1.7241   1.7319   1.8968
     2.8231   3.2133   3.2573   4.1226   4.1659   4.3859   6.4471   8.9427
     9.0640

          k = 0.1250 0.2500 0.3750 ( 17222 PWs)   bands (ev):

   -85.8836 -49.4109 -49.4109 -49.4109  -8.7205  -7.5732  -7.2868  -4.1177
    -0.0682   0.9711   1.5488   1.6295   1.6391   1.7135   1.7408   1.9822
     2.7894   3.2632   3.4516   4.1273   4.2504   4.5162   6.4747   7.5387
     9.1174

          k = 0.1250 0.2500-0.5000 ( 17240 PWs)   bands (ev):

   -85.8836 -49.4109 -49.4109 -49.4109  -8.6155  -7.6903  -7.2889  -4.2229
    -0.0371   1.0388   1.5279   1.6301   1.6692   1.7447   1.7613   1.9632
     2.7164   3.3159   3.6867   4.1911   4.4918   4.8419   5.8061   7.0478
     9.2039

          k = 0.1250 0.3750 0.3750 ( 17237 PWs)   bands (ev):

   -85.8836 -49.4109 -49.4109 -49.4109  -8.5124  -7.5984  -7.4727  -4.4580
     0.0154   1.4435   1.6138   1.6171   1.6942   1.7419   1.9315   1.9832
     2.7331   3.0735   3.6664   4.0375   4.5215   4.7812   6.4263   7.0594
     7.8238

          k = 0.1250 0.3750-0.5000 ( 17228 PWs)   bands (ev):

   -85.8836 -49.4109 -49.4109 -49.4109  -8.3859  -7.6820  -7.5200  -4.5743
     0.0507   1.4018   1.6107   1.6120   1.6963   1.7455   1.9724   2.2675
     2.6534   3.1105   3.7682   4.0030   4.8560   5.1720   5.9266   6.5506
     7.5006

          k = 0.1250-0.5000-0.5000 ( 17236 PWs)   bands (ev):

   -85.8836 -49.4109 -49.4109 -49.4109  -8.2315  -7.6786  -7.6786  -4.6951
     0.0880   1.3473   1.5992   1.5992   1.7362   1.7488   1.9868   2.6358
     2.6358   3.2712   3.7973   3.7973   5.0381   6.0186   6.0186   6.0378
     6.2629

          k = 0.2500 0.2500 0.2500 ( 17254 PWs)   bands (ev):

   -85.8836 -49.4109 -49.4109 -49.4109  -8.7623  -7.3830  -7.3830  -4.2824
     0.7009   0.7009   1.3829   1.6249   1.6249   1.7380   1.7380   2.0253
     2.8389   2.8389   3.0233   4.4081   4.4081   4.4195   6.3945   8.8544
     8.8544

          k = 0.2500 0.2500 0.3750 ( 17224 PWs)   bands (ev):

   -85.8836 -49.4109 -49.4109 -49.4109  -8.5670  -7.5696  -7.3773  -4.6321
     0.7765   1.1867   1.5451   1.6132   1.6339   1.7366   1.7469   2.0408
     2.5347   2.8512   3.5583   4.4416   4.4971   4.5686   6.2471   7.3558
     8.7678

          k = 0.2500 0.2500-0.5000 ( 17252 PWs)   bands (ev):

   -85.8836 -49.4109 -49.4109 -49.4109  -8.4533  -7.6828  -7.3749  -4.7533
     0.8111   1.2786   1.5313   1.6120   1.7344   1.7512   1.7518   1.9853
     2.4195   2.8939   4.0253   4.4541   4.6128   4.8657   5.7979   6.5862
     8.7359

          k = 0.2500 0.3750 0.3750 ( 17246 PWs)   bands (ev):

   -85.8836 -49.4109 -49.4109 -49.4109  -8.3534  -7.5921  -7.5064  -5.0290
     1.0441   1.4977   1.6165   1.6182   1.7346   1.7472   1.9673   2.0172
     2.4153   2.6645   3.9055   4.4571   4.6705   4.7834   5.9804   6.9546
     7.5813

          k = 0.2500 0.3750-0.5000 ( 17232 PWs)   bands (ev):

   -85.8836 -49.4109 -49.4109 -49.4109  -8.2189  -7.6752  -7.5345  -5.1712
     1.1049   1.4925   1.6216   1.6227   1.7239   1.7521   1.9742   2.2249
     2.2998   2.7982   4.1887   4.4145   4.8637   5.1375   5.7269   6.1392
     7.3157

          k = 0.2500-0.5000-0.5000 ( 17248 PWs)   bands (ev):

   -85.8836 -49.4109 -49.4109 -49.4109  -8.0520  -7.6720  -7.6720  -5.3231
     1.1802   1.4721   1.6189   1.6189   1.7397   1.7539   1.9644   2.2844
     2.2844   3.2785   4.2283   4.2283   5.0292   5.7060   5.8961   5.8961
     5.9725

          k = 0.3750 0.3750 0.3750 ( 17259 PWs)   bands (ev):

   -85.8836 -49.4109 -49.4109 -49.4109  -8.1310  -7.5857  -7.5857  -5.5118
     1.5432   1.6390   1.6390   1.7376   1.7376   2.0162   2.0162   2.0234
     2.3754   2.3754   4.3102   4.7222   4.7222   4.8252   5.5834   6.7939
     6.7939

          k = 0.3750 0.3750-0.5000 ( 17256 PWs)   bands (ev):

   -85.8836 -49.4109 -49.4109 -49.4109  -7.9826  -7.6683  -7.5831  -5.6991
     1.5833   1.6417   1.6618   1.7191   1.7555   1.9581   2.0520   2.0866
     2.2575   2.8110   4.5541   4.7529   4.9136   5.0864   5.3985   5.8166
     6.7103

          k = 0.3750-0.5000-0.5000 ( 17284 PWs)   bands (ev):

   -85.8836 -49.4109 -49.4109 -49.4109  -7.8061  -7.6654  -7.6654  -5.9151
     1.6379   1.6693   1.6693   1.7391   1.7591   1.9123   1.9965   1.9965
     2.4854   3.2858   4.6824   4.6824   5.0203   5.2527   5.6190   5.6190
     5.7185

          k =-0.5000-0.5000-0.5000 ( 17256 PWs)   bands (ev):

   -85.8836 -49.4109 -49.4109 -49.4109  -7.6627  -7.6627  -7.6627  -6.1831
     1.7408   1.7408   1.7408   1.7612   1.7612   1.8403   1.8403   1.8403
     3.2888   3.2888   5.0166   5.0166   5.0166   5.0806   5.3353   5.3353
     5.3353

     the Fermi energy is     4.5149 ev

!    total energy              =   -1472.85552601 Ry
     total all-electron energy =    -38175.860596 Ry
     estimated scf accuracy    <          7.7E-13 Ry
     smearing contrib. (-TS)   =      -0.00110981 Ry
     internal energy E=F+TS    =   -1472.85441620 Ry

     The total energy is F=E-TS. E is the sum of the following terms:
     one-electron contribution =    -231.72617701 Ry
     hartree contribution      =     130.77453034 Ry
     xc contribution           =     -80.09537326 Ry
     ewald contribution        =    -208.16390158 Ry
     one-center paw contrib.   =   -1083.64349469 Ry

     convergence has been achieved in  15 iterations

     Writing all to output data dir ./tmp/AgSbSe3.save/ :
     XML data file, charge density, pseudopotentials, collected wavefunctions

     init_run     :      7.80s CPU      7.46s WALL (       1 calls)
     electrons    :    255.54s CPU    212.05s WALL (       1 calls)

     Called by init_run:
     wfcinit      :      4.22s CPU      3.60s WALL (       1 calls)
     potinit      :      1.18s CPU      1.30s WALL (       1 calls)
     hinit0       :      1.42s CPU      1.46s WALL (       1 calls)

     Called by electrons:
     c_bands      :    174.01s CPU    139.35s WALL (      16 calls)
     sum_band     :     59.68s CPU     49.43s WALL (      16 calls)
     v_of_rho     :      8.18s CPU      8.47s WALL (      16 calls)
     newd         :     10.74s CPU     12.06s WALL (      16 calls)
     PAW_pot      :      2.34s CPU      2.36s WALL (      16 calls)
     mix_rho      :      0.69s CPU      0.70s WALL (      16 calls)

     Called by c_bands:
     init_us_2    :      5.73s CPU      4.04s WALL (     297 calls)
     cegterg      :    154.37s CPU    124.59s WALL (     144 calls)

     Called by *egterg:
     cdiaghg      :      1.68s CPU      1.19s WALL (     577 calls)
     h_psi        :    131.63s CPU    112.81s WALL (     595 calls)
     s_psi        :      4.38s CPU      2.32s WALL (     595 calls)
     g_psi        :      0.77s CPU      0.55s WALL (     442 calls)

     Called by h_psi:
     h_psi:calbec :      5.27s CPU      2.90s WALL (     595 calls)
     vloc_psi     :    121.04s CPU    106.94s WALL (     595 calls)
     add_vuspsi   :      4.57s CPU      2.42s WALL (     595 calls)

     General routines
     calbec       :      7.28s CPU      4.02s WALL (     739 calls)
     fft          :      6.09s CPU      6.38s WALL (     207 calls)
     ffts         :      0.70s CPU      0.65s WALL (      32 calls)
     fftw         :    110.62s CPU     96.38s WALL (   21296 calls)
     interpolate  :      1.10s CPU      1.13s WALL (      16 calls)

     Parallel routines

     PWSCF        :   4m23.96s CPU   3m40.24s WALL


   This run was terminated on:  10: 3:17  12May2025            

=------------------------------------------------------------------------------=
   JOB DONE.
=------------------------------------------------------------------------------=
