
     Program PWSCF v.7.3.1 starts on 13May2025 at  9: 3:17 

     This program is part of the open-source Quantum ESPRESSO suite
     for quantum simulation of materials; please cite
         "P. Giannozzi et al., J. Phys.:Condens. Matter 21 395502 (2009);
         "P. Giannozzi et al., J. Phys.:Condens. Matter 29 465901 (2017);
         "P. Giannozzi et al., J. Chem. Phys. 152 154105 (2020);
          URL http://www.quantum-espresso.org", 
     in publications or presentations arising from this work. More details at
     http://www.quantum-espresso.org/quote

     Parallel version (MPI), running on     8 processors

     MPI processes distributed on     1 nodes
     59899 MiB available memory on the printing compute node when the environment starts

     Waiting for input...
     Reading input from standard input

     Current dimensions of program PWSCF are:
     Max number of different atomic species (ntypx) = 10
     Max number of k-points (npk) = 120000
     Max angular momentum in pseudopotentials (lmaxx) =  4
     file Cs.pbe-spn-rrkjus_psl.1.0.0.UPF: wavefunction(s)  5S 6S renormalized
     file Cd.pbe-n-kjpaw_psl.1.0.0.UPF: wavefunction(s)  5S 4D renormalized
     file I.pbe-n-kjpaw_psl.1.0.0.UPF: wavefunction(s)  5S renormalized

     IMPORTANT: XC functional enforced from input :
     Exchange-correlation= PBE
                           (   1   4   3   4   0   0   0)
     Any further DFT definition will be discarded
     Please, verify this is what you really want

     Message from routine setup:
     using ibrav=0 with symmetry is DISCOURAGED, use correct ibrav instead

     K-points division:     npool     =       4
     R & G space division:  proc/nbgrp/npool/nimage =       2
     Subspace diagonalization in iterative solution of the eigenvalue problem:
     a serial algorithm will be used


     Parallelization info
     --------------------
     sticks:   dense  smooth     PW     G-vecs:    dense   smooth      PW
     Min        4150    2077    568               284572   100490   14443
     Max        4151    2080    569               284575   100491   14444
     Sum        8301    4157   1137               569147   200981   28887

     Using Slab Decomposition



     bravais-lattice index     =            0
     lattice parameter (alat)  =      11.4218  a.u.
     unit-cell volume          =    1490.0632 (a.u.)^3
     number of atoms/cell      =            5
     number of atomic types    =            3
     number of electrons       =        42.00
     number of Kohn-Sham states=           25
     kinetic-energy cutoff     =     100.0000  Ry
     charge density cutoff     =     800.0000  Ry
     scf convergence threshold =      1.0E-12
     mixing beta               =       0.3000
     number of iterations used =            8  plain     mixing
     Exchange-correlation= PBE
                           (   1   4   3   4   0   0   0)

     celldm(1)=  11.421809  celldm(2)=   0.000000  celldm(3)=   0.000000
     celldm(4)=   0.000000  celldm(5)=   0.000000  celldm(6)=   0.000000

     crystal axes: (cart. coord. in units of alat)
               a(1) = (   1.000000   0.000000   0.000000 )  
               a(2) = (   0.000000   1.000000   0.000000 )  
               a(3) = (   0.000000   0.000000   1.000000 )  

     reciprocal axes: (cart. coord. in units 2 pi/alat)
               b(1) = (  1.000000  0.000000  0.000000 )  
               b(2) = (  0.000000  1.000000  0.000000 )  
               b(3) = (  0.000000  0.000000  1.000000 )  


     PseudoPot. # 1 for Cs read from file:
     /home/administrator/Downloads/BURAI/BURAI1.3/pseudopot/Cs.pbe-spn-rrkjus_psl.1.0.0.UPF
     MD5 check sum: 0e4a2db85f86c9a13762b1b689b65a6d
     Pseudo is Ultrasoft + core correction, Zval =  9.0
     Generated using "atomic" code by A. Dal Corso  v.5.1.2
     Using radial grid of 1251 points,  9 beta functions with: 
                l(1) =   0
                l(2) =   0
                l(3) =   0
                l(4) =   1
                l(5) =   1
                l(6) =   2
                l(7) =   2
                l(8) =   3
                l(9) =   3
     Q(r) pseudized with 0 coefficients 


     PseudoPot. # 2 for Cd read from file:
     /home/administrator/Downloads/BURAI/BURAI1.3/pseudopot/Cd.pbe-n-kjpaw_psl.1.0.0.UPF
     MD5 check sum: 8e4ff76c1d5d9141238ea61f797762cc
     Pseudo is Projector augmented-wave + core cor, Zval = 12.0
     Generated using "atomic" code by A. Dal Corso  v.5.1.2
     Shape of augmentation charge: PSQ
     Using radial grid of 1239 points,  6 beta functions with: 
                l(1) =   0
                l(2) =   0
                l(3) =   1
                l(4) =   1
                l(5) =   2
                l(6) =   2
     Q(r) pseudized with 0 coefficients 


     PseudoPot. # 3 for I  read from file:
     /home/administrator/Downloads/BURAI/BURAI1.3/pseudopot/I.pbe-n-kjpaw_psl.1.0.0.UPF
     MD5 check sum: e1b2a55c91904a364f23c37cb15bc296
     Pseudo is Projector augmented-wave + core cor, Zval =  7.0
     Generated using "atomic" code by A. Dal Corso  v.5.1.2
     Shape of augmentation charge: PSQ
     Using radial grid of 1247 points,  6 beta functions with: 
                l(1) =   0
                l(2) =   0
                l(3) =   1
                l(4) =   1
                l(5) =   2
                l(6) =   2
     Q(r) pseudized with 0 coefficients 


     atomic species   valence    mass     pseudopotential
     Cs                9.00   132.90550     Cs( 1.00)
     Cd               12.00   112.41400     Cd( 1.00)
     I                 7.00   126.90450     I ( 1.00)

     48 Sym. Ops., with inversion, found



   Cartesian axes

     site n.     atom                  positions (alat units)
         1        Cs     tau(   1) = (   0.0000000   0.0000000   0.0000000  )
         2        Cd     tau(   2) = (   0.5000000   0.5000000   0.5000000  )
         3        I      tau(   3) = (   0.5000000   0.5000000   0.0000000  )
         4        I      tau(   4) = (   0.5000000   0.0000000   0.5000000  )
         5        I      tau(   5) = (   0.0000000   0.5000000   0.5000000  )

     number of k points=    35  Gaussian smearing, width (Ry)=  0.0050
                       cart. coord. in units 2pi/alat
        k(    1) = (   0.0000000   0.0000000   0.0000000), wk =   0.0039062
        k(    2) = (   0.0000000   0.0000000   0.1250000), wk =   0.0234375
        k(    3) = (   0.0000000   0.0000000   0.2500000), wk =   0.0234375
        k(    4) = (   0.0000000   0.0000000   0.3750000), wk =   0.0234375
        k(    5) = (   0.0000000   0.0000000  -0.5000000), wk =   0.0117188
        k(    6) = (   0.0000000   0.1250000   0.1250000), wk =   0.0468750
        k(    7) = (   0.0000000   0.1250000   0.2500000), wk =   0.0937500
        k(    8) = (   0.0000000   0.1250000   0.3750000), wk =   0.0937500
        k(    9) = (   0.0000000   0.1250000  -0.5000000), wk =   0.0468750
        k(   10) = (   0.0000000   0.2500000   0.2500000), wk =   0.0468750
        k(   11) = (   0.0000000   0.2500000   0.3750000), wk =   0.0937500
        k(   12) = (   0.0000000   0.2500000  -0.5000000), wk =   0.0468750
        k(   13) = (   0.0000000   0.3750000   0.3750000), wk =   0.0468750
        k(   14) = (   0.0000000   0.3750000  -0.5000000), wk =   0.0468750
        k(   15) = (   0.0000000  -0.5000000  -0.5000000), wk =   0.0117188
        k(   16) = (   0.1250000   0.1250000   0.1250000), wk =   0.0312500
        k(   17) = (   0.1250000   0.1250000   0.2500000), wk =   0.0937500
        k(   18) = (   0.1250000   0.1250000   0.3750000), wk =   0.0937500
        k(   19) = (   0.1250000   0.1250000  -0.5000000), wk =   0.0468750
        k(   20) = (   0.1250000   0.2500000   0.2500000), wk =   0.0937500
        k(   21) = (   0.1250000   0.2500000   0.3750000), wk =   0.1875000
        k(   22) = (   0.1250000   0.2500000  -0.5000000), wk =   0.0937500
        k(   23) = (   0.1250000   0.3750000   0.3750000), wk =   0.0937500
        k(   24) = (   0.1250000   0.3750000  -0.5000000), wk =   0.0937500
        k(   25) = (   0.1250000  -0.5000000  -0.5000000), wk =   0.0234375
        k(   26) = (   0.2500000   0.2500000   0.2500000), wk =   0.0312500
        k(   27) = (   0.2500000   0.2500000   0.3750000), wk =   0.0937500
        k(   28) = (   0.2500000   0.2500000  -0.5000000), wk =   0.0468750
        k(   29) = (   0.2500000   0.3750000   0.3750000), wk =   0.0937500
        k(   30) = (   0.2500000   0.3750000  -0.5000000), wk =   0.0937500
        k(   31) = (   0.2500000  -0.5000000  -0.5000000), wk =   0.0234375
        k(   32) = (   0.3750000   0.3750000   0.3750000), wk =   0.0312500
        k(   33) = (   0.3750000   0.3750000  -0.5000000), wk =   0.0468750
        k(   34) = (   0.3750000  -0.5000000  -0.5000000), wk =   0.0234375
        k(   35) = (  -0.5000000  -0.5000000  -0.5000000), wk =   0.0039062

     Dense  grid:   569147 G-vectors     FFT dimensions: ( 108, 108, 108)

     Smooth grid:   200981 G-vectors     FFT dimensions: (  75,  75,  75)

     Estimated max dynamical RAM per process >     910.93 MB

     Estimated total dynamical RAM >       6.71 GB

     Initial potential from superposition of free atoms

     starting charge      41.9542, renormalised to      42.0000
     Starting wfcs are   26 randomized atomic wfcs
     Checking if some PAW data can be deallocated... 

     total cpu time spent up to now is       12.3 secs

     Self-consistent Calculation

     iteration #  1     ecut=   100.00 Ry     beta= 0.30
     Davidson diagonalization with overlap
     ethr =  1.00E-02,  avg # of iterations =  5.9

     Threshold (ethr) on eigenvalues was too large:
     Diagonalizing with lowered threshold

     Davidson diagonalization with overlap
     c_bands:  1 eigenvalues not converged
     c_bands:  1 eigenvalues not converged
     ethr =  1.76E-04,  avg # of iterations = 13.2

     total cpu time spent up to now is       70.8 secs

     total energy              =   -1572.98434854 Ry
     estimated scf accuracy    <       0.05696741 Ry

     iteration #  2     ecut=   100.00 Ry     beta= 0.30
     Davidson diagonalization with overlap
     ethr =  1.36E-04,  avg # of iterations =  2.3

     total cpu time spent up to now is       93.8 secs

     total energy              =   -1572.98449368 Ry
     estimated scf accuracy    <       0.01548627 Ry

     iteration #  3     ecut=   100.00 Ry     beta= 0.30
     Davidson diagonalization with overlap
     c_bands:  1 eigenvalues not converged
     ethr =  3.69E-05,  avg # of iterations =  8.1

     total cpu time spent up to now is      123.3 secs

     total energy              =   -1572.98879198 Ry
     estimated scf accuracy    <       0.00103132 Ry

     iteration #  4     ecut=   100.00 Ry     beta= 0.30
     Davidson diagonalization with overlap
     c_bands:  1 eigenvalues not converged
     c_bands:  2 eigenvalues not converged
     c_bands:  2 eigenvalues not converged
     ethr =  2.46E-06,  avg # of iterations = 14.3

     total cpu time spent up to now is      164.7 secs

     total energy              =   -1572.98935375 Ry
     estimated scf accuracy    <       0.00024708 Ry

     iteration #  5     ecut=   100.00 Ry     beta= 0.30
     Davidson diagonalization with overlap
     ethr =  5.88E-07,  avg # of iterations =  6.6

     total cpu time spent up to now is      192.8 secs

     total energy              =   -1572.98944166 Ry
     estimated scf accuracy    <       0.00001840 Ry

     iteration #  6     ecut=   100.00 Ry     beta= 0.30
     Davidson diagonalization with overlap
     ethr =  4.38E-08,  avg # of iterations =  5.9

     total cpu time spent up to now is      224.9 secs

     total energy              =   -1572.98943744 Ry
     estimated scf accuracy    <       0.00003332 Ry

     iteration #  7     ecut=   100.00 Ry     beta= 0.30
     Davidson diagonalization with overlap
     ethr =  4.38E-08,  avg # of iterations =  3.1

     total cpu time spent up to now is      252.3 secs

     total energy              =   -1572.98944903 Ry
     estimated scf accuracy    <       0.00000392 Ry

     iteration #  8     ecut=   100.00 Ry     beta= 0.30
     Davidson diagonalization with overlap
     ethr =  9.33E-09,  avg # of iterations =  2.5

     total cpu time spent up to now is      277.0 secs

     total energy              =   -1572.98945102 Ry
     estimated scf accuracy    <       0.00000045 Ry

     iteration #  9     ecut=   100.00 Ry     beta= 0.30
     Davidson diagonalization with overlap
     ethr =  1.08E-09,  avg # of iterations =  5.6

     total cpu time spent up to now is      307.3 secs

     total energy              =   -1572.98945183 Ry
     estimated scf accuracy    <       0.00000006 Ry

     iteration # 10     ecut=   100.00 Ry     beta= 0.30
     Davidson diagonalization with overlap
     ethr =  1.50E-10,  avg # of iterations =  5.5

     total cpu time spent up to now is      339.5 secs

     total energy              =   -1572.98945191 Ry
     estimated scf accuracy    <       0.00000027 Ry

     iteration # 11     ecut=   100.00 Ry     beta= 0.30
     Davidson diagonalization with overlap
     ethr =  1.50E-10,  avg # of iterations =  4.9

     total cpu time spent up to now is      369.3 secs

     total energy              =   -1572.98945209 Ry
     estimated scf accuracy    <       0.00000005 Ry

     iteration # 12     ecut=   100.00 Ry     beta= 0.30
     Davidson diagonalization with overlap
     ethr =  1.25E-10,  avg # of iterations =  3.1

     total cpu time spent up to now is      393.6 secs

     total energy              =   -1572.98945216 Ry
     estimated scf accuracy    <          6.4E-10 Ry

     iteration # 13     ecut=   100.00 Ry     beta= 0.30
     Davidson diagonalization with overlap
     ethr =  1.51E-12,  avg # of iterations =  7.9

     total cpu time spent up to now is      434.3 secs

     total energy              =   -1572.98945218 Ry
     estimated scf accuracy    <          1.2E-09 Ry

     iteration # 14     ecut=   100.00 Ry     beta= 0.30
     Davidson diagonalization with overlap
     ethr =  1.51E-12,  avg # of iterations =  4.6

     total cpu time spent up to now is      462.0 secs

     total energy              =   -1572.98945220 Ry
     estimated scf accuracy    <          1.4E-10 Ry

     iteration # 15     ecut=   100.00 Ry     beta= 0.30
     Davidson diagonalization with overlap
     ethr =  3.39E-13,  avg # of iterations =  2.0

     total cpu time spent up to now is      485.4 secs

     total energy              =   -1572.98945220 Ry
     estimated scf accuracy    <          2.1E-11 Ry

     iteration # 16     ecut=   100.00 Ry     beta= 0.30
     Davidson diagonalization with overlap
     ethr =  1.00E-13,  avg # of iterations =  4.2

     total cpu time spent up to now is      514.0 secs

     total energy              =   -1572.98945221 Ry
     estimated scf accuracy    <          3.1E-11 Ry

     iteration # 17     ecut=   100.00 Ry     beta= 0.30
     Davidson diagonalization with overlap
     ethr =  1.00E-13,  avg # of iterations =  2.0

     total cpu time spent up to now is      536.2 secs

     total energy              =   -1572.98945221 Ry
     estimated scf accuracy    <          3.3E-12 Ry

     iteration # 18     ecut=   100.00 Ry     beta= 0.30
     Davidson diagonalization with overlap
     ethr =  1.00E-13,  avg # of iterations =  1.0

     total cpu time spent up to now is      556.5 secs

     End of self-consistent calculation

          k = 0.0000 0.0000 0.0000 ( 25269 PWs)   bands (ev):

   -17.5400  -8.6594  -8.1546  -8.1546  -4.7224  -4.7224  -4.7224  -4.5521
    -4.5521  -4.3481  -4.3481  -4.3481   0.2987   0.2987   0.2987   2.2670
     2.2670   2.2670   2.5665   2.5665   2.5665   2.5919   6.9615   7.7054
     7.7054

          k = 0.0000 0.0000 0.1250 ( 25221 PWs)   bands (ev):

   -17.5399  -8.6408  -8.1613  -8.1540  -4.7243  -4.7243  -4.7224  -4.6039
    -4.5520  -4.3460  -4.3460  -4.3400   0.2656   0.3192   0.3192   2.1582
     2.2354   2.2422   2.2422   2.5350   2.5350   3.1810   7.1410   7.8062
     7.8556

          k = 0.0000 0.0000 0.2500 ( 25136 PWs)   bands (ev):

   -17.5396  -8.5927  -8.1802  -8.1525  -4.7287  -4.7287  -4.7224  -4.7222
    -4.5519  -4.3412  -4.3412  -4.3264   0.2067   0.3713   0.3713   1.8437
     2.1623   2.1762   2.1762   2.4652   2.4652   3.9944   7.6150   8.0849
     8.2576

          k = 0.0000 0.0000 0.3750 ( 25124 PWs)   bands (ev):

   -17.5394  -8.5381  -8.2044  -8.1511  -4.8360  -4.7331  -4.7331  -4.7223
    -4.5517  -4.3364  -4.3364  -4.3159   0.1711   0.4278   0.4278   1.6268
     2.0931   2.1003   2.1003   2.4040   2.4040   4.8994   8.1476   8.4276
     8.7538

          k = 0.0000 0.0000-0.5000 ( 25140 PWs)   bands (ev):

   -17.5393  -8.5124  -8.2170  -8.1505  -4.8824  -4.7349  -4.7349  -4.7223
    -4.5516  -4.3344  -4.3344  -4.3120   0.1621   0.4528   0.4528   1.5468
     2.0655   2.0658   2.0658   2.3810   2.3810   5.4110   8.0736   8.7023
     8.9875

          k = 0.0000 0.1250 0.1250 ( 25177 PWs)   bands (ev):

   -17.5398  -8.6221  -8.1641  -8.1571  -4.7260  -4.7246  -4.7239  -4.6269
    -4.5784  -4.3442  -4.3427  -4.3361   0.0501   0.3410   0.5438   1.9723
     2.1535   2.2197   2.2919   2.4999   2.5905   3.4391   7.3015   7.9314
     7.9390

          k = 0.0000 0.1250 0.2500 ( 25142 PWs)   bands (ev):

   -17.5395  -8.5736  -8.1809  -8.1570  -4.7320  -4.7301  -4.7286  -4.7240
    -4.5874  -4.3401  -4.3398  -4.3259  -0.1281   0.3966   0.7557   1.7187
     2.0441   2.1588   2.3023   2.4213   2.5577   4.1265   7.7329   8.1875
     8.2899

          k = 0.0000 0.1250 0.3750 ( 25171 PWs)   bands (ev):

   -17.5393  -8.5181  -8.2046  -8.1556  -4.8419  -4.7344  -4.7327  -4.7238
    -4.5879  -4.3371  -4.3354  -4.3188  -0.2265   0.4575   0.9060   1.5339
     1.9474   2.0862   2.3153   2.3523   2.4641   4.9883   8.2493   8.5177
     8.7538

          k = 0.0000 0.1250-0.5000 ( 25174 PWs)   bands (ev):

   -17.5392  -8.4919  -8.2174  -8.1550  -4.8873  -4.7361  -4.7345  -4.7238
    -4.5878  -4.3356  -4.3336  -4.3165  -0.2563   0.4845   0.9636   1.4655
     1.9080   2.0521   2.3268   2.3438   2.3958   5.4939   8.1257   8.7850
     8.8988

          k = 0.0000 0.2500 0.2500 ( 25164 PWs)   bands (ev):

   -17.5393  -8.5236  -8.1870  -8.1661  -4.7816  -4.7339  -4.7287  -4.7273
    -4.6444  -4.3400  -4.3364  -4.3249  -0.4197   0.4622   1.1613   1.5066
     1.9719   2.1123   2.3178   2.3530   2.6868   4.5727   8.0562   8.4080
     8.5539

          k = 0.0000 0.2500 0.3750 ( 25181 PWs)   bands (ev):

   -17.5391  -8.4654  -8.2056  -8.1697  -4.8664  -4.7375  -4.7319  -4.7274
    -4.6651  -4.3396  -4.3331  -4.3260  -0.5866   0.5353   1.3493   1.4379
     1.9158   2.0519   2.2237   2.4129   2.6837   5.2884   8.4856   8.7182
     8.7591

          k = 0.0000 0.2500-0.5000 ( 25184 PWs)   bands (ev):

   -17.5390  -8.4370  -8.2182  -8.1701  -4.9061  -4.7390  -4.7335  -4.7272
    -4.6688  -4.3387  -4.3317  -4.3274  -0.6396   0.5684   1.2928   1.5368
     1.8912   2.0194   2.1901   2.4699   2.6317   5.7678   8.0933   8.9595
     8.9736

          k = 0.0000 0.3750 0.3750 ( 25164 PWs)   bands (ev):

   -17.5388  -8.4018  -8.2098  -8.1898  -4.9146  -4.7407  -4.7314  -4.7307
    -4.7189  -4.3417  -4.3341  -4.3307  -0.7964   0.6246   1.2062   1.7621
     1.9171   2.0132   2.0906   2.5425   2.8293   5.8359   8.4613   8.6607
     8.7603

          k = 0.0000 0.3750-0.5000 ( 25160 PWs)   bands (ev):

   -17.5387  -8.3686  -8.2190  -8.1973  -4.9426  -4.7419  -4.7334  -4.7325
    -4.7307  -4.3417  -4.3384  -4.3297  -0.8641   0.6664   1.1543   1.8553
     1.9172   1.9874   2.0413   2.6416   2.8485   6.2791   7.9115   8.5286
     9.0560

          k = 0.0000-0.5000-0.5000 ( 25076 PWs)   bands (ev):

   -17.5387  -8.3291  -8.2193  -8.2193  -4.9650  -4.7532  -4.7431  -4.7321
    -4.7321  -4.3430  -4.3430  -4.3289  -0.9368   0.7129   1.1039   1.9311
     1.9311   1.9743   1.9743   2.7469   2.9300   6.7648   7.8254   7.8254
     9.1998

          k = 0.1250 0.1250 0.1250 ( 25131 PWs)   bands (ev):

   -17.5397  -8.6033  -8.1633  -8.1633  -4.7262  -4.7258  -4.7258  -4.6262
    -4.6262  -4.3423  -4.3423  -4.3321  -0.1500   0.5665   0.5665   1.8639
     2.1013   2.1013   2.3545   2.5767   2.5767   3.6353   7.4392   8.0171
     8.0171

          k = 0.1250 0.1250 0.2500 ( 25140 PWs)   bands (ev):

   -17.5394  -8.5545  -8.1809  -8.1614  -4.7380  -4.7305  -4.7296  -4.7255
    -4.6246  -4.3411  -4.3396  -4.3242  -0.3668   0.6251   0.8487   1.6518
     1.9372   2.0854   2.3880   2.5357   2.5480   4.2395   7.8147   8.2555
     8.3054

          k = 0.1250 0.1250 0.3750 ( 25178 PWs)   bands (ev):

   -17.5392  -8.4984  -8.2045  -8.1596  -4.8466  -4.7351  -4.7333  -4.7255
    -4.6231  -4.3400  -4.3348  -4.3207  -0.4922   0.6910   1.0478   1.4883
     1.8048   2.1236   2.3971   2.4019   2.4814   5.0648   8.2865   8.5682
     8.7610

          k = 0.1250 0.1250-0.5000 ( 25138 PWs)   bands (ev):

   -17.5391  -8.4717  -8.2174  -8.1588  -4.8913  -4.7370  -4.7348  -4.7254
    -4.6225  -4.3396  -4.3315  -4.3210  -0.5314   0.7211   1.1208   1.4276
     1.7529   2.2192   2.2539   2.4039   2.4506   5.5661   8.1346   8.7354
     8.7933

          k = 0.1250 0.2500 0.2500 ( 25147 PWs)   bands (ev):

   -17.5392  -8.5047  -8.1858  -8.1702  -4.7811  -4.7342  -4.7299  -4.7294
    -4.6837  -4.3417  -4.3407  -4.3223  -0.6532   0.7715   1.1848   1.4889
     1.8516   1.9831   2.4598   2.4885   2.6820   4.6469   8.0478   8.4336
     8.5071

          k = 0.1250 0.2500 0.3750 ( 25154 PWs)   bands (ev):

   -17.5390  -8.4466  -8.2046  -8.1720  -4.8676  -4.7382  -4.7334  -4.7294
    -4.6990  -4.3433  -4.3379  -4.3251  -0.8266   0.8610   1.3523   1.4492
     1.7405   2.0458   2.3899   2.4997   2.6806   5.3382   8.3872   8.6390
     8.7505

          k = 0.1250 0.2500-0.5000 ( 25184 PWs)   bands (ev):

   -17.5389  -8.4180  -8.2174  -8.1718  -4.9079  -4.7399  -4.7349  -4.7293
    -4.7011  -4.3440  -4.3317  -4.3315  -0.8827   0.9007   1.3022   1.5312
     1.6821   2.1884   2.2662   2.5243   2.6396   5.8166   8.0346   8.6726
     8.8164

          k = 0.1250 0.3750 0.3750 ( 25153 PWs)   bands (ev):

   -17.5388  -8.3841  -8.2082  -8.1901  -4.9143  -4.7508  -4.7413  -4.7333
    -4.7332  -4.3450  -4.3421  -4.3305  -1.0343   0.9731   1.2278   1.6528
     1.7260   2.1139   2.3373   2.5868   2.8294   5.8657   8.3561   8.4967
     8.6423

          k = 0.1250 0.3750-0.5000 ( 25186 PWs)   bands (ev):

   -17.5387  -8.3512  -8.2175  -8.1964  -4.9427  -4.7633  -4.7429  -4.7348
    -4.7331  -4.3463  -4.3424  -4.3336  -1.1024   1.0244   1.1811   1.6802
     1.6948   2.2375   2.2698   2.6558   2.8515   6.3104   7.8251   8.4178
     8.7415

          k = 0.1250-0.5000-0.5000 ( 25176 PWs)   bands (ev):

   -17.5386  -8.3122  -8.2175  -8.2175  -4.9650  -4.7817  -4.7441  -4.7348
    -4.7348  -4.3468  -4.3468  -4.3350  -1.1749   1.0826   1.1356   1.6839
     1.6839   2.2705   2.2705   2.7487   2.9329   6.8094   7.7313   7.7313
     8.9251

          k = 0.2500 0.2500 0.2500 ( 25143 PWs)   bands (ev):

   -17.5390  -8.4553  -8.1829  -8.1829  -4.7796  -4.7796  -4.7345  -4.7345
    -4.7326  -4.3459  -4.3459  -4.3225  -0.9704   1.2505   1.2505   1.4205
     1.7921   1.7921   2.5811   2.6736   2.6736   4.9456   8.0783   8.5494
     8.5494

          k = 0.2500 0.2500 0.3750 ( 25177 PWs)   bands (ev):

   -17.5388  -8.3973  -8.2027  -8.1800  -4.8761  -4.7778  -4.7400  -4.7367
    -4.7339  -4.3501  -4.3459  -4.3290  -1.1717   1.3354   1.3456   1.4867
     1.6238   2.0100   2.6270   2.6532   2.6842   5.5383   8.2226   8.4016
     8.7540

          k = 0.2500 0.2500-0.5000 ( 25164 PWs)   bands (ev):

   -17.5387  -8.3681  -8.2157  -8.1788  -4.9166  -4.7769  -4.7423  -4.7379
    -4.7341  -4.3519  -4.3418  -4.3359  -1.2381   1.3010   1.4306   1.5161
     1.5197   2.2589   2.5133   2.6292   2.6965   6.0017   7.8290   8.4177
     8.5941

          k = 0.2500 0.3750 0.3750 ( 25157 PWs)   bands (ev):

   -17.5386  -8.3385  -8.2043  -8.1924  -4.9137  -4.8298  -4.7435  -4.7393
    -4.7378  -4.3535  -4.3529  -4.3376  -1.3973   1.2761   1.4580   1.5063
     1.7204   2.2290   2.6443   2.7062   2.8299   5.9861   8.0747   8.1691
     8.3696

          k = 0.2500 0.3750-0.5000 ( 25190 PWs)   bands (ev):

   -17.5385  -8.3069  -8.2139  -8.1953  -4.9433  -4.8383  -4.7453  -4.7403
    -4.7391  -4.3561  -4.3518  -4.3440  -1.4726   1.2455   1.4820   1.4941
     1.7392   2.4686   2.5836   2.7170   2.8599   6.4176   7.5814   8.1490
     8.5157

          k = 0.2500-0.5000-0.5000 ( 25172 PWs)   bands (ev):

   -17.5384  -8.2700  -8.2132  -8.2132  -4.9649  -4.8541  -4.7467  -4.7412
    -4.7412  -4.3560  -4.3560  -4.3492  -1.5513   1.2136   1.4867   1.4867
     1.8082   2.5929   2.5929   2.7530   2.9400   6.9284   7.4764   7.4764
     8.4766

          k = 0.3750 0.3750 0.3750 ( 25176 PWs)   bands (ev):

   -17.5384  -8.2854  -8.2004  -8.2004  -4.9131  -4.9131  -4.7455  -4.7455
    -4.7426  -4.3607  -4.3607  -4.3490  -1.6418   1.3070   1.4081   1.4081
     2.2908   2.2908   2.8284   2.8284   2.8348   6.2906   7.8147   7.8147
     7.9960

          k = 0.3750 0.3750-0.5000 ( 25176 PWs)   bands (ev):

   -17.5383  -8.2562  -8.2103  -8.1987  -4.9488  -4.9129  -4.7481  -4.7457
    -4.7452  -4.3639  -4.3612  -4.3561  -1.7245   1.2992   1.3744   1.4024
     2.3100   2.6088   2.8114   2.8303   2.8860   6.6596   7.3135   7.7153
     8.2339

          k = 0.3750-0.5000-0.5000 ( 25180 PWs)   bands (ev):

   -17.5382  -8.2259  -8.2088  -8.2088  -4.9648  -4.9314  -4.7494  -4.7478
    -4.7478  -4.3650  -4.3650  -4.3631  -1.8100   1.2939   1.3676   1.3676
     2.4764   2.7573   2.8492   2.8492   2.9470   7.0502   7.1998   7.1998
     8.2000

          k =-0.5000-0.5000-0.5000 ( 25064 PWs)   bands (ev):

   -17.5381  -8.2070  -8.2070  -8.2070  -4.9648  -4.9648  -4.7506  -4.7506
    -4.7506  -4.3687  -4.3687  -4.3687  -1.8982   1.3279   1.3279   1.3279
     2.7591   2.7591   2.9500   2.9500   2.9500   7.0814   7.0814   7.0814
     7.7102

     the Fermi energy is     3.0250 ev

!    total energy              =   -1572.98945221 Ry
     estimated scf accuracy    <          3.4E-13 Ry
     smearing contrib. (-TS)   =      -0.00003042 Ry
     internal energy E=F+TS    =   -1572.98942179 Ry

     The total energy is F=E-TS. E is the sum of the following terms:
     one-electron contribution =     -67.69546425 Ry
     hartree contribution      =      57.20201531 Ry
     xc contribution           =     -91.31948744 Ry
     ewald contribution        =    -146.07994053 Ry
     one-center paw contrib.   =   -1325.09654487 Ry

     convergence has been achieved in  18 iterations

     Writing all to output data dir ./tmp/CsCdI3.save/ :
     XML data file, charge density, pseudopotentials, collected wavefunctions

     init_run     :     11.73s CPU     11.58s WALL (       1 calls)
     electrons    :    633.72s CPU    544.34s WALL (       1 calls)

     Called by init_run:
     wfcinit      :      5.86s CPU      5.02s WALL (       1 calls)
     potinit      :      1.18s CPU      1.35s WALL (       1 calls)
     hinit0       :      1.73s CPU      1.79s WALL (       1 calls)

     Called by electrons:
     c_bands      :    443.93s CPU    356.15s WALL (      19 calls)
     sum_band     :    132.61s CPU    121.70s WALL (      19 calls)
     v_of_rho     :     12.89s CPU     14.11s WALL (      19 calls)
     newd         :     40.56s CPU     49.18s WALL (      19 calls)
     PAW_pot      :      3.82s CPU      3.82s WALL (      19 calls)
     mix_rho      :      1.14s CPU      1.17s WALL (      19 calls)

     Called by c_bands:
     init_us_2    :     15.61s CPU     11.72s WALL (     351 calls)
     cegterg      :    386.43s CPU    306.86s WALL (     171 calls)

     Called by *egterg:
     cdiaghg      :      3.36s CPU      2.41s WALL (    1131 calls)
     h_psi        :    314.49s CPU    267.74s WALL (    1149 calls)
     s_psi        :     19.39s CPU     10.33s WALL (    1149 calls)
     g_psi        :      1.98s CPU      1.40s WALL (     969 calls)

     Called by h_psi:
     h_psi:calbec :     20.72s CPU     11.40s WALL (    1149 calls)
     vloc_psi     :    271.88s CPU    244.21s WALL (    1149 calls)
     add_vuspsi   :     20.44s CPU     11.03s WALL (    1149 calls)

     General routines
     calbec       :     26.34s CPU     14.50s WALL (    1320 calls)
     fft          :      7.89s CPU      8.60s WALL (     246 calls)
     ffts         :      0.66s CPU      0.58s WALL (      38 calls)
     fftw         :    237.78s CPU    213.20s WALL (   31961 calls)
     interpolate  :      1.19s CPU      1.27s WALL (      19 calls)

     Parallel routines

     PWSCF        :  10m46.21s CPU   9m16.86s WALL


   This run was terminated on:   9:12:34  13May2025            

=------------------------------------------------------------------------------=
   JOB DONE.
=------------------------------------------------------------------------------=
