
     Program PWSCF v.7.3.1 starts on 10May2025 at 10:31:49 

     This program is part of the open-source Quantum ESPRESSO suite
     for quantum simulation of materials; please cite
         "P. Giannozzi et al., J. Phys.:Condens. Matter 21 395502 (2009);
         "P. Giannozzi et al., J. Phys.:Condens. Matter 29 465901 (2017);
         "P. Giannozzi et al., J. Chem. Phys. 152 154105 (2020);
          URL http://www.quantum-espresso.org", 
     in publications or presentations arising from this work. More details at
     http://www.quantum-espresso.org/quote

     Parallel version (MPI), running on     8 processors

     MPI processes distributed on     1 nodes
     42501 MiB available memory on the printing compute node when the environment starts

     Waiting for input...
     Reading input from standard input

     Current dimensions of program PWSCF are:
     Max number of different atomic species (ntypx) = 10
     Max number of k-points (npk) = 120000
     Max angular momentum in pseudopotentials (lmaxx) =  4
     file K.pbe-spn-kjpaw_psl.1.0.0.UPF: wavefunction(s)  3S renormalized
     file I.pbe-n-kjpaw_psl.1.0.0.UPF: wavefunction(s)  5S renormalized

     IMPORTANT: XC functional enforced from input :
     Exchange-correlation= PBE
                           (   1   4   3   4   0   0   0)
     Any further DFT definition will be discarded
     Please, verify this is what you really want

     Message from routine setup:
     using ibrav=0 with symmetry is DISCOURAGED, use correct ibrav instead

     K-points division:     npool     =       2
     R & G space division:  proc/nbgrp/npool/nimage =       4
     Subspace diagonalization in iterative solution of the eigenvalue problem:
     a serial algorithm will be used


     Parallelization info
     --------------------
     sticks:   dense  smooth     PW     G-vecs:    dense   smooth      PW
     Min        2004     999    275               134944    47705    6901
     Max        2006    1001    276               134945    47707    6904
     Sum        8021    4001   1101               539777   190823   27609

     Using Slab Decomposition



     bravais-lattice index     =            0
     lattice parameter (alat)  =      11.2176  a.u.
     unit-cell volume          =    1411.5652 (a.u.)^3
     number of atoms/cell      =            5
     number of atomic types    =            3
     number of electrons       =        34.00
     number of Kohn-Sham states=           21
     kinetic-energy cutoff     =     100.0000  Ry
     charge density cutoff     =     800.0000  Ry
     scf convergence threshold =      1.0E-12
     mixing beta               =       0.3000
     number of iterations used =            8  plain     mixing
     Exchange-correlation= PBE
                           (   1   4   3   4   0   0   0)

     celldm(1)=  11.217609  celldm(2)=   0.000000  celldm(3)=   0.000000
     celldm(4)=   0.000000  celldm(5)=   0.000000  celldm(6)=   0.000000

     crystal axes: (cart. coord. in units of alat)
               a(1) = (   1.000000   0.000000   0.000000 )  
               a(2) = (   0.000000   1.000000   0.000000 )  
               a(3) = (   0.000000   0.000000   1.000000 )  

     reciprocal axes: (cart. coord. in units 2 pi/alat)
               b(1) = (  1.000000  0.000000  0.000000 )  
               b(2) = (  0.000000  1.000000  0.000000 )  
               b(3) = (  0.000000  0.000000  1.000000 )  


     PseudoPot. # 1 for K  read from file:
     /home/administrator/Downloads/BURAI/BURAI1.3/pseudopot/K.pbe-spn-kjpaw_psl.1.0.0.UPF
     MD5 check sum: 14ff5a24ff9f8afecca2cb30191d3c3d
     Pseudo is Projector augmented-wave + core cor, Zval =  9.0
     Generated using "atomic" code by A. Dal Corso  v.5.1.2
     Shape of augmentation charge: PSQ
     Using radial grid of 1165 points,  6 beta functions with: 
                l(1) =   0
                l(2) =   0
                l(3) =   1
                l(4) =   1
                l(5) =   2
                l(6) =   2
     Q(r) pseudized with 0 coefficients 


     PseudoPot. # 2 for Ge read from file:
     /home/administrator/Downloads/BURAI/BURAI1.3/pseudopot/Ge.pbe-n-kjpaw_psl.1.0.0.UPF
     MD5 check sum: 4aa708d04ebeac8ef886ea6b7189f44d
     Pseudo is Projector augmented-wave + core cor, Zval =  4.0
     Generated using "atomic" code by A. Dal Corso  v.5.1.2
     Shape of augmentation charge: PSQ
     Using radial grid of 1207 points,  4 beta functions with: 
                l(1) =   0
                l(2) =   0
                l(3) =   1
                l(4) =   1
     Q(r) pseudized with 0 coefficients 


     PseudoPot. # 3 for I  read from file:
     /home/administrator/Downloads/BURAI/BURAI1.3/pseudopot/I.pbe-n-kjpaw_psl.1.0.0.UPF
     MD5 check sum: e1b2a55c91904a364f23c37cb15bc296
     Pseudo is Projector augmented-wave + core cor, Zval =  7.0
     Generated using "atomic" code by A. Dal Corso  v.5.1.2
     Shape of augmentation charge: PSQ
     Using radial grid of 1247 points,  6 beta functions with: 
                l(1) =   0
                l(2) =   0
                l(3) =   1
                l(4) =   1
                l(5) =   2
                l(6) =   2
     Q(r) pseudized with 0 coefficients 


     atomic species   valence    mass     pseudopotential
     K                 9.00    39.09830     K ( 1.00)
     Ge                4.00    72.63000     Ge( 1.00)
     I                 7.00   126.90450     I ( 1.00)

     48 Sym. Ops., with inversion, found



   Cartesian axes

     site n.     atom                  positions (alat units)
         1        K      tau(   1) = (   0.0000000   0.0000000   0.0000000  )
         2        Ge     tau(   2) = (   0.5000000   0.5000000   0.5000000  )
         3        I      tau(   3) = (   0.5000000   0.5000000   0.0000000  )
         4        I      tau(   4) = (   0.5000000   0.0000000   0.5000000  )
         5        I      tau(   5) = (   0.0000000   0.5000000   0.5000000  )

     number of k points=    35  Gaussian smearing, width (Ry)=  0.0100
                       cart. coord. in units 2pi/alat
        k(    1) = (   0.0000000   0.0000000   0.0000000), wk =   0.0039062
        k(    2) = (   0.0000000   0.0000000   0.1250000), wk =   0.0234375
        k(    3) = (   0.0000000   0.0000000   0.2500000), wk =   0.0234375
        k(    4) = (   0.0000000   0.0000000   0.3750000), wk =   0.0234375
        k(    5) = (   0.0000000   0.0000000  -0.5000000), wk =   0.0117188
        k(    6) = (   0.0000000   0.1250000   0.1250000), wk =   0.0468750
        k(    7) = (   0.0000000   0.1250000   0.2500000), wk =   0.0937500
        k(    8) = (   0.0000000   0.1250000   0.3750000), wk =   0.0937500
        k(    9) = (   0.0000000   0.1250000  -0.5000000), wk =   0.0468750
        k(   10) = (   0.0000000   0.2500000   0.2500000), wk =   0.0468750
        k(   11) = (   0.0000000   0.2500000   0.3750000), wk =   0.0937500
        k(   12) = (   0.0000000   0.2500000  -0.5000000), wk =   0.0468750
        k(   13) = (   0.0000000   0.3750000   0.3750000), wk =   0.0468750
        k(   14) = (   0.0000000   0.3750000  -0.5000000), wk =   0.0468750
        k(   15) = (   0.0000000  -0.5000000  -0.5000000), wk =   0.0117188
        k(   16) = (   0.1250000   0.1250000   0.1250000), wk =   0.0312500
        k(   17) = (   0.1250000   0.1250000   0.2500000), wk =   0.0937500
        k(   18) = (   0.1250000   0.1250000   0.3750000), wk =   0.0937500
        k(   19) = (   0.1250000   0.1250000  -0.5000000), wk =   0.0468750
        k(   20) = (   0.1250000   0.2500000   0.2500000), wk =   0.0937500
        k(   21) = (   0.1250000   0.2500000   0.3750000), wk =   0.1875000
        k(   22) = (   0.1250000   0.2500000  -0.5000000), wk =   0.0937500
        k(   23) = (   0.1250000   0.3750000   0.3750000), wk =   0.0937500
        k(   24) = (   0.1250000   0.3750000  -0.5000000), wk =   0.0937500
        k(   25) = (   0.1250000  -0.5000000  -0.5000000), wk =   0.0234375
        k(   26) = (   0.2500000   0.2500000   0.2500000), wk =   0.0312500
        k(   27) = (   0.2500000   0.2500000   0.3750000), wk =   0.0937500
        k(   28) = (   0.2500000   0.2500000  -0.5000000), wk =   0.0468750
        k(   29) = (   0.2500000   0.3750000   0.3750000), wk =   0.0937500
        k(   30) = (   0.2500000   0.3750000  -0.5000000), wk =   0.0937500
        k(   31) = (   0.2500000  -0.5000000  -0.5000000), wk =   0.0234375
        k(   32) = (   0.3750000   0.3750000   0.3750000), wk =   0.0312500
        k(   33) = (   0.3750000   0.3750000  -0.5000000), wk =   0.0468750
        k(   34) = (   0.3750000  -0.5000000  -0.5000000), wk =   0.0234375
        k(   35) = (  -0.5000000  -0.5000000  -0.5000000), wk =   0.0039062

     Dense  grid:   539777 G-vectors     FFT dimensions: ( 108, 108, 108)

     Smooth grid:   190823 G-vectors     FFT dimensions: (  72,  72,  72)

     Estimated max dynamical RAM per process >     331.28 MB

     Estimated total dynamical RAM >       2.46 GB

     Initial potential from superposition of free atoms

     starting charge      33.9802, renormalised to      34.0000
     Starting wfcs are   24 randomized atomic wfcs
     Checking if some PAW data can be deallocated... 

     total cpu time spent up to now is        8.2 secs

     Self-consistent Calculation

     iteration #  1     ecut=   100.00 Ry     beta= 0.30
     Davidson diagonalization with overlap
     ethr =  1.00E-02,  avg # of iterations =  2.5

     Threshold (ethr) on eigenvalues was too large:
     Diagonalizing with lowered threshold

     Davidson diagonalization with overlap
     ethr =  2.24E-04,  avg # of iterations =  5.3

     total cpu time spent up to now is       37.1 secs

     total energy              =   -1414.13866258 Ry
     estimated scf accuracy    <       0.06598711 Ry

     iteration #  2     ecut=   100.00 Ry     beta= 0.30
     Davidson diagonalization with overlap
     ethr =  1.94E-04,  avg # of iterations =  2.2

     total cpu time spent up to now is       50.7 secs

     total energy              =   -1414.14155401 Ry
     estimated scf accuracy    <       0.01178517 Ry

     iteration #  3     ecut=   100.00 Ry     beta= 0.30
     Davidson diagonalization with overlap
     ethr =  3.47E-05,  avg # of iterations =  4.7

     total cpu time spent up to now is       67.2 secs

     total energy              =   -1414.14361327 Ry
     estimated scf accuracy    <       0.00178369 Ry

     iteration #  4     ecut=   100.00 Ry     beta= 0.30
     Davidson diagonalization with overlap
     ethr =  5.25E-06,  avg # of iterations =  5.7

     total cpu time spent up to now is       84.1 secs

     total energy              =   -1414.14391213 Ry
     estimated scf accuracy    <       0.00007090 Ry

     iteration #  5     ecut=   100.00 Ry     beta= 0.30
     Davidson diagonalization with overlap
     c_bands:  3 eigenvalues not converged
     ethr =  2.09E-07,  avg # of iterations =  4.7

     total cpu time spent up to now is      101.7 secs

     total energy              =   -1414.14395217 Ry
     estimated scf accuracy    <       0.00002153 Ry

     iteration #  6     ecut=   100.00 Ry     beta= 0.30
     Davidson diagonalization with overlap
     ethr =  6.33E-08,  avg # of iterations =  2.4

     total cpu time spent up to now is      117.2 secs

     total energy              =   -1414.14396026 Ry
     estimated scf accuracy    <       0.00000232 Ry

     iteration #  7     ecut=   100.00 Ry     beta= 0.30
     Davidson diagonalization with overlap
     ethr =  6.84E-09,  avg # of iterations =  2.9

     total cpu time spent up to now is      132.8 secs

     total energy              =   -1414.14396176 Ry
     estimated scf accuracy    <       0.00000103 Ry

     iteration #  8     ecut=   100.00 Ry     beta= 0.30
     Davidson diagonalization with overlap
     ethr =  3.03E-09,  avg # of iterations =  2.0

     total cpu time spent up to now is      147.0 secs

     total energy              =   -1414.14396223 Ry
     estimated scf accuracy    <       0.00000013 Ry

     iteration #  9     ecut=   100.00 Ry     beta= 0.30
     Davidson diagonalization with overlap
     ethr =  3.90E-10,  avg # of iterations =  3.6

     total cpu time spent up to now is      163.5 secs

     total energy              =   -1414.14396247 Ry
     estimated scf accuracy    <       0.00000007 Ry

     iteration # 10     ecut=   100.00 Ry     beta= 0.30
     Davidson diagonalization with overlap
     ethr =  2.19E-10,  avg # of iterations =  2.0

     total cpu time spent up to now is      178.1 secs

     total energy              =   -1414.14396258 Ry
     estimated scf accuracy    <          2.2E-09 Ry

     iteration # 11     ecut=   100.00 Ry     beta= 0.30
     Davidson diagonalization with overlap
     ethr =  6.56E-12,  avg # of iterations =  4.4

     total cpu time spent up to now is      194.5 secs

     total energy              =   -1414.14396262 Ry
     estimated scf accuracy    <          1.7E-09 Ry

     iteration # 12     ecut=   100.00 Ry     beta= 0.30
     Davidson diagonalization with overlap
     ethr =  5.11E-12,  avg # of iterations =  2.0

     total cpu time spent up to now is      209.5 secs

     total energy              =   -1414.14396264 Ry
     estimated scf accuracy    <          7.8E-11 Ry

     iteration # 13     ecut=   100.00 Ry     beta= 0.30
     Davidson diagonalization with overlap
     ethr =  2.30E-13,  avg # of iterations =  2.6

     total cpu time spent up to now is      225.1 secs

     total energy              =   -1414.14396266 Ry
     estimated scf accuracy    <          6.3E-12 Ry

     iteration # 14     ecut=   100.00 Ry     beta= 0.30
     Davidson diagonalization with overlap
     ethr =  1.00E-13,  avg # of iterations =  2.0

     total cpu time spent up to now is      239.2 secs

     total energy              =   -1414.14396266 Ry
     estimated scf accuracy    <          9.4E-12 Ry

     iteration # 15     ecut=   100.00 Ry     beta= 0.30
     Davidson diagonalization with overlap
     ethr =  1.00E-13,  avg # of iterations =  1.5

     total cpu time spent up to now is      252.2 secs

     End of self-consistent calculation

          k = 0.0000 0.0000 0.0000 ( 23847 PWs)   bands (ev):

   -27.6225 -11.0781 -11.0781 -11.0781  -9.8792  -8.8621  -8.8621  -3.7021
    -1.3428  -1.3428  -1.3428   1.4542   1.4542   1.4542   1.6026   1.6026
     1.6026   5.5673   7.3688   7.3688   7.4986

          k = 0.0000 0.0000 0.1250 ( 23823 PWs)   bands (ev):

   -27.6225 -11.0795 -11.0780 -11.0780  -9.8490  -8.8923  -8.8613  -3.8625
    -1.3210  -1.3210  -1.0336   1.4130   1.4130   1.4223   1.5623   1.5733
     1.5733   5.7385   7.4110   7.6022   7.6364

          k = 0.0000 0.0000 0.2500 ( 23808 PWs)   bands (ev):

   -27.6224 -11.0829 -11.0779 -11.0779  -9.7660  -8.9760  -8.8595  -4.1571
    -1.2653  -1.2653  -0.3428   1.2767   1.2767   1.3482   1.5158   1.5424
     1.5424   6.1424   6.3143   7.6261   7.9195

          k = 0.0000 0.0000 0.3750 ( 23844 PWs)   bands (ev):

   -27.6224 -11.0862 -11.0777 -11.0777  -9.6580  -9.0854  -8.8577  -4.3809
    -1.2044  -1.2044   0.2953   1.1240   1.1240   1.2779   1.5302   1.5302
     1.6708   4.9744   6.7995   7.7088   8.0391

          k = 0.0000 0.0000-0.5000 ( 23844 PWs)   bands (ev):

   -27.6224 -11.0875 -11.0777 -11.0777  -9.5978  -9.1465  -8.8570  -4.4607
    -1.1773  -1.1773   0.5036   1.0592   1.0592   1.2498   1.5267   1.5267
     1.9378   4.3246   7.2891   7.4941   8.0576

          k = 0.0000 0.1250 0.1250 ( 23769 PWs)   bands (ev):

   -27.6225 -11.0799 -11.0788 -11.0780  -9.8192  -8.9048  -8.8769  -4.0126
    -1.2989  -1.1086  -0.9264   1.2427   1.3879   1.4676   1.5159   1.5280
     1.6290   5.8937   7.4525   7.4739   7.5939

          k = 0.0000 0.1250 0.2500 ( 23822 PWs)   bands (ev):

   -27.6224 -11.0827 -11.0788 -11.0778  -9.7370  -8.9788  -8.8814  -4.2961
    -1.2423  -0.9954  -0.3094   1.0345   1.2722   1.4346   1.4767   1.5140
     1.6425   6.2177   6.3384   7.4441   7.7497

          k = 0.0000 0.1250 0.3750 ( 23856 PWs)   bands (ev):

   -27.6224 -11.0856 -11.0786 -11.0777  -9.6296  -9.0843  -8.8805  -4.5160
    -1.1803  -0.9255   0.2739   0.9295   1.1228   1.4481   1.4609   1.5285
     1.7252   4.9596   6.8879   7.4426   7.8823

          k = 0.0000 0.1250-0.5000 ( 23824 PWs)   bands (ev):

   -27.6224 -11.0869 -11.0785 -11.0776  -9.5691  -9.1445  -8.8799  -4.5952
    -1.1527  -0.8952   0.4150   0.9359   1.0582   1.4570   1.4920   1.4939
     1.9619   4.3060   7.3713   7.5022   7.5050

          k = 0.0000 0.2500 0.2500 ( 23833 PWs)   bands (ev):

   -27.6224 -11.0827 -11.0806 -11.0777  -9.6566  -9.0032  -8.9275  -4.5689
    -1.1832  -0.4676  -0.1368   0.7882   1.2397   1.3417   1.4220   1.5324
     1.7909   6.1168   6.2819   6.6539   7.8091

          k = 0.0000 0.2500 0.3750 ( 23855 PWs)   bands (ev):

   -27.6224 -11.0844 -11.0806 -11.0775  -9.5500  -9.0830  -8.9451  -4.7875
    -1.1182  -0.2662   0.2033   0.7783   1.1194   1.2956   1.4041   1.6990
     1.8794   4.9076   6.1618   7.1362   7.8593

          k = 0.0000 0.2500-0.5000 ( 23806 PWs)   bands (ev):

   -27.6224 -11.0853 -11.0804 -11.0775  -9.4878  -9.1394  -8.9473  -4.8674
    -1.0892  -0.2113   0.2231   0.8858   1.0557   1.2900   1.4108   1.8211
     2.0475   4.2402   6.1437   7.5346   7.8791

          k = 0.0000 0.3750 0.3750 ( 23849 PWs)   bands (ev):

   -27.6224 -11.0834 -11.0824 -11.0774  -9.4408  -9.0956  -9.0258  -5.0100
    -1.0496   0.1035   0.3759   0.7825   1.1049   1.1415   1.3418   1.9683
     2.0274   4.7723   4.9279   7.4107   7.8628

          k = 0.0000 0.3750-0.5000 ( 23836 PWs)   bands (ev):

   -27.6224 -11.0838 -11.0824 -11.0773  -9.3711  -9.1344  -9.0501  -5.0923
    -1.0187   0.0655   0.5379   0.8857   1.0533   1.1225   1.3212   2.0787
     2.2711   4.1425   4.8245   7.5365   7.8669

          k = 0.0000-0.5000-0.5000 ( 23900 PWs)   bands (ev):

   -27.6224 -11.0832 -11.0832 -11.0773  -9.2833  -9.1323  -9.1323  -5.1759
    -0.9869   0.0077   0.8896   0.8896   1.0523   1.0523   1.2615   2.1800
     2.5574   4.0916   4.0916   7.5166   7.8657

          k = 0.1250 0.1250 0.1250 ( 23802 PWs)   bands (ev):

   -27.6225 -11.0803 -11.0787 -11.0787  -9.7897  -8.9041  -8.9041  -4.1551
    -1.0859  -1.0859  -0.8287   1.2196   1.2196   1.3549   1.5486   1.6341
     1.6341   6.0301   7.4339   7.4385   7.4385

          k = 0.1250 0.1250 0.2500 ( 23833 PWs)   bands (ev):

   -27.6224 -11.0825 -11.0790 -11.0784  -9.7084  -8.9807  -8.9025  -4.4303
    -1.0273  -0.9240  -0.2762   0.9899   1.0961   1.3146   1.5791   1.6326
     1.6583   6.2171   6.4100   7.3811   7.4111

          k = 0.1250 0.1250 0.3750 ( 23813 PWs)   bands (ev):

   -27.6224 -11.0851 -11.0788 -11.0782  -9.6017  -9.0834  -8.9008  -4.6477
    -0.9617  -0.8459   0.2592   0.8042   1.1181   1.3230   1.5825   1.6108
     1.7491   4.9409   6.9275   7.3588   7.4197

          k = 0.1250 0.1250-0.5000 ( 23822 PWs)   bands (ev):

   -27.6224 -11.0862 -11.0787 -11.0780  -9.5410  -9.1426  -8.9001  -4.7265
    -0.9320  -0.8136   0.3728   0.7318   1.2523   1.2742   1.5802   1.5994
     1.9756   4.2836   7.3141   7.3535   7.4501

          k = 0.1250 0.2500 0.2500 ( 23842 PWs)   bands (ev):

   -27.6224 -11.0825 -11.0803 -11.0784  -9.6292  -9.0027  -8.9463  -4.6981
    -0.9268  -0.4441  -0.1107   0.7750   1.0088   1.2132   1.6128   1.6650
     1.7910   6.0900   6.2484   6.6907   7.3433

          k = 0.1250 0.2500 0.3750 ( 23844 PWs)   bands (ev):

   -27.6224 -11.0840 -11.0804 -11.0781  -9.5239  -9.0825  -8.9589  -4.9160
    -0.8557  -0.2388   0.2039   0.6584   1.0024   1.2795   1.6092   1.7516
     1.8816   4.8816   6.1287   7.0571   7.3227

          k = 0.1250 0.2500-0.5000 ( 23830 PWs)   bands (ev):

   -27.6224 -11.0848 -11.0803 -11.0780  -9.4620  -9.1383  -8.9600  -4.9962
    -0.8238  -0.1830   0.2258   0.6268   1.0653   1.3384   1.6125   1.8369
     2.0517   4.2092   6.1097   7.2749   7.3116

          k = 0.1250 0.3750 0.3750 ( 23832 PWs)   bands (ev):

   -27.6224 -11.0830 -11.0820 -11.0779  -9.4174  -9.0953  -9.0324  -5.1390
    -0.7803   0.1134   0.3588   0.6198   0.9256   1.3248   1.5588   1.9835
     2.0301   4.7389   4.8995   7.1428   7.2725

          k = 0.1250 0.3750-0.5000 ( 23852 PWs)   bands (ev):

   -27.6224 -11.0833 -11.0820 -11.0778  -9.3490  -9.1339  -9.0538  -5.2221
    -0.7463   0.0776   0.4814   0.6120   1.0053   1.3622   1.5247   2.0825
     2.2786   4.1036   4.7923   7.1577   7.2567

          k = 0.1250-0.5000-0.5000 ( 23828 PWs)   bands (ev):

   -27.6224 -11.0827 -11.0827 -11.0777  -9.2627  -9.1321  -9.1321  -5.3066
    -0.7111   0.0214   0.6124   0.6124   1.2633   1.3685   1.3685   2.1825
     2.5728   4.0492   4.0492   7.0924   7.2541

          k = 0.2500 0.2500 0.2500 ( 23907 PWs)   bands (ev):

   -27.6224 -11.0823 -11.0798 -11.0798  -9.5534  -9.0014  -9.0014  -4.9632
    -0.3792  -0.3792  -0.0061   0.7198   0.7198   1.1793   1.7903   1.7903
     1.7942   6.0256   6.0256   6.2677   6.8430

          k = 0.2500 0.2500 0.3750 ( 23816 PWs)   bands (ev):

   -27.6224 -11.0829 -11.0803 -11.0792  -9.4518  -9.0823  -9.0001  -5.1846
    -0.2956  -0.1002   0.1925   0.4919   0.7643   1.4262   1.7918   1.8882
     1.8883   4.8074   5.9664   6.1610   6.9228

          k = 0.2500 0.2500-0.5000 ( 23818 PWs)   bands (ev):

   -27.6224 -11.0835 -11.0802 -11.0789  -9.3902  -9.1354  -8.9995  -5.2673
    -0.2506  -0.0373   0.2052   0.3977   0.8349   1.6211   1.7920   1.9156
     2.0886   4.1150   5.9440   6.1444   6.9371

          k = 0.2500 0.3750 0.3750 ( 23847 PWs)   bands (ev):

   -27.6224 -11.0821 -11.0811 -11.0791  -9.3540  -9.0944  -9.0539  -5.4137
    -0.1229   0.1358   0.2980   0.4187   0.7619   1.6285   1.8337   2.0103
     2.0382   4.6480   4.8186   6.0230   6.7357

          k = 0.2500 0.3750-0.5000 ( 23866 PWs)   bands (ev):

   -27.6224 -11.0822 -11.0812 -11.0789  -9.2899  -9.1325  -9.0664  -5.5004
    -0.0678   0.1064   0.3411   0.3513   0.9435   1.7294   1.8128   2.0936
     2.3047   3.9890   4.7038   6.0018   6.6607

          k = 0.2500-0.5000-0.5000 ( 23844 PWs)   bands (ev):

   -27.6224 -11.0817 -11.0817 -11.0787  -9.2107  -9.1313  -9.1313  -5.5891
    -0.0088   0.0550   0.3403   0.3403   1.2679   1.7492   1.7492   2.1886
     2.6285   3.9252   3.9252   5.9797   6.5618

          k = 0.3750 0.3750 0.3750 ( 23831 PWs)   bands (ev):

   -27.6224 -11.0813 -11.0802 -11.0802  -9.2704  -9.0935  -9.0935  -5.6534
     0.1417   0.2162   0.2162   0.6983   0.6983   2.0089   2.0089   2.0387
     2.0709   4.5439   4.5439   4.8851   6.4318

          k = 0.3750 0.3750-0.5000 ( 23852 PWs)   bands (ev):

   -27.6224 -11.0811 -11.0805 -11.0798  -9.2138  -9.1312  -9.0931  -5.7455
     0.1225   0.1795   0.2076   0.6853   1.0154   2.0042   2.0299   2.1269
     2.4454   3.8381   4.4972   4.7638   6.3242

          k = 0.3750-0.5000-0.5000 ( 23888 PWs)   bands (ev):

   -27.6224 -11.0806 -11.0806 -11.0798  -9.1548  -9.1306  -9.1306  -5.8402
     0.0896   0.1647   0.1647   0.8347   1.2724   2.0640   2.0640   2.1947
     2.7913   3.7606   3.7606   4.6114   6.2065

          k =-0.5000-0.5000-0.5000 ( 23744 PWs)   bands (ev):

   -27.6224 -11.0802 -11.0802 -11.0802  -9.1303  -9.1303  -9.1303  -5.9380
     0.1042   0.1042   0.1042   1.2743   1.2743   2.1972   2.1972   2.1972
     3.1631   3.6748   3.6748   3.6748   6.0826

     the Fermi energy is     3.3986 ev

!    total energy              =   -1414.14396267 Ry
     total all-electron energy =    -48101.257398 Ry
     estimated scf accuracy    <          1.4E-13 Ry
     smearing contrib. (-TS)   =      -0.00000120 Ry
     internal energy E=F+TS    =   -1414.14396146 Ry

     The total energy is F=E-TS. E is the sum of the following terms:
     one-electron contribution =     -23.77587156 Ry
     hartree contribution      =      25.43257692 Ry
     xc contribution           =     -65.00134412 Ry
     ewald contribution        =    -103.19587947 Ry
     one-center paw contrib.   =   -1247.60344323 Ry

     convergence has been achieved in  15 iterations

     Writing all to output data dir ./tmp/KGeI3.save/ :
     XML data file, charge density, pseudopotentials, collected wavefunctions

     init_run     :      8.49s CPU      7.64s WALL (       1 calls)
     electrons    :    315.59s CPU    244.13s WALL (       1 calls)

     Called by init_run:
     wfcinit      :      5.42s CPU      4.25s WALL (       1 calls)
     potinit      :      1.00s CPU      1.08s WALL (       1 calls)
     hinit0       :      0.92s CPU      0.94s WALL (       1 calls)

     Called by electrons:
     c_bands      :    222.10s CPU    162.60s WALL (      16 calls)
     sum_band     :     70.88s CPU     55.74s WALL (      16 calls)
     v_of_rho     :      5.50s CPU      6.05s WALL (      16 calls)
     newd         :     14.14s CPU     16.99s WALL (      16 calls)
     PAW_pot      :      2.99s CPU      3.02s WALL (      16 calls)
     mix_rho      :      0.60s CPU      0.62s WALL (      16 calls)

     Called by c_bands:
     init_us_2    :     10.16s CPU      7.14s WALL (     594 calls)
     cegterg      :    191.57s CPU    140.25s WALL (     288 calls)

     Called by *egterg:
     cdiaghg      :      2.93s CPU      2.09s WALL (    1234 calls)
     h_psi        :    157.20s CPU    121.24s WALL (    1270 calls)
     s_psi        :      8.45s CPU      4.48s WALL (    1270 calls)
     g_psi        :      1.13s CPU      0.80s WALL (     964 calls)

     Called by h_psi:
     h_psi:calbec :      9.49s CPU      5.34s WALL (    1270 calls)
     vloc_psi     :    137.59s CPU    110.30s WALL (    1270 calls)
     add_vuspsi   :      9.11s CPU      4.87s WALL (    1270 calls)

     General routines
     calbec       :     12.71s CPU      7.13s WALL (    1558 calls)
     fft          :      3.74s CPU      4.05s WALL (     207 calls)
     ffts         :      0.54s CPU      0.52s WALL (      32 calls)
     fftw         :    122.11s CPU     96.85s WALL (   38142 calls)
     interpolate  :      0.79s CPU      0.81s WALL (      16 calls)

     Parallel routines

     PWSCF        :   5m24.69s CPU   4m12.59s WALL


   This run was terminated on:  10:36: 2  10May2025            

=------------------------------------------------------------------------------=
   JOB DONE.
=------------------------------------------------------------------------------=
