
     Program PWSCF v.7.3.1 starts on  8May2025 at 21:16:48 

     This program is part of the open-source Quantum ESPRESSO suite
     for quantum simulation of materials; please cite
         "P. Giannozzi et al., J. Phys.:Condens. Matter 21 395502 (2009);
         "P. Giannozzi et al., J. Phys.:Condens. Matter 29 465901 (2017);
         "P. Giannozzi et al., J. Chem. Phys. 152 154105 (2020);
          URL http://www.quantum-espresso.org", 
     in publications or presentations arising from this work. More details at
     http://www.quantum-espresso.org/quote

     Parallel version (MPI), running on     8 processors

     MPI processes distributed on     1 nodes
     45702 MiB available memory on the printing compute node when the environment starts

     Waiting for input...
     Reading input from standard input

     Current dimensions of program PWSCF are:
     Max number of different atomic species (ntypx) = 10
     Max number of k-points (npk) = 120000
     Max angular momentum in pseudopotentials (lmaxx) =  4
     Message from routine iosys:
     restart disabled: needed files not found
     file K.pbe-spn-rrkjus_psl.1.0.0.UPF: wavefunction(s)  3S renormalized
     file Sn.pbe-dn-kjpaw_psl.1.0.0.UPF: wavefunction(s)  5S 5P 4D renormalized

     IMPORTANT: XC functional enforced from input :
     Exchange-correlation= PBE
                           (   1   4   3   4   0   0   0)
     Any further DFT definition will be discarded
     Please, verify this is what you really want


     Atomic positions and unit cell read from directory:
     ./tmp/ksncl3.save/
     Message from routine qexsd_readschema :
     xml data file ./tmp/ksncl3.save/data-file-schema.xml not found
     Nothing found: using input atomic positions and unit cell

     Message from routine setup:
     using ibrav=0 with symmetry is DISCOURAGED, use correct ibrav instead

     K-points division:     npool     =       2
     R & G space division:  proc/nbgrp/npool/nimage =       4
     Subspace diagonalization in iterative solution of the eigenvalue problem:
     a serial algorithm will be used


     Parallelization info
     --------------------
     sticks:   dense  smooth     PW     G-vecs:    dense   smooth      PW
     Min        1772     885    243               111918    39588    5745
     Max        1773     887    244               111921    39589    5748
     Sum        7089    3545    973               447679   158355   22983

     Using Slab Decomposition



     bravais-lattice index     =            0
     lattice parameter (alat)  =      10.5411  a.u.
     unit-cell volume          =    1171.2734 (a.u.)^3
     number of atoms/cell      =            5
     number of atomic types    =            3
     number of electrons       =        44.00
     number of Kohn-Sham states=           26
     kinetic-energy cutoff     =     100.0000  Ry
     charge density cutoff     =     800.0000  Ry
     scf convergence threshold =      1.0E-12
     mixing beta               =       0.3000
     number of iterations used =            8  plain     mixing
     Exchange-correlation= PBE
                           (   1   4   3   4   0   0   0)

     celldm(1)=  10.541104  celldm(2)=   0.000000  celldm(3)=   0.000000
     celldm(4)=   0.000000  celldm(5)=   0.000000  celldm(6)=   0.000000

     crystal axes: (cart. coord. in units of alat)
               a(1) = (   1.000000   0.000000   0.000000 )  
               a(2) = (   0.000000   1.000000   0.000000 )  
               a(3) = (   0.000000   0.000000   1.000000 )  

     reciprocal axes: (cart. coord. in units 2 pi/alat)
               b(1) = (  1.000000  0.000000  0.000000 )  
               b(2) = (  0.000000  1.000000  0.000000 )  
               b(3) = (  0.000000  0.000000  1.000000 )  


     PseudoPot. # 1 for K  read from file:
     /home/administrator/Downloads/BURAI/BURAI1.3/pseudopot/K.pbe-spn-rrkjus_psl.1.0.0.UPF
     MD5 check sum: 716c94968b5730b158b89360ae401048
     Pseudo is Ultrasoft + core correction, Zval =  9.0
     Generated using "atomic" code by A. Dal Corso  v.5.1.2
     Using radial grid of 1165 points,  6 beta functions with: 
                l(1) =   0
                l(2) =   0
                l(3) =   1
                l(4) =   1
                l(5) =   2
                l(6) =   2
     Q(r) pseudized with 0 coefficients 


     PseudoPot. # 2 for Sn read from file:
     /home/administrator/Downloads/BURAI/BURAI1.3/pseudopot/Sn.pbe-dn-kjpaw_psl.1.0.0.UPF
     MD5 check sum: 02ec5557332c566e7b743d7c5a03ecd4
     Pseudo is Projector augmented-wave + core cor, Zval = 14.0
     Generated using "atomic" code by A. Dal Corso  v.5.1.2
     Shape of augmentation charge: PSQ
     Using radial grid of 1243 points,  6 beta functions with: 
                l(1) =   0
                l(2) =   0
                l(3) =   1
                l(4) =   1
                l(5) =   2
                l(6) =   2
     Q(r) pseudized with 0 coefficients 


     PseudoPot. # 3 for Cl read from file:
     /home/administrator/Downloads/BURAI/BURAI1.3/pseudopot/Cl.pbe-n-rrkjus_psl.1.0.0.UPF
     MD5 check sum: 607313ada9277072ce5a507207be6705
     Pseudo is Ultrasoft + core correction, Zval =  7.0
     Generated using "atomic" code by A. Dal Corso  v.5.1.2
     Using radial grid of 1157 points,  6 beta functions with: 
                l(1) =   0
                l(2) =   0
                l(3) =   1
                l(4) =   1
                l(5) =   2
                l(6) =   2
     Q(r) pseudized with 0 coefficients 


     atomic species   valence    mass     pseudopotential
     K                 9.00    39.09830     K ( 1.00)
     Sn               14.00   118.71000     Sn( 1.00)
     Cl                7.00    35.45300     Cl( 1.00)

     48 Sym. Ops., with inversion, found


                                    s                        frac. trans.

      isym =  1     identity                                     

 cryst.   s( 1) = (     1          0          0      )
                  (     0          1          0      )
                  (     0          0          1      )

 cart.    s( 1) = (  1.0000000  0.0000000  0.0000000 )
                  (  0.0000000  1.0000000  0.0000000 )
                  (  0.0000000  0.0000000  1.0000000 )


      isym =  2     180 deg rotation - cart. axis [0,0,1]        

 cryst.   s( 2) = (    -1          0          0      )
                  (     0         -1          0      )
                  (     0          0          1      )

 cart.    s( 2) = ( -1.0000000  0.0000000  0.0000000 )
                  (  0.0000000 -1.0000000  0.0000000 )
                  (  0.0000000  0.0000000  1.0000000 )


      isym =  3     180 deg rotation - cart. axis [0,1,0]        

 cryst.   s( 3) = (    -1          0          0      )
                  (     0          1          0      )
                  (     0          0         -1      )

 cart.    s( 3) = ( -1.0000000  0.0000000  0.0000000 )
                  (  0.0000000  1.0000000  0.0000000 )
                  (  0.0000000  0.0000000 -1.0000000 )


      isym =  4     180 deg rotation - cart. axis [1,0,0]        

 cryst.   s( 4) = (     1          0          0      )
                  (     0         -1          0      )
                  (     0          0         -1      )

 cart.    s( 4) = (  1.0000000  0.0000000  0.0000000 )
                  (  0.0000000 -1.0000000  0.0000000 )
                  (  0.0000000  0.0000000 -1.0000000 )


      isym =  5     180 deg rotation - cart. axis [1,1,0]        

 cryst.   s( 5) = (     0          1          0      )
                  (     1          0          0      )
                  (     0          0         -1      )

 cart.    s( 5) = (  0.0000000  1.0000000  0.0000000 )
                  (  1.0000000  0.0000000  0.0000000 )
                  (  0.0000000  0.0000000 -1.0000000 )


      isym =  6     180 deg rotation - cart. axis [1,-1,0]       

 cryst.   s( 6) = (     0         -1          0      )
                  (    -1          0          0      )
                  (     0          0         -1      )

 cart.    s( 6) = (  0.0000000 -1.0000000  0.0000000 )
                  ( -1.0000000  0.0000000  0.0000000 )
                  (  0.0000000  0.0000000 -1.0000000 )


      isym =  7      90 deg rotation - cart. axis [0,0,-1]       

 cryst.   s( 7) = (     0         -1          0      )
                  (     1          0          0      )
                  (     0          0          1      )

 cart.    s( 7) = (  0.0000000  1.0000000  0.0000000 )
                  ( -1.0000000  0.0000000  0.0000000 )
                  (  0.0000000  0.0000000  1.0000000 )


      isym =  8      90 deg rotation - cart. axis [0,0,1]        

 cryst.   s( 8) = (     0          1          0      )
                  (    -1          0          0      )
                  (     0          0          1      )

 cart.    s( 8) = (  0.0000000 -1.0000000  0.0000000 )
                  (  1.0000000  0.0000000  0.0000000 )
                  (  0.0000000  0.0000000  1.0000000 )


      isym =  9     180 deg rotation - cart. axis [1,0,1]        

 cryst.   s( 9) = (     0          0          1      )
                  (     0         -1          0      )
                  (     1          0          0      )

 cart.    s( 9) = (  0.0000000  0.0000000  1.0000000 )
                  (  0.0000000 -1.0000000  0.0000000 )
                  (  1.0000000  0.0000000  0.0000000 )


      isym = 10     180 deg rotation - cart. axis [-1,0,1]       

 cryst.   s(10) = (     0          0         -1      )
                  (     0         -1          0      )
                  (    -1          0          0      )

 cart.    s(10) = (  0.0000000  0.0000000 -1.0000000 )
                  (  0.0000000 -1.0000000  0.0000000 )
                  ( -1.0000000  0.0000000  0.0000000 )


      isym = 11      90 deg rotation - cart. axis [0,1,0]        

 cryst.   s(11) = (     0          0         -1      )
                  (     0          1          0      )
                  (     1          0          0      )

 cart.    s(11) = (  0.0000000  0.0000000  1.0000000 )
                  (  0.0000000  1.0000000  0.0000000 )
                  ( -1.0000000  0.0000000  0.0000000 )


      isym = 12      90 deg rotation - cart. axis [0,-1,0]       

 cryst.   s(12) = (     0          0          1      )
                  (     0          1          0      )
                  (    -1          0          0      )

 cart.    s(12) = (  0.0000000  0.0000000 -1.0000000 )
                  (  0.0000000  1.0000000  0.0000000 )
                  (  1.0000000  0.0000000  0.0000000 )


      isym = 13     180 deg rotation - cart. axis [0,1,1]        

 cryst.   s(13) = (    -1          0          0      )
                  (     0          0          1      )
                  (     0          1          0      )

 cart.    s(13) = ( -1.0000000  0.0000000  0.0000000 )
                  (  0.0000000  0.0000000  1.0000000 )
                  (  0.0000000  1.0000000  0.0000000 )


      isym = 14     180 deg rotation - cart. axis [0,1,-1]       

 cryst.   s(14) = (    -1          0          0      )
                  (     0          0         -1      )
                  (     0         -1          0      )

 cart.    s(14) = ( -1.0000000  0.0000000  0.0000000 )
                  (  0.0000000  0.0000000 -1.0000000 )
                  (  0.0000000 -1.0000000  0.0000000 )


      isym = 15      90 deg rotation - cart. axis [-1,0,0]       

 cryst.   s(15) = (     1          0          0      )
                  (     0          0         -1      )
                  (     0          1          0      )

 cart.    s(15) = (  1.0000000  0.0000000  0.0000000 )
                  (  0.0000000  0.0000000  1.0000000 )
                  (  0.0000000 -1.0000000  0.0000000 )


      isym = 16      90 deg rotation - cart. axis [1,0,0]        

 cryst.   s(16) = (     1          0          0      )
                  (     0          0          1      )
                  (     0         -1          0      )

 cart.    s(16) = (  1.0000000  0.0000000  0.0000000 )
                  (  0.0000000  0.0000000 -1.0000000 )
                  (  0.0000000  1.0000000  0.0000000 )


      isym = 17     120 deg rotation - cart. axis [-1,-1,-1]     

 cryst.   s(17) = (     0          0          1      )
                  (     1          0          0      )
                  (     0          1          0      )

 cart.    s(17) = (  0.0000000  1.0000000  0.0000000 )
                  (  0.0000000  0.0000000  1.0000000 )
                  (  1.0000000  0.0000000  0.0000000 )


      isym = 18     120 deg rotation - cart. axis [-1,1,1]       

 cryst.   s(18) = (     0          0         -1      )
                  (    -1          0          0      )
                  (     0          1          0      )

 cart.    s(18) = (  0.0000000 -1.0000000  0.0000000 )
                  (  0.0000000  0.0000000  1.0000000 )
                  ( -1.0000000  0.0000000  0.0000000 )


      isym = 19     120 deg rotation - cart. axis [1,1,-1]       

 cryst.   s(19) = (     0          0         -1      )
                  (     1          0          0      )
                  (     0         -1          0      )

 cart.    s(19) = (  0.0000000  1.0000000  0.0000000 )
                  (  0.0000000  0.0000000 -1.0000000 )
                  ( -1.0000000  0.0000000  0.0000000 )


      isym = 20     120 deg rotation - cart. axis [1,-1,1]       

 cryst.   s(20) = (     0          0          1      )
                  (    -1          0          0      )
                  (     0         -1          0      )

 cart.    s(20) = (  0.0000000 -1.0000000  0.0000000 )
                  (  0.0000000  0.0000000 -1.0000000 )
                  (  1.0000000  0.0000000  0.0000000 )


      isym = 21     120 deg rotation - cart. axis [1,1,1]        

 cryst.   s(21) = (     0          1          0      )
                  (     0          0          1      )
                  (     1          0          0      )

 cart.    s(21) = (  0.0000000  0.0000000  1.0000000 )
                  (  1.0000000  0.0000000  0.0000000 )
                  (  0.0000000  1.0000000  0.0000000 )


      isym = 22     120 deg rotation - cart. axis [-1,1,-1]      

 cryst.   s(22) = (     0         -1          0      )
                  (     0          0         -1      )
                  (     1          0          0      )

 cart.    s(22) = (  0.0000000  0.0000000  1.0000000 )
                  ( -1.0000000  0.0000000  0.0000000 )
                  (  0.0000000 -1.0000000  0.0000000 )


      isym = 23     120 deg rotation - cart. axis [1,-1,-1]      

 cryst.   s(23) = (     0         -1          0      )
                  (     0          0          1      )
                  (    -1          0          0      )

 cart.    s(23) = (  0.0000000  0.0000000 -1.0000000 )
                  ( -1.0000000  0.0000000  0.0000000 )
                  (  0.0000000  1.0000000  0.0000000 )


      isym = 24     120 deg rotation - cart. axis [-1,-1,1]      

 cryst.   s(24) = (     0          1          0      )
                  (     0          0         -1      )
                  (    -1          0          0      )

 cart.    s(24) = (  0.0000000  0.0000000 -1.0000000 )
                  (  1.0000000  0.0000000  0.0000000 )
                  (  0.0000000 -1.0000000  0.0000000 )


      isym = 25     inversion                                    

 cryst.   s(25) = (    -1          0          0      )
                  (     0         -1          0      )
                  (     0          0         -1      )

 cart.    s(25) = ( -1.0000000  0.0000000  0.0000000 )
                  (  0.0000000 -1.0000000  0.0000000 )
                  (  0.0000000  0.0000000 -1.0000000 )


      isym = 26     inv. 180 deg rotation - cart. axis [0,0,1]   

 cryst.   s(26) = (     1          0          0      )
                  (     0          1          0      )
                  (     0          0         -1      )

 cart.    s(26) = (  1.0000000  0.0000000  0.0000000 )
                  (  0.0000000  1.0000000  0.0000000 )
                  (  0.0000000  0.0000000 -1.0000000 )


      isym = 27     inv. 180 deg rotation - cart. axis [0,1,0]   

 cryst.   s(27) = (     1          0          0      )
                  (     0         -1          0      )
                  (     0          0          1      )

 cart.    s(27) = (  1.0000000  0.0000000  0.0000000 )
                  (  0.0000000 -1.0000000  0.0000000 )
                  (  0.0000000  0.0000000  1.0000000 )


      isym = 28     inv. 180 deg rotation - cart. axis [1,0,0]   

 cryst.   s(28) = (    -1          0          0      )
                  (     0          1          0      )
                  (     0          0          1      )

 cart.    s(28) = ( -1.0000000  0.0000000  0.0000000 )
                  (  0.0000000  1.0000000  0.0000000 )
                  (  0.0000000  0.0000000  1.0000000 )


      isym = 29     inv. 180 deg rotation - cart. axis [1,1,0]   

 cryst.   s(29) = (     0         -1          0      )
                  (    -1          0          0      )
                  (     0          0          1      )

 cart.    s(29) = (  0.0000000 -1.0000000  0.0000000 )
                  ( -1.0000000  0.0000000  0.0000000 )
                  (  0.0000000  0.0000000  1.0000000 )


      isym = 30     inv. 180 deg rotation - cart. axis [1,-1,0]  

 cryst.   s(30) = (     0          1          0      )
                  (     1          0          0      )
                  (     0          0          1      )

 cart.    s(30) = (  0.0000000  1.0000000  0.0000000 )
                  (  1.0000000  0.0000000  0.0000000 )
                  (  0.0000000  0.0000000  1.0000000 )


      isym = 31     inv.  90 deg rotation - cart. axis [0,0,-1]  

 cryst.   s(31) = (     0          1          0      )
                  (    -1          0          0      )
                  (     0          0         -1      )

 cart.    s(31) = (  0.0000000 -1.0000000  0.0000000 )
                  (  1.0000000  0.0000000  0.0000000 )
                  (  0.0000000  0.0000000 -1.0000000 )


      isym = 32     inv.  90 deg rotation - cart. axis [0,0,1]   

 cryst.   s(32) = (     0         -1          0      )
                  (     1          0          0      )
                  (     0          0         -1      )

 cart.    s(32) = (  0.0000000  1.0000000  0.0000000 )
                  ( -1.0000000  0.0000000  0.0000000 )
                  (  0.0000000  0.0000000 -1.0000000 )


      isym = 33     inv. 180 deg rotation - cart. axis [1,0,1]   

 cryst.   s(33) = (     0          0         -1      )
                  (     0          1          0      )
                  (    -1          0          0      )

 cart.    s(33) = (  0.0000000  0.0000000 -1.0000000 )
                  (  0.0000000  1.0000000  0.0000000 )
                  ( -1.0000000  0.0000000  0.0000000 )


      isym = 34     inv. 180 deg rotation - cart. axis [-1,0,1]  

 cryst.   s(34) = (     0          0          1      )
                  (     0          1          0      )
                  (     1          0          0      )

 cart.    s(34) = (  0.0000000  0.0000000  1.0000000 )
                  (  0.0000000  1.0000000  0.0000000 )
                  (  1.0000000  0.0000000  0.0000000 )


      isym = 35     inv.  90 deg rotation - cart. axis [0,1,0]   

 cryst.   s(35) = (     0          0          1      )
                  (     0         -1          0      )
                  (    -1          0          0      )

 cart.    s(35) = (  0.0000000  0.0000000 -1.0000000 )
                  (  0.0000000 -1.0000000  0.0000000 )
                  (  1.0000000  0.0000000  0.0000000 )


      isym = 36     inv.  90 deg rotation - cart. axis [0,-1,0]  

 cryst.   s(36) = (     0          0         -1      )
                  (     0         -1          0      )
                  (     1          0          0      )

 cart.    s(36) = (  0.0000000  0.0000000  1.0000000 )
                  (  0.0000000 -1.0000000  0.0000000 )
                  ( -1.0000000  0.0000000  0.0000000 )


      isym = 37     inv. 180 deg rotation - cart. axis [0,1,1]   

 cryst.   s(37) = (     1          0          0      )
                  (     0          0         -1      )
                  (     0         -1          0      )

 cart.    s(37) = (  1.0000000  0.0000000  0.0000000 )
                  (  0.0000000  0.0000000 -1.0000000 )
                  (  0.0000000 -1.0000000  0.0000000 )


      isym = 38     inv. 180 deg rotation - cart. axis [0,1,-1]  

 cryst.   s(38) = (     1          0          0      )
                  (     0          0          1      )
                  (     0          1          0      )

 cart.    s(38) = (  1.0000000  0.0000000  0.0000000 )
                  (  0.0000000  0.0000000  1.0000000 )
                  (  0.0000000  1.0000000  0.0000000 )


      isym = 39     inv.  90 deg rotation - cart. axis [-1,0,0]  

 cryst.   s(39) = (    -1          0          0      )
                  (     0          0          1      )
                  (     0         -1          0      )

 cart.    s(39) = ( -1.0000000  0.0000000  0.0000000 )
                  (  0.0000000  0.0000000 -1.0000000 )
                  (  0.0000000  1.0000000  0.0000000 )


      isym = 40     inv.  90 deg rotation - cart. axis [1,0,0]   

 cryst.   s(40) = (    -1          0          0      )
                  (     0          0         -1      )
                  (     0          1          0      )

 cart.    s(40) = ( -1.0000000  0.0000000  0.0000000 )
                  (  0.0000000  0.0000000  1.0000000 )
                  (  0.0000000 -1.0000000  0.0000000 )


      isym = 41     inv. 120 deg rotation - cart. axis [-1,-1,-1]

 cryst.   s(41) = (     0          0         -1      )
                  (    -1          0          0      )
                  (     0         -1          0      )

 cart.    s(41) = (  0.0000000 -1.0000000  0.0000000 )
                  (  0.0000000  0.0000000 -1.0000000 )
                  ( -1.0000000  0.0000000  0.0000000 )


      isym = 42     inv. 120 deg rotation - cart. axis [-1,1,1]  

 cryst.   s(42) = (     0          0          1      )
                  (     1          0          0      )
                  (     0         -1          0      )

 cart.    s(42) = (  0.0000000  1.0000000  0.0000000 )
                  (  0.0000000  0.0000000 -1.0000000 )
                  (  1.0000000  0.0000000  0.0000000 )


      isym = 43     inv. 120 deg rotation - cart. axis [1,1,-1]  

 cryst.   s(43) = (     0          0          1      )
                  (    -1          0          0      )
                  (     0          1          0      )

 cart.    s(43) = (  0.0000000 -1.0000000  0.0000000 )
                  (  0.0000000  0.0000000  1.0000000 )
                  (  1.0000000  0.0000000  0.0000000 )


      isym = 44     inv. 120 deg rotation - cart. axis [1,-1,1]  

 cryst.   s(44) = (     0          0         -1      )
                  (     1          0          0      )
                  (     0          1          0      )

 cart.    s(44) = (  0.0000000  1.0000000  0.0000000 )
                  (  0.0000000  0.0000000  1.0000000 )
                  ( -1.0000000  0.0000000  0.0000000 )


      isym = 45     inv. 120 deg rotation - cart. axis [1,1,1]   

 cryst.   s(45) = (     0         -1          0      )
                  (     0          0         -1      )
                  (    -1          0          0      )

 cart.    s(45) = (  0.0000000  0.0000000 -1.0000000 )
                  ( -1.0000000  0.0000000  0.0000000 )
                  (  0.0000000 -1.0000000  0.0000000 )


      isym = 46     inv. 120 deg rotation - cart. axis [-1,1,-1] 

 cryst.   s(46) = (     0          1          0      )
                  (     0          0          1      )
                  (    -1          0          0      )

 cart.    s(46) = (  0.0000000  0.0000000 -1.0000000 )
                  (  1.0000000  0.0000000  0.0000000 )
                  (  0.0000000  1.0000000  0.0000000 )


      isym = 47     inv. 120 deg rotation - cart. axis [1,-1,-1] 

 cryst.   s(47) = (     0          1          0      )
                  (     0          0         -1      )
                  (     1          0          0      )

 cart.    s(47) = (  0.0000000  0.0000000  1.0000000 )
                  (  1.0000000  0.0000000  0.0000000 )
                  (  0.0000000 -1.0000000  0.0000000 )


      isym = 48     inv. 120 deg rotation - cart. axis [-1,-1,1] 

 cryst.   s(48) = (     0         -1          0      )
                  (     0          0          1      )
                  (     1          0          0      )

 cart.    s(48) = (  0.0000000  0.0000000  1.0000000 )
                  ( -1.0000000  0.0000000  0.0000000 )
                  (  0.0000000  1.0000000  0.0000000 )


   Cartesian axes

     site n.     atom                  positions (alat units)
         1        K      tau(   1) = (   0.0000000   0.0000000   0.0000000  )
         2        Sn     tau(   2) = (   0.5000000   0.5000000   0.5000000  )
         3        Cl     tau(   3) = (   0.5000000   0.5000000   0.0000000  )
         4        Cl     tau(   4) = (   0.5000000   0.0000000   0.5000000  )
         5        Cl     tau(   5) = (   0.0000000   0.5000000   0.5000000  )

   Crystallographic axes

     site n.     atom                  positions (cryst. coord.)
         1        K      tau(   1) = (  0.0000000  0.0000000  0.0000000  )
         2        Sn     tau(   2) = (  0.5000000  0.5000000  0.5000000  )
         3        Cl     tau(   3) = (  0.5000000  0.5000000  0.0000000  )
         4        Cl     tau(   4) = (  0.5000000  0.0000000  0.5000000  )
         5        Cl     tau(   5) = (  0.0000000  0.5000000  0.5000000  )

     number of k points=    35  Marzari-Vanderbilt smearing, width (Ry)=  0.0050
                       cart. coord. in units 2pi/alat
        k(    1) = (   0.0000000   0.0000000   0.0000000), wk =   0.0039062
        k(    2) = (   0.0000000   0.0000000   0.1250000), wk =   0.0234375
        k(    3) = (   0.0000000   0.0000000   0.2500000), wk =   0.0234375
        k(    4) = (   0.0000000   0.0000000   0.3750000), wk =   0.0234375
        k(    5) = (   0.0000000   0.0000000  -0.5000000), wk =   0.0117188
        k(    6) = (   0.0000000   0.1250000   0.1250000), wk =   0.0468750
        k(    7) = (   0.0000000   0.1250000   0.2500000), wk =   0.0937500
        k(    8) = (   0.0000000   0.1250000   0.3750000), wk =   0.0937500
        k(    9) = (   0.0000000   0.1250000  -0.5000000), wk =   0.0468750
        k(   10) = (   0.0000000   0.2500000   0.2500000), wk =   0.0468750
        k(   11) = (   0.0000000   0.2500000   0.3750000), wk =   0.0937500
        k(   12) = (   0.0000000   0.2500000  -0.5000000), wk =   0.0468750
        k(   13) = (   0.0000000   0.3750000   0.3750000), wk =   0.0468750
        k(   14) = (   0.0000000   0.3750000  -0.5000000), wk =   0.0468750
        k(   15) = (   0.0000000  -0.5000000  -0.5000000), wk =   0.0117188
        k(   16) = (   0.1250000   0.1250000   0.1250000), wk =   0.0312500
        k(   17) = (   0.1250000   0.1250000   0.2500000), wk =   0.0937500
        k(   18) = (   0.1250000   0.1250000   0.3750000), wk =   0.0937500
        k(   19) = (   0.1250000   0.1250000  -0.5000000), wk =   0.0468750
        k(   20) = (   0.1250000   0.2500000   0.2500000), wk =   0.0937500
        k(   21) = (   0.1250000   0.2500000   0.3750000), wk =   0.1875000
        k(   22) = (   0.1250000   0.2500000  -0.5000000), wk =   0.0937500
        k(   23) = (   0.1250000   0.3750000   0.3750000), wk =   0.0937500
        k(   24) = (   0.1250000   0.3750000  -0.5000000), wk =   0.0937500
        k(   25) = (   0.1250000  -0.5000000  -0.5000000), wk =   0.0234375
        k(   26) = (   0.2500000   0.2500000   0.2500000), wk =   0.0312500
        k(   27) = (   0.2500000   0.2500000   0.3750000), wk =   0.0937500
        k(   28) = (   0.2500000   0.2500000  -0.5000000), wk =   0.0468750
        k(   29) = (   0.2500000   0.3750000   0.3750000), wk =   0.0937500
        k(   30) = (   0.2500000   0.3750000  -0.5000000), wk =   0.0937500
        k(   31) = (   0.2500000  -0.5000000  -0.5000000), wk =   0.0234375
        k(   32) = (   0.3750000   0.3750000   0.3750000), wk =   0.0312500
        k(   33) = (   0.3750000   0.3750000  -0.5000000), wk =   0.0468750
        k(   34) = (   0.3750000  -0.5000000  -0.5000000), wk =   0.0234375
        k(   35) = (  -0.5000000  -0.5000000  -0.5000000), wk =   0.0039062

                       cryst. coord.
        k(    1) = (   0.0000000   0.0000000   0.0000000), wk =   0.0039062
        k(    2) = (   0.0000000   0.0000000   0.1250000), wk =   0.0234375
        k(    3) = (   0.0000000   0.0000000   0.2500000), wk =   0.0234375
        k(    4) = (   0.0000000   0.0000000   0.3750000), wk =   0.0234375
        k(    5) = (   0.0000000   0.0000000  -0.5000000), wk =   0.0117188
        k(    6) = (   0.0000000   0.1250000   0.1250000), wk =   0.0468750
        k(    7) = (   0.0000000   0.1250000   0.2500000), wk =   0.0937500
        k(    8) = (   0.0000000   0.1250000   0.3750000), wk =   0.0937500
        k(    9) = (   0.0000000   0.1250000  -0.5000000), wk =   0.0468750
        k(   10) = (   0.0000000   0.2500000   0.2500000), wk =   0.0468750
        k(   11) = (   0.0000000   0.2500000   0.3750000), wk =   0.0937500
        k(   12) = (   0.0000000   0.2500000  -0.5000000), wk =   0.0468750
        k(   13) = (   0.0000000   0.3750000   0.3750000), wk =   0.0468750
        k(   14) = (   0.0000000   0.3750000  -0.5000000), wk =   0.0468750
        k(   15) = (   0.0000000  -0.5000000  -0.5000000), wk =   0.0117188
        k(   16) = (   0.1250000   0.1250000   0.1250000), wk =   0.0312500
        k(   17) = (   0.1250000   0.1250000   0.2500000), wk =   0.0937500
        k(   18) = (   0.1250000   0.1250000   0.3750000), wk =   0.0937500
        k(   19) = (   0.1250000   0.1250000  -0.5000000), wk =   0.0468750
        k(   20) = (   0.1250000   0.2500000   0.2500000), wk =   0.0937500
        k(   21) = (   0.1250000   0.2500000   0.3750000), wk =   0.1875000
        k(   22) = (   0.1250000   0.2500000  -0.5000000), wk =   0.0937500
        k(   23) = (   0.1250000   0.3750000   0.3750000), wk =   0.0937500
        k(   24) = (   0.1250000   0.3750000  -0.5000000), wk =   0.0937500
        k(   25) = (   0.1250000  -0.5000000  -0.5000000), wk =   0.0234375
        k(   26) = (   0.2500000   0.2500000   0.2500000), wk =   0.0312500
        k(   27) = (   0.2500000   0.2500000   0.3750000), wk =   0.0937500
        k(   28) = (   0.2500000   0.2500000  -0.5000000), wk =   0.0468750
        k(   29) = (   0.2500000   0.3750000   0.3750000), wk =   0.0937500
        k(   30) = (   0.2500000   0.3750000  -0.5000000), wk =   0.0937500
        k(   31) = (   0.2500000  -0.5000000  -0.5000000), wk =   0.0234375
        k(   32) = (   0.3750000   0.3750000   0.3750000), wk =   0.0312500
        k(   33) = (   0.3750000   0.3750000  -0.5000000), wk =   0.0468750
        k(   34) = (   0.3750000  -0.5000000  -0.5000000), wk =   0.0234375
        k(   35) = (  -0.5000000  -0.5000000  -0.5000000), wk =   0.0039062

     Dense  grid:   447679 G-vectors     FFT dimensions: (  96,  96,  96)

     Smooth grid:   158355 G-vectors     FFT dimensions: (  72,  72,  72)

     Dynamical RAM for                 wfc:       1.96 MB

     Dynamical RAM for     wfc (w. buffer):      37.27 MB

     Dynamical RAM for           str. fact:       5.12 MB

     Dynamical RAM for           local pot:       0.00 MB

     Dynamical RAM for          nlocal pot:       6.79 MB

     Dynamical RAM for                qrad:       6.81 MB

     Dynamical RAM for          rho,v,vnew:      10.19 MB

     Dynamical RAM for               rhoin:       3.40 MB

     Dynamical RAM for            rho*nmix:      27.32 MB

     Dynamical RAM for           G-vectors:       6.71 MB

     Dynamical RAM for          h,s,v(r/c):       0.12 MB

     Dynamical RAM for          <psi|beta>:       0.04 MB

     Dynamical RAM for                 psi:       3.92 MB

     Dynamical RAM for                hpsi:       3.92 MB

     Dynamical RAM for                spsi:       3.92 MB

     Dynamical RAM for      wfcinit/wfcrot:       3.94 MB

     Dynamical RAM for           addusdens:     162.24 MB

     Dynamical RAM for          addusforce:     165.66 MB

     Dynamical RAM for         addusstress:     172.06 MB

     Estimated static dynamical RAM per process >      91.54 MB

     Estimated max dynamical RAM per process >     290.92 MB

     Estimated total dynamical RAM >       2.17 GB
     Cannot read rho : file not found

     Initial potential from superposition of free atoms

     starting charge      43.9798, renormalised to      44.0000
     Message from routine qexsd_readschema :
     xml data file ./tmp/ksncl3.save/data-file-schema.xml not found
     Cannot read wfcs: file not found
     Starting wfcs are   29 randomized atomic wfcs
     Checking if some PAW data can be deallocated... 
       PAW data deallocated on    6 nodes for type:  2

     total cpu time spent up to now is        8.0 secs

     Self-consistent Calculation

     iteration #  1     ecut=   100.00 Ry     beta= 0.30
     Davidson diagonalization with overlap

---- Real-time Memory Report at c_bands before calling an iterative solver
           239 MiB given to the printing process from OS
             0 MiB allocation reported by mallinfo(arena+hblkhd)
         44042 MiB available memory on the node where the printing process lives
------------------
     c_bands:  1 eigenvalues not converged
     c_bands:  1 eigenvalues not converged
     c_bands:  1 eigenvalues not converged
     c_bands:  1 eigenvalues not converged
     c_bands:  1 eigenvalues not converged
     c_bands:  1 eigenvalues not converged
     c_bands:  2 eigenvalues not converged
     ethr =  1.00E-05,  avg # of iterations = 14.0

     total cpu time spent up to now is       40.6 secs

     total energy              =    -605.13943053 Ry
     estimated scf accuracy    <       0.19226194 Ry

     iteration #  2     ecut=   100.00 Ry     beta= 0.30
     Davidson diagonalization with overlap

---- Real-time Memory Report at c_bands before calling an iterative solver
           294 MiB given to the printing process from OS
             0 MiB allocation reported by mallinfo(arena+hblkhd)
         43351 MiB available memory on the node where the printing process lives
------------------
     ethr =  4.37E-04,  avg # of iterations =  2.0

     total cpu time spent up to now is       54.9 secs

     total energy              =    -605.14641818 Ry
     estimated scf accuracy    <       0.02928111 Ry

     iteration #  3     ecut=   100.00 Ry     beta= 0.30
     Davidson diagonalization with overlap

---- Real-time Memory Report at c_bands before calling an iterative solver
           295 MiB given to the printing process from OS
             0 MiB allocation reported by mallinfo(arena+hblkhd)
         43457 MiB available memory on the node where the printing process lives
------------------
     ethr =  6.65E-05,  avg # of iterations =  2.3

     total cpu time spent up to now is       69.9 secs

     total energy              =    -605.15145796 Ry
     estimated scf accuracy    <       0.00408613 Ry

     iteration #  4     ecut=   100.00 Ry     beta= 0.30
     Davidson diagonalization with overlap

---- Real-time Memory Report at c_bands before calling an iterative solver
           296 MiB given to the printing process from OS
             0 MiB allocation reported by mallinfo(arena+hblkhd)
         43274 MiB available memory on the node where the printing process lives
------------------
     c_bands:  1 eigenvalues not converged
     ethr =  9.29E-06,  avg # of iterations =  3.0

     total cpu time spent up to now is       85.1 secs

     total energy              =    -605.15180299 Ry
     estimated scf accuracy    <       0.00020456 Ry

     iteration #  5     ecut=   100.00 Ry     beta= 0.30
     Davidson diagonalization with overlap

---- Real-time Memory Report at c_bands before calling an iterative solver
           297 MiB given to the printing process from OS
             0 MiB allocation reported by mallinfo(arena+hblkhd)
         43266 MiB available memory on the node where the printing process lives
------------------
     c_bands:  2 eigenvalues not converged
     ethr =  4.65E-07,  avg # of iterations =  4.7

     total cpu time spent up to now is      102.3 secs

     total energy              =    -605.15186580 Ry
     estimated scf accuracy    <       0.00001567 Ry

     iteration #  6     ecut=   100.00 Ry     beta= 0.30
     Davidson diagonalization with overlap

---- Real-time Memory Report at c_bands before calling an iterative solver
           299 MiB given to the printing process from OS
             0 MiB allocation reported by mallinfo(arena+hblkhd)
         43130 MiB available memory on the node where the printing process lives
------------------
     ethr =  3.56E-08,  avg # of iterations =  3.0

     total cpu time spent up to now is      119.0 secs

     total energy              =    -605.15187416 Ry
     estimated scf accuracy    <       0.00000232 Ry

     iteration #  7     ecut=   100.00 Ry     beta= 0.30
     Davidson diagonalization with overlap

---- Real-time Memory Report at c_bands before calling an iterative solver
           300 MiB given to the printing process from OS
             0 MiB allocation reported by mallinfo(arena+hblkhd)
         43245 MiB available memory on the node where the printing process lives
------------------
     ethr =  5.26E-09,  avg # of iterations =  2.5

     total cpu time spent up to now is      134.5 secs

     total energy              =    -605.15187602 Ry
     estimated scf accuracy    <       0.00000065 Ry

     iteration #  8     ecut=   100.00 Ry     beta= 0.30
     Davidson diagonalization with overlap

---- Real-time Memory Report at c_bands before calling an iterative solver
           301 MiB given to the printing process from OS
             0 MiB allocation reported by mallinfo(arena+hblkhd)
         43477 MiB available memory on the node where the printing process lives
------------------
     ethr =  1.47E-09,  avg # of iterations =  2.3

     total cpu time spent up to now is      150.3 secs

     total energy              =    -605.15187677 Ry
     estimated scf accuracy    <       0.00000005 Ry

     iteration #  9     ecut=   100.00 Ry     beta= 0.30
     Davidson diagonalization with overlap

---- Real-time Memory Report at c_bands before calling an iterative solver
           302 MiB given to the printing process from OS
             0 MiB allocation reported by mallinfo(arena+hblkhd)
         43262 MiB available memory on the node where the printing process lives
------------------
     ethr =  1.15E-10,  avg # of iterations =  2.9

     total cpu time spent up to now is      167.2 secs

     total energy              =    -605.15187706 Ry
     estimated scf accuracy    <       0.00000003 Ry

     iteration # 10     ecut=   100.00 Ry     beta= 0.30
     Davidson diagonalization with overlap

---- Real-time Memory Report at c_bands before calling an iterative solver
           304 MiB given to the printing process from OS
             0 MiB allocation reported by mallinfo(arena+hblkhd)
         43372 MiB available memory on the node where the printing process lives
------------------
     ethr =  5.83E-11,  avg # of iterations =  2.0

     total cpu time spent up to now is      182.7 secs

     total energy              =    -605.15187720 Ry
     estimated scf accuracy    <          1.5E-09 Ry

     iteration # 11     ecut=   100.00 Ry     beta= 0.30
     Davidson diagonalization with overlap

---- Real-time Memory Report at c_bands before calling an iterative solver
           304 MiB given to the printing process from OS
             0 MiB allocation reported by mallinfo(arena+hblkhd)
         43345 MiB available memory on the node where the printing process lives
------------------
     ethr =  3.52E-12,  avg # of iterations =  3.1

     total cpu time spent up to now is      198.7 secs

     total energy              =    -605.15187726 Ry
     estimated scf accuracy    <          9.7E-11 Ry

     iteration # 12     ecut=   100.00 Ry     beta= 0.30
     Davidson diagonalization with overlap

---- Real-time Memory Report at c_bands before calling an iterative solver
           304 MiB given to the printing process from OS
             0 MiB allocation reported by mallinfo(arena+hblkhd)
         43386 MiB available memory on the node where the printing process lives
------------------
     ethr =  2.19E-13,  avg # of iterations =  3.2

     total cpu time spent up to now is      215.2 secs

     total energy              =    -605.15187730 Ry
     estimated scf accuracy    <          7.7E-12 Ry

     iteration # 13     ecut=   100.00 Ry     beta= 0.30
     Davidson diagonalization with overlap

---- Real-time Memory Report at c_bands before calling an iterative solver
           304 MiB given to the printing process from OS
             0 MiB allocation reported by mallinfo(arena+hblkhd)
         43361 MiB available memory on the node where the printing process lives
------------------
     ethr =  1.00E-13,  avg # of iterations =  2.0

     total cpu time spent up to now is      229.4 secs

     total energy              =    -605.15187731 Ry
     estimated scf accuracy    <          5.7E-12 Ry

     iteration # 14     ecut=   100.00 Ry     beta= 0.30
     Davidson diagonalization with overlap

---- Real-time Memory Report at c_bands before calling an iterative solver
           304 MiB given to the printing process from OS
             0 MiB allocation reported by mallinfo(arena+hblkhd)
         43378 MiB available memory on the node where the printing process lives
------------------
     ethr =  1.00E-13,  avg # of iterations =  1.0

     total cpu time spent up to now is      242.2 secs

     End of self-consistent calculation

          k = 0.0000 0.0000 0.0000 ( 19837 PWs)   bands (ev):

   -27.6651 -18.2289 -18.2289 -18.1973 -18.1973 -18.1973 -12.0798 -11.4943
   -11.4943 -11.1135 -11.1135 -11.1135  -2.0238  -1.7050  -1.7050  -1.7050
     0.4357   0.4357   0.4357   0.4713   0.4713   0.4713   5.7351   8.0167
     8.0168   8.6293

     occupation numbers 
     1.0000   1.0000   1.0000   1.0000   1.0000   1.0000   1.0000   1.0000
     1.0000   1.0000   1.0000   1.0000   1.0000   1.0000   1.0000   1.0000
     1.0000   1.0000   1.0000   1.0000   1.0000   1.0000   0.0000   0.0000
     0.0000   0.0000

          k = 0.0000 0.0000 0.1250 ( 19757 PWs)   bands (ev):

   -27.6650 -18.2288 -18.2274 -18.1973 -18.1973 -18.1973 -12.0640 -11.5186
   -11.4939 -11.1134 -11.1134 -11.1103  -2.5427  -1.6885  -1.6885  -1.0884
     0.4153   0.4153   0.4208   0.4611   0.4611   0.5082   5.8672   8.0368
     8.1248   8.5150

     occupation numbers 
     1.0000   1.0000   1.0000   1.0000   1.0000   1.0000   1.0000   1.0000
     1.0000   1.0000   1.0000   1.0000   1.0000   1.0000   1.0000   1.0000
     1.0000   1.0000   1.0000   1.0000   1.0000   1.0000   0.0000   0.0000
     0.0000   0.0000

          k = 0.0000 0.0000 0.2500 ( 19742 PWs)   bands (ev):

   -27.6650 -18.2288 -18.2239 -18.1974 -18.1974 -18.1973 -12.0191 -11.5831
   -11.4931 -11.1132 -11.1132 -11.1037  -3.0270  -1.6472  -1.6472  -0.4640
     0.3490   0.3490   0.3853   0.4522   0.4522   0.7542   6.2279   7.4016
     8.1842   8.4304

     occupation numbers 
     1.0000   1.0000   1.0000   1.0000   1.0000   1.0000   1.0000   1.0000
     1.0000   1.0000   1.0000   1.0000   1.0000   1.0000   1.0000   1.0000
     1.0000   1.0000   1.0000   1.0000   1.0000   1.0000   0.0000   0.0000
     0.0000   0.0000

          k = 0.0000 0.0000 0.3750 ( 19818 PWs)   bands (ev):

   -27.6650 -18.2288 -18.2203 -18.1975 -18.1975 -18.1973 -11.9564 -11.6641
   -11.4924 -11.1129 -11.1129 -11.0982  -3.3249  -1.6030  -1.6030  -0.2275
     0.2764   0.2764   0.3506   0.4473   0.4473   1.3429   6.2628   6.8376
     8.0569   8.3462

     occupation numbers 
     1.0000   1.0000   1.0000   1.0000   1.0000   1.0000   1.0000   1.0000
     1.0000   1.0000   1.0000   1.0000   1.0000   1.0000   1.0000   1.0000
     1.0000   1.0000   1.0000   1.0000   1.0000   1.0000   0.0000   0.0000
     0.0000   0.0000

          k = 0.0000 0.0000-0.5000 ( 19882 PWs)   bands (ev):

   -27.6650 -18.2288 -18.2189 -18.1976 -18.1976 -18.1973 -11.9173 -11.7106
   -11.4920 -11.1128 -11.1128 -11.0963  -3.4249  -1.5838  -1.5838  -0.1911
     0.2452   0.2452   0.3365   0.4456   0.4456   1.7036   5.7984   7.2028
     7.7939   8.3166

     occupation numbers 
     1.0000   1.0000   1.0000   1.0000   1.0000   1.0000   1.0000   1.0000
     1.0000   1.0000   1.0000   1.0000   1.0000   1.0000   1.0000   1.0000
     1.0000   1.0000   1.0000   1.0000   1.0000   1.0000   0.0000   0.0000
     0.0000   0.0000

          k = 0.0000 0.1250 0.1250 ( 19801 PWs)   bands (ev):

   -27.6650 -18.2281 -18.2267 -18.1974 -18.1973 -18.1973 -12.0484 -11.5294
   -11.5061 -11.1133 -11.1110 -11.1099  -2.8389  -1.6719  -1.5158  -0.8605
     0.3372   0.4046   0.4340   0.4412   0.4995   0.5440   5.9922   8.0675
     8.1430   8.3534

     occupation numbers 
     1.0000   1.0000   1.0000   1.0000   1.0000   1.0000   1.0000   1.0000
     1.0000   1.0000   1.0000   1.0000   1.0000   1.0000   1.0000   1.0000
     1.0000   1.0000   1.0000   1.0000   1.0000   1.0000   0.0000   0.0000
     0.0000   0.0000

          k = 0.0000 0.1250 0.2500 ( 19772 PWs)   bands (ev):

   -27.6650 -18.2278 -18.2234 -18.1974 -18.1974 -18.1973 -12.0041 -11.5870
   -11.5098 -11.1131 -11.1109 -11.1042  -3.2494  -1.6299  -1.3902  -0.4257
     0.2477   0.3466   0.4233   0.4239   0.5079   0.8224   6.3312   7.3161
     8.0640   8.3407

     occupation numbers 
     1.0000   1.0000   1.0000   1.0000   1.0000   1.0000   1.0000   1.0000
     1.0000   1.0000   1.0000   1.0000   1.0000   1.0000   1.0000   1.0000
     1.0000   1.0000   1.0000   1.0000   1.0000   1.0000   0.0000   0.0000
     0.0000   0.0000

          k = 0.0000 0.1250 0.3750 ( 19798 PWs)   bands (ev):

   -27.6650 -18.2278 -18.2199 -18.1976 -18.1975 -18.1973 -11.9420 -11.6656
   -11.5093 -11.1128 -11.1112 -11.0992  -3.5234  -1.5850  -1.3214  -0.2532
     0.1789   0.2747   0.4181   0.4215   0.4934   1.4217   6.1984   6.9126
     7.9214   8.2119

     occupation numbers 
     1.0000   1.0000   1.0000   1.0000   1.0000   1.0000   1.0000   1.0000
     1.0000   1.0000   1.0000   1.0000   1.0000   1.0000   1.0000   1.0000
     1.0000   1.0000   1.0000   1.0000   1.0000   1.0000   0.0000   0.0000
     0.0000   0.0000

          k = 0.0000 0.1250-0.5000 ( 19790 PWs)   bands (ev):

   -27.6650 -18.2278 -18.2184 -18.1976 -18.1975 -18.1973 -11.9024 -11.7119
   -11.5090 -11.1127 -11.1114 -11.0974  -3.6174  -1.5655  -1.2954  -0.2313
     0.1529   0.2436   0.4161   0.4222   0.4844   1.7837   5.7240   7.2822
     7.7422   8.0832

     occupation numbers 
     1.0000   1.0000   1.0000   1.0000   1.0000   1.0000   1.0000   1.0000
     1.0000   1.0000   1.0000   1.0000   1.0000   1.0000   1.0000   1.0000
     1.0000   1.0000   1.0000   1.0000   1.0000   1.0000   0.0000   0.0000
     0.0000   0.0000

          k = 0.0000 0.2500 0.2500 ( 19734 PWs)   bands (ev):

   -27.6650 -18.2264 -18.2213 -18.1976 -18.1974 -18.1974 -11.9615 -11.6108
   -11.5417 -11.1128 -11.1067 -11.1050  -3.6083  -1.5862  -1.0090  -0.3468
     0.1614   0.3318   0.3629   0.3844   0.6168   1.1233   6.5947   7.0058
     7.3458   8.1945

     occupation numbers 
     1.0000   1.0000   1.0000   1.0000   1.0000   1.0000   1.0000   1.0000
     1.0000   1.0000   1.0000   1.0000   1.0000   1.0000   1.0000   1.0000
     1.0000   1.0000   1.0000   1.0000   1.0000   1.0000   0.0000   0.0000
     0.0000   0.0000

          k = 0.0000 0.2500 0.3750 ( 19765 PWs)   bands (ev):

   -27.6649 -18.2258 -18.2183 -18.1977 -18.1975 -18.1974 -11.9006 -11.6710
   -11.5549 -11.1126 -11.1074 -11.1015  -3.8635  -1.5394  -0.7926  -0.3200
     0.1183   0.2705   0.3456   0.3621   0.6587   1.6973   6.0425   6.8893
     7.2804   8.0892

     occupation numbers 
     1.0000   1.0000   1.0000   1.0000   1.0000   1.0000   1.0000   1.0000
     1.0000   1.0000   1.0000   1.0000   1.0000   1.0000   1.0000   1.0000
     1.0000   1.0000   1.0000   1.0000   1.0000   1.0000   0.0000   0.0000
     0.0000   0.0000

          k = 0.0000 0.2500-0.5000 ( 19774 PWs)   bands (ev):

   -27.6649 -18.2257 -18.2170 -18.1977 -18.1975 -18.1974 -11.8594 -11.7150
   -11.5572 -11.1125 -11.1079 -11.0999  -3.9527  -1.5190  -0.7250  -0.3274
     0.1046   0.2396   0.3431   0.3574   0.6671   2.0508   5.5512   6.9083
     7.4945   8.0522

     occupation numbers 
     1.0000   1.0000   1.0000   1.0000   1.0000   1.0000   1.0000   1.0000
     1.0000   1.0000   1.0000   1.0000   1.0000   1.0000   1.0000   1.0000
     1.0000   1.0000   1.0000   1.0000   1.0000   1.0000   0.0000   0.0000
     0.0000   0.0000

          k = 0.0000 0.3750 0.3750 ( 19772 PWs)   bands (ev):

   -27.6649 -18.2246 -18.2160 -18.1978 -18.1975 -18.1975 -11.8399 -11.6883
   -11.6081 -11.1123 -11.1040 -11.1034  -4.1128  -1.4904  -0.3872  -0.3778
     0.1013   0.2620   0.2744   0.2919   0.7676   2.1877   5.8281   5.9986
     7.5437   7.9647

     occupation numbers 
     1.0000   1.0000   1.0000   1.0000   1.0000   1.0000   1.0000   1.0000
     1.0000   1.0000   1.0000   1.0000   1.0000   1.0000   1.0000   1.0000
     1.0000   1.0000   1.0000   1.0000   1.0000   1.0000   0.0000   0.0000
     0.0000   0.0000

          k = 0.0000 0.3750-0.5000 ( 19800 PWs)   bands (ev):

   -27.6649 -18.2243 -18.2148 -18.1978 -18.1975 -18.1975 -11.7932 -11.7181
   -11.6288 -11.1123 -11.1045 -11.1022  -4.2011  -1.4689  -0.4142  -0.2236
     0.0968   0.2355   0.2546   0.2667   0.8025   2.5175   5.3859   5.8644
     7.7530   7.9207

     occupation numbers 
     1.0000   1.0000   1.0000   1.0000   1.0000   1.0000   1.0000   1.0000
     1.0000   1.0000   1.0000   1.0000   1.0000   1.0000   1.0000   1.0000
     1.0000   1.0000   1.0000   1.0000   1.0000   1.0000   0.0000   0.0000
     0.0000   0.0000

          k = 0.0000-0.5000-0.5000 ( 19704 PWs)   bands (ev):

   -27.6649 -18.2239 -18.2137 -18.1978 -18.1975 -18.1975 -11.7194 -11.7194
   -11.7050 -11.1122 -11.1031 -11.1031  -4.2892  -1.4470  -0.4473   0.0734
     0.0974   0.0974   0.2339   0.2339   0.8526   2.8473   5.3191   5.3191
     7.8740   7.8849

     occupation numbers 
     1.0000   1.0000   1.0000   1.0000   1.0000   1.0000   1.0000   1.0000
     1.0000   1.0000   1.0000   1.0000   1.0000   1.0000   1.0000   1.0000
     1.0000   1.0000   1.0000   1.0000   1.0000   1.0000   0.0000   0.0000
     0.0000   0.0000

          k = 0.1250 0.1250 0.1250 ( 19771 PWs)   bands (ev):

   -27.6650 -18.2267 -18.2267 -18.1973 -18.1973 -18.1973 -12.0331 -11.5287
   -11.5287 -11.1113 -11.1113 -11.1092  -3.0734  -1.4988  -1.4988  -0.7062
     0.3053   0.3053   0.4935   0.4999   0.4999   0.5545   6.1092   8.0489
     8.0489   8.2254

     occupation numbers 
     1.0000   1.0000   1.0000   1.0000   1.0000   1.0000   1.0000   1.0000
     1.0000   1.0000   1.0000   1.0000   1.0000   1.0000   1.0000   1.0000
     1.0000   1.0000   1.0000   1.0000   1.0000   1.0000   0.0000   0.0000
     0.0000   0.0000

          k = 0.1250 0.1250 0.2500 ( 19768 PWs)   bands (ev):

   -27.6650 -18.2266 -18.2231 -18.1974 -18.1974 -18.1973 -11.9897 -11.5890
   -11.5269 -11.1122 -11.1102 -11.1047  -3.4413  -1.4555  -1.3164  -0.3976
     0.1791   0.2761   0.4629   0.4951   0.5275   0.8745   6.4231   7.2310
     7.9158   8.0527

     occupation numbers 
     1.0000   1.0000   1.0000   1.0000   1.0000   1.0000   1.0000   1.0000
     1.0000   1.0000   1.0000   1.0000   1.0000   1.0000   1.0000   1.0000
     1.0000   1.0000   1.0000   1.0000   1.0000   1.0000   0.0000   0.0000
     0.0000   0.0000

          k = 0.1250 0.1250 0.3750 ( 19799 PWs)   bands (ev):

   -27.6650 -18.2266 -18.2196 -18.1976 -18.1976 -18.1973 -11.9282 -11.6665
   -11.5251 -11.1131 -11.1099 -11.1003  -3.6994  -1.4086  -1.2204  -0.2692
     0.0764   0.2844   0.3955   0.4924   0.5328   1.4911   6.1302   6.9750
     7.7990   7.8895

     occupation numbers 
     1.0000   1.0000   1.0000   1.0000   1.0000   1.0000   1.0000   1.0000
     1.0000   1.0000   1.0000   1.0000   1.0000   1.0000   1.0000   1.0000
     1.0000   1.0000   1.0000   1.0000   1.0000   1.0000   0.0000   0.0000
     0.0000   0.0000

          k = 0.1250 0.1250-0.5000 ( 19790 PWs)   bands (ev):

   -27.6650 -18.2266 -18.2181 -18.1976 -18.1976 -18.1973 -11.8885 -11.7127
   -11.5244 -11.1135 -11.1097 -11.0986  -3.7893  -1.3880  -1.1872  -0.2535
     0.0362   0.3063   0.3514   0.4913   0.5315   1.8565   5.6495   7.3432
     7.6904   7.7575

     occupation numbers 
     1.0000   1.0000   1.0000   1.0000   1.0000   1.0000   1.0000   1.0000
     1.0000   1.0000   1.0000   1.0000   1.0000   1.0000   1.0000   1.0000
     1.0000   1.0000   1.0000   1.0000   1.0000   1.0000   0.0000   0.0000
     0.0000   0.0000

          k = 0.1250 0.2500 0.2500 ( 19794 PWs)   bands (ev):

   -27.6650 -18.2249 -18.2213 -18.1976 -18.1975 -18.1974 -11.9484 -11.6094
   -11.5588 -11.1123 -11.1079 -11.1046  -3.7724  -1.3624  -0.9912  -0.3407
     0.0851   0.1800   0.4778   0.5112   0.6182   1.1708   6.6472   6.9212
     7.2570   7.8586

     occupation numbers 
     1.0000   1.0000   1.0000   1.0000   1.0000   1.0000   1.0000   1.0000
     1.0000   1.0000   1.0000   1.0000   1.0000   1.0000   1.0000   1.0000
     1.0000   1.0000   1.0000   1.0000   1.0000   1.0000   0.0000   0.0000
     0.0000   0.0000

          k = 0.1250 0.2500 0.3750 ( 19748 PWs)   bands (ev):

   -27.6649 -18.2244 -18.2182 -18.1976 -18.1975 -18.1974 -11.8890 -11.6703
   -11.5676 -11.1131 -11.1075 -11.1025  -4.0162  -1.3085  -0.7677  -0.3200
    -0.0033   0.1661   0.4334   0.5054   0.6632   1.7514   5.9701   6.8374
     7.2520   7.7200

     occupation numbers 
     1.0000   1.0000   1.0000   1.0000   1.0000   1.0000   1.0000   1.0000
     1.0000   1.0000   1.0000   1.0000   1.0000   1.0000   1.0000   1.0000
     1.0000   1.0000   1.0000   1.0000   1.0000   1.0000   0.0000   0.0000
     0.0000   0.0000

          k = 0.1250 0.2500-0.5000 ( 19774 PWs)   bands (ev):

   -27.6649 -18.2243 -18.2169 -18.1977 -18.1976 -18.1974 -11.8481 -11.7146
   -11.5684 -11.1136 -11.1075 -11.1015  -4.1025  -1.2858  -0.6965  -0.3260
    -0.0408   0.1825   0.3990   0.5041   0.6741   2.1096   5.4758   6.8281
     7.4975   7.6002

     occupation numbers 
     1.0000   1.0000   1.0000   1.0000   1.0000   1.0000   1.0000   1.0000
     1.0000   1.0000   1.0000   1.0000   1.0000   1.0000   1.0000   1.0000
     1.0000   1.0000   1.0000   1.0000   1.0000   1.0000   0.0000   0.0000
     0.0000   0.0000

          k = 0.1250 0.3750 0.3750 ( 19763 PWs)   bands (ev):

   -27.6649 -18.2231 -18.2160 -18.1977 -18.1975 -18.1975 -11.8313 -11.6863
   -11.6165 -11.1131 -11.1058 -11.1042  -4.2554  -1.2510  -0.3800  -0.3725
    -0.0350   0.0874   0.4330   0.4724   0.7690   2.2360   5.7521   5.9278
     7.4361   7.6271

     occupation numbers 
     1.0000   1.0000   1.0000   1.0000   1.0000   1.0000   1.0000   1.0000
     1.0000   1.0000   1.0000   1.0000   1.0000   1.0000   1.0000   1.0000
     1.0000   1.0000   1.0000   1.0000   1.0000   1.0000   0.0000   0.0000
     0.0000   0.0000

          k = 0.1250 0.3750-0.5000 ( 19764 PWs)   bands (ev):

   -27.6649 -18.2228 -18.2148 -18.1978 -18.1976 -18.1975 -11.7864 -11.7165
   -11.6341 -11.1132 -11.1058 -11.1041  -4.3410  -1.2270  -0.4054  -0.2325
    -0.0595   0.0884   0.4105   0.4597   0.8040   2.5691   5.3092   5.7908
     7.4914   7.6628

     occupation numbers 
     1.0000   1.0000   1.0000   1.0000   1.0000   1.0000   1.0000   1.0000
     1.0000   1.0000   1.0000   1.0000   1.0000   1.0000   1.0000   1.0000
     1.0000   1.0000   1.0000   1.0000   1.0000   1.0000   0.0000   0.0000
     0.0000   0.0000

          k = 0.1250-0.5000-0.5000 ( 19764 PWs)   bands (ev):

   -27.6649 -18.2224 -18.2137 -18.1978 -18.1976 -18.1976 -11.7173 -11.7173
   -11.7050 -11.1129 -11.1052 -11.1052  -4.4265  -1.2024  -0.4371  -0.0616
    -0.0616   0.0742   0.4132   0.4132   0.8537   2.9028   5.2419   5.2419
     7.4502   7.7345

     occupation numbers 
     1.0000   1.0000   1.0000   1.0000   1.0000   1.0000   1.0000   1.0000
     1.0000   1.0000   1.0000   1.0000   1.0000   1.0000   1.0000   1.0000
     1.0000   1.0000   1.0000   1.0000   1.0000   1.0000   0.0000   0.0000
     0.0000   0.0000

          k = 0.2500 0.2500 0.2500 ( 19801 PWs)   bands (ev):

   -27.6649 -18.2213 -18.2213 -18.1976 -18.1976 -18.1975 -11.9107 -11.6058
   -11.6058 -11.1108 -11.1108 -11.1042  -4.0746  -0.9443  -0.9443  -0.3295
     0.0082   0.0082   0.6008   0.6008   0.6388   1.4297   6.7458   6.7458
     6.7616   7.4158

     occupation numbers 
     1.0000   1.0000   1.0000   1.0000   1.0000   1.0000   1.0000   1.0000
     1.0000   1.0000   1.0000   1.0000   1.0000   1.0000   1.0000   1.0000
     1.0000   1.0000   1.0000   1.0000   1.0000   1.0000   0.0000   0.0000
     0.0000   0.0000

          k = 0.2500 0.2500 0.3750 ( 19767 PWs)   bands (ev):

   -27.6649 -18.2213 -18.2178 -18.1977 -18.1976 -18.1975 -11.8558 -11.6699
   -11.6022 -11.1138 -11.1089 -11.1045  -4.3063  -0.8890  -0.6488  -0.3301
    -0.1261   0.0062   0.5952   0.6103   0.6933   1.9713   5.8027   6.5984
     6.8184   7.4163

     occupation numbers 
     1.0000   1.0000   1.0000   1.0000   1.0000   1.0000   1.0000   1.0000
     1.0000   1.0000   1.0000   1.0000   1.0000   1.0000   1.0000   1.0000
     1.0000   1.0000   1.0000   1.0000   1.0000   1.0000   0.0000   0.0000
     0.0000   0.0000

          k = 0.2500 0.2500-0.5000 ( 19810 PWs)   bands (ev):

   -27.6649 -18.2213 -18.2163 -18.1977 -18.1977 -18.1975 -11.8158 -11.7135
   -11.6007 -11.1151 -11.1076 -11.1052  -4.3897  -0.8624  -0.5569  -0.3368
    -0.1795   0.0326   0.5660   0.6112   0.7130   2.3266   5.2992   6.5433
     6.8193   7.4884

     occupation numbers 
     1.0000   1.0000   1.0000   1.0000   1.0000   1.0000   1.0000   1.0000
     1.0000   1.0000   1.0000   1.0000   1.0000   1.0000   1.0000   1.0000
     1.0000   1.0000   1.0000   1.0000   1.0000   1.0000   0.0000   0.0000
     0.0000   0.0000

          k = 0.2500 0.3750 0.3750 ( 19784 PWs)   bands (ev):

   -27.6649 -18.2196 -18.2160 -18.1978 -18.1976 -18.1976 -11.8067 -11.6815
   -11.6406 -11.1145 -11.1102 -11.1066  -4.5340  -0.7329  -0.3639  -0.3583
    -0.1831  -0.0714   0.6321   0.6436   0.7737   2.4218   5.5779   5.7550
     6.6360   7.4404

     occupation numbers 
     1.0000   1.0000   1.0000   1.0000   1.0000   1.0000   1.0000   1.0000
     1.0000   1.0000   1.0000   1.0000   1.0000   1.0000   1.0000   1.0000
     1.0000   1.0000   1.0000   1.0000   1.0000   1.0000   0.0000   0.0000
     0.0000   0.0000

          k = 0.2500 0.3750-0.5000 ( 19794 PWs)   bands (ev):

   -27.6649 -18.2193 -18.2148 -18.1978 -18.1977 -18.1976 -11.7669 -11.7125
   -11.6498 -11.1152 -11.1090 -11.1087  -4.6166  -0.6949  -0.3847  -0.2662
    -0.2254  -0.0177   0.6237   0.6435   0.8084   2.7557   5.1287   5.6167
     6.5884   7.4568

     occupation numbers 
     1.0000   1.0000   1.0000   1.0000   1.0000   1.0000   1.0000   1.0000
     1.0000   1.0000   1.0000   1.0000   1.0000   1.0000   1.0000   1.0000
     1.0000   1.0000   1.0000   1.0000   1.0000   1.0000   0.0000   0.0000
     0.0000   0.0000

          k = 0.2500-0.5000-0.5000 ( 19776 PWs)   bands (ev):

   -27.6649 -18.2188 -18.2137 -18.1978 -18.1977 -18.1977 -11.7121 -11.7121
   -11.7048 -11.1148 -11.1102 -11.1102  -4.6993  -0.6541  -0.4122  -0.2295
    -0.2295   0.0761   0.6328   0.6328   0.8565   3.0952   5.0594   5.0594
     6.5329   7.4380

     occupation numbers 
     1.0000   1.0000   1.0000   1.0000   1.0000   1.0000   1.0000   1.0000
     1.0000   1.0000   1.0000   1.0000   1.0000   1.0000   1.0000   1.0000
     1.0000   1.0000   1.0000   1.0000   1.0000   1.0000   0.0000   0.0000
     0.0000   0.0000

          k = 0.3750 0.3750 0.3750 ( 19820 PWs)   bands (ev):

   -27.6648 -18.2160 -18.2160 -18.1978 -18.1978 -18.1978 -11.7703 -11.6766
   -11.6766 -11.1148 -11.1148 -11.1100  -4.7573  -0.3598  -0.3387  -0.3387
    -0.1826  -0.1826   0.7485   0.7485   0.7933   2.8146   5.4141   5.4141
     5.8295   7.3196

     occupation numbers 
     1.0000   1.0000   1.0000   1.0000   1.0000   1.0000   1.0000   1.0000
     1.0000   1.0000   1.0000   1.0000   1.0000   1.0000   1.0000   1.0000
     1.0000   1.0000   1.0000   1.0000   1.0000   1.0000   0.0000   0.0000
     0.0000   0.0000

          k = 0.3750 0.3750-0.5000 ( 19808 PWs)   bands (ev):

   -27.6648 -18.2160 -18.2145 -18.1978 -18.1978 -18.1978 -11.7384 -11.7085
   -11.6746 -11.1167 -11.1133 -11.1129  -4.8391  -0.3719  -0.3252  -0.3178
    -0.2273  -0.0224   0.7634   0.7719   0.8238   3.1410   4.9529   5.3488
     5.6773   7.2694

     occupation numbers 
     1.0000   1.0000   1.0000   1.0000   1.0000   1.0000   1.0000   1.0000
     1.0000   1.0000   1.0000   1.0000   1.0000   1.0000   1.0000   1.0000
     1.0000   1.0000   1.0000   1.0000   1.0000   1.0000   0.0000   0.0000
     0.0000   0.0000

          k = 0.3750-0.5000-0.5000 ( 19792 PWs)   bands (ev):

   -27.6648 -18.2152 -18.2137 -18.1978 -18.1978 -18.1978 -11.7068 -11.7068
   -11.7046 -11.1166 -11.1152 -11.1152  -4.9209  -0.3869  -0.3387  -0.3387
    -0.1331   0.0779   0.7980   0.7980   0.8592   3.4896   4.8811   4.8811
     5.4862   7.1968

     occupation numbers 
     1.0000   1.0000   1.0000   1.0000   1.0000   1.0000   1.0000   1.0000
     1.0000   1.0000   1.0000   1.0000   1.0000   1.0000   1.0000   1.0000
     1.0000   1.0000   1.0000   1.0000   1.0000   1.0000   0.0000   0.0000
     0.0000   0.0000

          k =-0.5000-0.5000-0.5000 ( 19760 PWs)   bands (ev):

   -27.6648 -18.2137 -18.2137 -18.1978 -18.1978 -18.1978 -11.7045 -11.7045
   -11.7045 -11.1174 -11.1174 -11.1174  -5.0026  -0.3764  -0.3764  -0.3764
     0.0787   0.0787   0.8604   0.8604   0.8604   3.9065   4.8079   4.8079
     4.8079   7.1075

     occupation numbers 
     1.0000   1.0000   1.0000   1.0000   1.0000   1.0000   1.0000   1.0000
     1.0000   1.0000   1.0000   1.0000   1.0000   1.0000   1.0000   1.0000
     1.0000   1.0000   1.0000   1.0000   1.0000   1.0000   0.0000   0.0000
     0.0000   0.0000

     the Fermi energy is     4.3086 ev

!    total energy              =    -605.15187733 Ry
     estimated scf accuracy    <          3.8E-13 Ry
     smearing contrib. (-TS)   =       0.00000000 Ry
     internal energy E=F+TS    =    -605.15187733 Ry

     The total energy is F=E-TS. E is the sum of the following terms:
     one-electron contribution =    -149.18406763 Ry
     hartree contribution      =      92.62908069 Ry
     xc contribution           =     -91.87397995 Ry
     ewald contribution        =    -175.78468840 Ry
     one-center paw contrib.   =    -280.93822204 Ry
      -> PAW hartree energy AE =       0.00000000 Ry
      -> PAW hartree energy PS =       0.00000000 Ry
      -> PAW xc energy AE      =       0.00000000 Ry
      -> PAW xc energy PS      =       0.00000000 Ry
      -> total E_H with PAW    =      92.62908069 Ry
      -> total E_XC with PAW   =     -91.87397995 Ry

     convergence has been achieved in  14 iterations

     Forces acting on atoms (cartesian axes, Ry/au):

     atom    1 type  1   force =     0.00000000    0.00000000    0.00000000
     atom    2 type  2   force =     0.00000000    0.00000000    0.00000000
     atom    3 type  3   force =     0.00000000    0.00000000    0.00000000
     atom    4 type  3   force =     0.00000000    0.00000000    0.00000000
     atom    5 type  3   force =     0.00000000    0.00000000    0.00000000
     The non-local contrib.  to forces
     atom    1 type  1   force =     0.00000000    0.00000000    0.00000000
     atom    2 type  2   force =     0.00000000    0.00000000    0.00000000
     atom    3 type  3   force =     0.00000000    0.00000000    0.00000000
     atom    4 type  3   force =     0.00000000    0.00000000    0.00000000
     atom    5 type  3   force =     0.00000000    0.00000000    0.00000000
     The ionic contribution  to forces
     atom    1 type  1   force =    -0.00000000   -0.00000000   -0.00000000
     atom    2 type  2   force =     0.00000000    0.00000000    0.00000000
     atom    3 type  3   force =     0.00000000    0.00000000   -0.00000000
     atom    4 type  3   force =     0.00000000   -0.00000000    0.00000000
     atom    5 type  3   force =    -0.00000000    0.00000000    0.00000000
     The local contribution  to forces
     atom    1 type  1   force =    -0.00000000   -0.00000000   -0.00000000
     atom    2 type  2   force =     0.00000000    0.00000000    0.00000000
     atom    3 type  3   force =     0.00000000    0.00000000    0.00000000
     atom    4 type  3   force =     0.00000000    0.00000000    0.00000000
     atom    5 type  3   force =     0.00000000    0.00000000    0.00000000
     The core correction contribution to forces
     atom    1 type  1   force =     0.00000000    0.00000000    0.00000000
     atom    2 type  2   force =     0.00000000    0.00000000    0.00000000
     atom    3 type  3   force =    -0.00000000    0.00000000    0.00000000
     atom    4 type  3   force =    -0.00000000    0.00000000   -0.00000000
     atom    5 type  3   force =     0.00000000   -0.00000000   -0.00000000
     The Hubbard contrib.    to forces
     atom    1 type  1   force =     0.00000000    0.00000000    0.00000000
     atom    2 type  2   force =     0.00000000    0.00000000    0.00000000
     atom    3 type  3   force =     0.00000000    0.00000000    0.00000000
     atom    4 type  3   force =     0.00000000    0.00000000    0.00000000
     atom    5 type  3   force =     0.00000000    0.00000000    0.00000000
     The SCF correction term to forces
     atom    1 type  1   force =    -0.00000000   -0.00000000    0.00000000
     atom    2 type  2   force =     0.00000000    0.00000000    0.00000000
     atom    3 type  3   force =    -0.00000000    0.00000000   -0.00000000
     atom    4 type  3   force =     0.00000000    0.00000000    0.00000000
     atom    5 type  3   force =    -0.00000000    0.00000000   -0.00000000

     Total force =     0.000000     Total SCF correction =     0.000000


     Computing stress (Cartesian axis) and pressure

          total   stress  (Ry/bohr**3)                   (kbar)     P=        0.64
   0.00000434   0.00000000   0.00000000            0.64        0.00        0.00
   0.00000000   0.00000434   0.00000000            0.00        0.64        0.00
   0.00000000   0.00000000   0.00000434            0.00        0.00        0.64

     kinetic stress (kbar)   9721.86      0.00      0.00
                                0.00   9721.86      0.00
                                0.00      0.00   9721.86

     local   stress (kbar)  -4042.26     -0.00     -0.00
                               -0.00  -4042.26     -0.00
                               -0.00     -0.00  -4042.26

     nonloc. stress (kbar)    161.89      0.00      0.00
                                0.00    161.89      0.00
                                0.00      0.00    161.89

     hartree stress (kbar)   3877.89      0.00      0.00
                                0.00   3877.89      0.00
                                0.00      0.00   3877.89

     exc-cor stress (kbar)   3589.55      0.00      0.00
                                0.00   3589.55      0.00
                                0.00      0.00   3589.55

     corecor stress (kbar)  -5949.11      0.00      0.00
                                0.00  -5949.11      0.00
                                0.00      0.00  -5949.11

     ewald   stress (kbar)  -7359.18      0.00     -0.00
                                0.00  -7359.18     -0.00
                               -0.00     -0.00  -7359.18

     hubbard stress (kbar)      0.00      0.00      0.00
                                0.00      0.00      0.00
                                0.00      0.00      0.00

     DFT-D   stress (kbar)      0.00      0.00      0.00
                                0.00      0.00      0.00
                                0.00      0.00      0.00

     XDM     stress (kbar)      0.00      0.00      0.00
                                0.00      0.00      0.00
                                0.00      0.00      0.00

     dft-nl  stress (kbar)      0.00      0.00      0.00
                                0.00      0.00      0.00
                                0.00      0.00      0.00

     TS-vdW  stress (kbar)      0.00      0.00      0.00
                                0.00      0.00      0.00
                                0.00      0.00      0.00

     MDB     stress (kbar)      0.00      0.00      0.00
                                0.00      0.00      0.00
                                0.00      0.00      0.00

     3D-RISM stress (kbar)      0.00      0.00      0.00
                                0.00      0.00      0.00
                                0.00      0.00      0.00


     Writing all to output data dir ./tmp/ksncl3.save/ :
     XML data file, charge density, pseudopotentials, collected wavefunctions

     init_run     :      8.42s CPU      7.46s WALL (       1 calls)
     electrons    :    303.27s CPU    234.27s WALL (       1 calls)
     forces       :      3.60s CPU      2.91s WALL (       1 calls)
     stress       :     20.70s CPU     20.02s WALL (       1 calls)

     Called by init_run:
     wfcinit      :      5.46s CPU      4.22s WALL (       1 calls)
     wfcinit:atom :      0.11s CPU      0.08s WALL (      18 calls)
     wfcinit:wfcr :      4.62s CPU      3.62s WALL (      18 calls)
     potinit      :      0.84s CPU      0.87s WALL (       1 calls)
     hinit0       :      1.00s CPU      1.02s WALL (       1 calls)

     Called by electrons:
     c_bands      :    220.89s CPU    161.75s WALL (      14 calls)
     sum_band     :     63.14s CPU     50.23s WALL (      14 calls)
     v_of_rho     :      3.73s CPU      4.10s WALL (      15 calls)
     v_h          :      0.26s CPU      0.33s WALL (      15 calls)
     v_xc         :      3.92s CPU      4.28s WALL (      17 calls)
     newd         :     14.16s CPU     17.07s WALL (      15 calls)
     PAW_pot      :      1.66s CPU      1.66s WALL (      15 calls)
     mix_rho      :      0.40s CPU      0.41s WALL (      14 calls)

     Called by c_bands:
     init_us_2    :      8.26s CPU      5.83s WALL (     558 calls)
     cegterg      :    196.37s CPU    143.89s WALL (     252 calls)

     Called by sum_band:
     sum_band:wei :      0.01s CPU      0.01s WALL (      14 calls)
     sum_band:loo :     42.09s CPU     30.18s WALL (      14 calls)
     sum_band:buf :      0.38s CPU      0.25s WALL (     252 calls)
     sum_band:ini :      3.59s CPU      2.54s WALL (     252 calls)
     sum_band:cal :      3.22s CPU      1.74s WALL (     252 calls)
     sum_band:bec :      0.03s CPU      0.02s WALL (     252 calls)
     addusdens    :     19.83s CPU     18.84s WALL (      14 calls)
                                        0.00s GPU  (      14 calls)
     addusd:skk   :      0.02s CPU      0.03s WALL (      42 calls)
                                        0.00s GPU  (      42 calls)

     Called by *egterg:
     cdiaghg      :      4.27s CPU      3.02s WALL (    1200 calls)
     cegterg:over :      8.58s CPU      4.89s WALL (     948 calls)
     cegterg:upda :      4.98s CPU      2.82s WALL (     948 calls)
     cegterg:last :      9.27s CPU      5.08s WALL (     564 calls)
     h_psi        :    158.36s CPU    122.51s WALL (    1218 calls)
     s_psi        :      8.88s CPU      4.72s WALL (    1218 calls)
     g_psi        :      1.12s CPU      0.81s WALL (     948 calls)

     Called by h_psi:
     h_psi:calbec :     10.07s CPU      5.56s WALL (    1218 calls)
     vloc_psi     :    137.82s CPU    111.09s WALL (    1218 calls)
     add_vuspsi   :      9.47s CPU      5.08s WALL (    1218 calls)

     General routines
     calbec       :     15.26s CPU      8.55s WALL (    1560 calls)
     fft          :      3.14s CPU      3.38s WALL (     218 calls)
     ffts         :      0.50s CPU      0.48s WALL (      29 calls)
     fftw         :    131.83s CPU    104.69s WALL (   44392 calls)
     interpolate  :      0.67s CPU      0.69s WALL (      15 calls)

     Parallel routines

     PAW routines
     PAW_pot      :      1.66s CPU      1.66s WALL (      15 calls)
     PAW_symme    :      0.02s CPU      0.02s WALL (      29 calls)

     PWSCF        :   5m36.61s CPU   4m25.47s WALL


   This run was terminated on:  21:21:14   8May2025            

=------------------------------------------------------------------------------=
   JOB DONE.
=------------------------------------------------------------------------------=
