
     Program PWSCF v.7.3.1 starts on 16May2025 at  9:42:53 

     This program is part of the open-source Quantum ESPRESSO suite
     for quantum simulation of materials; please cite
         "P. Giannozzi et al., J. Phys.:Condens. Matter 21 395502 (2009);
         "P. Giannozzi et al., J. Phys.:Condens. Matter 29 465901 (2017);
         "P. Giannozzi et al., J. Chem. Phys. 152 154105 (2020);
          URL http://www.quantum-espresso.org", 
     in publications or presentations arising from this work. More details at
     http://www.quantum-espresso.org/quote

     Parallel version (MPI), running on     8 processors

     MPI processes distributed on     1 nodes
     55128 MiB available memory on the printing compute node when the environment starts

     Waiting for input...
     Reading input from standard input

     Current dimensions of program PWSCF are:
     Max number of different atomic species (ntypx) = 10
     Max number of k-points (npk) = 120000
     Max angular momentum in pseudopotentials (lmaxx) =  4
     file Cs.pbe-spn-rrkjus_psl.1.0.0.UPF: wavefunction(s)  5S 6S renormalized
     file Zn.pbe-spn-kjpaw_psl.1.0.0.UPF: wavefunction(s)  3P 3D renormalized
     file Cl.pbe-n-kjpaw_psl.1.0.0.UPF: wavefunction(s)  3S 3P renormalized

     IMPORTANT: XC functional enforced from input :
     Exchange-correlation= PBE
                           (   1   4   3   4   0   0   0)
     Any further DFT definition will be discarded
     Please, verify this is what you really want

     Message from routine setup:
     using ibrav=0 with symmetry is DISCOURAGED, use correct ibrav instead

     K-points division:     npool     =       4
     R & G space division:  proc/nbgrp/npool/nimage =       2
     Subspace diagonalization in iterative solution of the eigenvalue problem:
     a serial algorithm will be used


     Parallelization info
     --------------------
     sticks:   dense  smooth     PW     G-vecs:    dense   smooth      PW
     Min        2906    1458    402               166689    58892    8682
     Max        2907    1459    403               166690    58893    8683
     Sum        5813    2917    805               333379   117785   17365

     Using Slab Decomposition



     bravais-lattice index     =            0
     lattice parameter (alat)  =       9.5571  a.u.
     unit-cell volume          =     872.9170 (a.u.)^3
     number of atoms/cell      =            5
     number of atomic types    =            3
     number of electrons       =        50.00
     number of Kohn-Sham states=           30
     kinetic-energy cutoff     =     100.0000  Ry
     charge density cutoff     =     800.0000  Ry
     scf convergence threshold =      1.0E-12
     mixing beta               =       0.3000
     number of iterations used =            8  plain     mixing
     Exchange-correlation= PBE
                           (   1   4   3   4   0   0   0)

     celldm(1)=   9.557060  celldm(2)=   0.000000  celldm(3)=   0.000000
     celldm(4)=   0.000000  celldm(5)=   0.000000  celldm(6)=   0.000000

     crystal axes: (cart. coord. in units of alat)
               a(1) = (   1.000000   0.000000   0.000000 )  
               a(2) = (   0.000000   1.000000   0.000000 )  
               a(3) = (   0.000000   0.000000   1.000000 )  

     reciprocal axes: (cart. coord. in units 2 pi/alat)
               b(1) = (  1.000000  0.000000  0.000000 )  
               b(2) = (  0.000000  1.000000  0.000000 )  
               b(3) = (  0.000000  0.000000  1.000000 )  


     PseudoPot. # 1 for Cs read from file:
     /home/administrator/Downloads/BURAI/BURAI1.3/pseudopot/Cs.pbe-spn-rrkjus_psl.1.0.0.UPF
     MD5 check sum: 0e4a2db85f86c9a13762b1b689b65a6d
     Pseudo is Ultrasoft + core correction, Zval =  9.0
     Generated using "atomic" code by A. Dal Corso  v.5.1.2
     Using radial grid of 1251 points,  9 beta functions with: 
                l(1) =   0
                l(2) =   0
                l(3) =   0
                l(4) =   1
                l(5) =   1
                l(6) =   2
                l(7) =   2
                l(8) =   3
                l(9) =   3
     Q(r) pseudized with 0 coefficients 


     PseudoPot. # 2 for Zn read from file:
     /home/administrator/Downloads/BURAI/BURAI1.3/pseudopot/Zn.pbe-spn-kjpaw_psl.1.0.0.UPF
     MD5 check sum: 9ae49ce97c5e3111e3f06ee7e23c2246
     Pseudo is Projector augmented-wave + core cor, Zval = 20.0
     Generated using "atomic" code by A. Dal Corso  v.5.1.2
     Shape of augmentation charge: PSQ
     Using radial grid of 1201 points,  6 beta functions with: 
                l(1) =   0
                l(2) =   0
                l(3) =   1
                l(4) =   1
                l(5) =   2
                l(6) =   2
     Q(r) pseudized with 0 coefficients 


     PseudoPot. # 3 for Cl read from file:
     /home/administrator/Downloads/BURAI/BURAI1.3/pseudopot/Cl.pbe-n-kjpaw_psl.1.0.0.UPF
     MD5 check sum: d11ac872591ccaf6ebdc6d6d0c764b72
     Pseudo is Projector augmented-wave + core cor, Zval =  7.0
     Generated using "atomic" code by A. Dal Corso  v.5.1.2
     Shape of augmentation charge: PSQ
     Using radial grid of 1157 points,  6 beta functions with: 
                l(1) =   0
                l(2) =   0
                l(3) =   1
                l(4) =   1
                l(5) =   2
                l(6) =   2
     Q(r) pseudized with 0 coefficients 


     atomic species   valence    mass     pseudopotential
     Cs                9.00   132.90550     Cs( 1.00)
     Zn               20.00    65.38000     Zn( 1.00)
     Cl                7.00    35.45300     Cl( 1.00)

     48 Sym. Ops., with inversion, found



   Cartesian axes

     site n.     atom                  positions (alat units)
         1        Cs     tau(   1) = (   0.0000000   0.0000000   0.0000000  )
         2        Zn     tau(   2) = (   0.5000000   0.5000000   0.5000000  )
         3        Cl     tau(   3) = (   0.5000000   0.5000000   0.0000000  )
         4        Cl     tau(   4) = (   0.5000000   0.0000000   0.5000000  )
         5        Cl     tau(   5) = (   0.0000000   0.5000000   0.5000000  )

     number of k points=    56  Gaussian smearing, width (Ry)=  0.0050
                       cart. coord. in units 2pi/alat
        k(    1) = (   0.0000000   0.0000000   0.0000000), wk =   0.0020000
        k(    2) = (   0.0000000   0.0000000   0.1000000), wk =   0.0120000
        k(    3) = (   0.0000000   0.0000000   0.2000000), wk =   0.0120000
        k(    4) = (   0.0000000   0.0000000   0.3000000), wk =   0.0120000
        k(    5) = (   0.0000000   0.0000000   0.4000000), wk =   0.0120000
        k(    6) = (   0.0000000   0.0000000  -0.5000000), wk =   0.0060000
        k(    7) = (   0.0000000   0.1000000   0.1000000), wk =   0.0240000
        k(    8) = (   0.0000000   0.1000000   0.2000000), wk =   0.0480000
        k(    9) = (   0.0000000   0.1000000   0.3000000), wk =   0.0480000
        k(   10) = (   0.0000000   0.1000000   0.4000000), wk =   0.0480000
        k(   11) = (   0.0000000   0.1000000  -0.5000000), wk =   0.0240000
        k(   12) = (   0.0000000   0.2000000   0.2000000), wk =   0.0240000
        k(   13) = (   0.0000000   0.2000000   0.3000000), wk =   0.0480000
        k(   14) = (   0.0000000   0.2000000   0.4000000), wk =   0.0480000
        k(   15) = (   0.0000000   0.2000000  -0.5000000), wk =   0.0240000
        k(   16) = (   0.0000000   0.3000000   0.3000000), wk =   0.0240000
        k(   17) = (   0.0000000   0.3000000   0.4000000), wk =   0.0480000
        k(   18) = (   0.0000000   0.3000000  -0.5000000), wk =   0.0240000
        k(   19) = (   0.0000000   0.4000000   0.4000000), wk =   0.0240000
        k(   20) = (   0.0000000   0.4000000  -0.5000000), wk =   0.0240000
        k(   21) = (   0.0000000  -0.5000000  -0.5000000), wk =   0.0060000
        k(   22) = (   0.1000000   0.1000000   0.1000000), wk =   0.0160000
        k(   23) = (   0.1000000   0.1000000   0.2000000), wk =   0.0480000
        k(   24) = (   0.1000000   0.1000000   0.3000000), wk =   0.0480000
        k(   25) = (   0.1000000   0.1000000   0.4000000), wk =   0.0480000
        k(   26) = (   0.1000000   0.1000000  -0.5000000), wk =   0.0240000
        k(   27) = (   0.1000000   0.2000000   0.2000000), wk =   0.0480000
        k(   28) = (   0.1000000   0.2000000   0.3000000), wk =   0.0960000
        k(   29) = (   0.1000000   0.2000000   0.4000000), wk =   0.0960000
        k(   30) = (   0.1000000   0.2000000  -0.5000000), wk =   0.0480000
        k(   31) = (   0.1000000   0.3000000   0.3000000), wk =   0.0480000
        k(   32) = (   0.1000000   0.3000000   0.4000000), wk =   0.0960000
        k(   33) = (   0.1000000   0.3000000  -0.5000000), wk =   0.0480000
        k(   34) = (   0.1000000   0.4000000   0.4000000), wk =   0.0480000
        k(   35) = (   0.1000000   0.4000000  -0.5000000), wk =   0.0480000
        k(   36) = (   0.1000000  -0.5000000  -0.5000000), wk =   0.0120000
        k(   37) = (   0.2000000   0.2000000   0.2000000), wk =   0.0160000
        k(   38) = (   0.2000000   0.2000000   0.3000000), wk =   0.0480000
        k(   39) = (   0.2000000   0.2000000   0.4000000), wk =   0.0480000
        k(   40) = (   0.2000000   0.2000000  -0.5000000), wk =   0.0240000
        k(   41) = (   0.2000000   0.3000000   0.3000000), wk =   0.0480000
        k(   42) = (   0.2000000   0.3000000   0.4000000), wk =   0.0960000
        k(   43) = (   0.2000000   0.3000000  -0.5000000), wk =   0.0480000
        k(   44) = (   0.2000000   0.4000000   0.4000000), wk =   0.0480000
        k(   45) = (   0.2000000   0.4000000  -0.5000000), wk =   0.0480000
        k(   46) = (   0.2000000  -0.5000000  -0.5000000), wk =   0.0120000
        k(   47) = (   0.3000000   0.3000000   0.3000000), wk =   0.0160000
        k(   48) = (   0.3000000   0.3000000   0.4000000), wk =   0.0480000
        k(   49) = (   0.3000000   0.3000000  -0.5000000), wk =   0.0240000
        k(   50) = (   0.3000000   0.4000000   0.4000000), wk =   0.0480000
        k(   51) = (   0.3000000   0.4000000  -0.5000000), wk =   0.0480000
        k(   52) = (   0.3000000  -0.5000000  -0.5000000), wk =   0.0120000
        k(   53) = (   0.4000000   0.4000000   0.4000000), wk =   0.0160000
        k(   54) = (   0.4000000   0.4000000  -0.5000000), wk =   0.0240000
        k(   55) = (   0.4000000  -0.5000000  -0.5000000), wk =   0.0120000
        k(   56) = (  -0.5000000  -0.5000000  -0.5000000), wk =   0.0020000

     Dense  grid:   333379 G-vectors     FFT dimensions: (  90,  90,  90)

     Smooth grid:   117785 G-vectors     FFT dimensions: (  64,  64,  64)

     Estimated max dynamical RAM per process >     564.23 MB

     Estimated total dynamical RAM >       4.17 GB

     Initial potential from superposition of free atoms

     starting charge      49.9591, renormalised to      50.0000
     Starting wfcs are   27 randomized atomic wfcs +    3 random wfcs
     Checking if some PAW data can be deallocated... 

     total cpu time spent up to now is        9.9 secs

     Self-consistent Calculation

     iteration #  1     ecut=   100.00 Ry     beta= 0.30
     Davidson diagonalization with overlap
     ethr =  1.00E-02,  avg # of iterations =  6.5

     Threshold (ethr) on eigenvalues was too large:
     Diagonalizing with lowered threshold

     Davidson diagonalization with overlap
     ethr =  5.65E-04,  avg # of iterations =  3.2

     total cpu time spent up to now is       52.8 secs

     total energy              =    -842.52337834 Ry
     estimated scf accuracy    <       0.25485284 Ry

     iteration #  2     ecut=   100.00 Ry     beta= 0.30
     Davidson diagonalization with overlap
     ethr =  5.10E-04,  avg # of iterations =  2.2

     total cpu time spent up to now is       72.2 secs

     total energy              =    -842.53659869 Ry
     estimated scf accuracy    <       0.04188523 Ry

     iteration #  3     ecut=   100.00 Ry     beta= 0.30
     Davidson diagonalization with overlap
     c_bands:  1 eigenvalues not converged
     ethr =  8.38E-05,  avg # of iterations =  8.9

     total cpu time spent up to now is       97.2 secs

     total energy              =    -842.54350322 Ry
     estimated scf accuracy    <       0.00583704 Ry

     iteration #  4     ecut=   100.00 Ry     beta= 0.30
     Davidson diagonalization with overlap
     ethr =  1.17E-05,  avg # of iterations =  9.1

     total cpu time spent up to now is      122.3 secs

     total energy              =    -842.54441832 Ry
     estimated scf accuracy    <       0.00124840 Ry

     iteration #  5     ecut=   100.00 Ry     beta= 0.30
     Davidson diagonalization with overlap
     ethr =  2.50E-06,  avg # of iterations =  7.7

     total cpu time spent up to now is      146.4 secs

     total energy              =    -842.54465589 Ry
     estimated scf accuracy    <       0.00007889 Ry

     iteration #  6     ecut=   100.00 Ry     beta= 0.30
     Davidson diagonalization with overlap
     ethr =  1.58E-07,  avg # of iterations =  5.0

     total cpu time spent up to now is      170.0 secs

     total energy              =    -842.54467674 Ry
     estimated scf accuracy    <       0.00001791 Ry

     iteration #  7     ecut=   100.00 Ry     beta= 0.30
     Davidson diagonalization with overlap
     ethr =  3.58E-08,  avg # of iterations =  3.3

     total cpu time spent up to now is      192.0 secs

     total energy              =    -842.54468211 Ry
     estimated scf accuracy    <       0.00000094 Ry

     iteration #  8     ecut=   100.00 Ry     beta= 0.30
     Davidson diagonalization with overlap
     ethr =  1.88E-09,  avg # of iterations =  5.7

     total cpu time spent up to now is      218.7 secs

     total energy              =    -842.54468344 Ry
     estimated scf accuracy    <       0.00000070 Ry

     iteration #  9     ecut=   100.00 Ry     beta= 0.30
     Davidson diagonalization with overlap
     ethr =  1.40E-09,  avg # of iterations =  2.0

     total cpu time spent up to now is      238.6 secs

     total energy              =    -842.54468390 Ry
     estimated scf accuracy    <       0.00000007 Ry

     iteration # 10     ecut=   100.00 Ry     beta= 0.30
     Davidson diagonalization with overlap
     ethr =  1.34E-10,  avg # of iterations =  5.2

     total cpu time spent up to now is      263.4 secs

     total energy              =    -842.54468411 Ry
     estimated scf accuracy    <       0.00000006 Ry

     iteration # 11     ecut=   100.00 Ry     beta= 0.30
     Davidson diagonalization with overlap
     ethr =  1.14E-10,  avg # of iterations =  2.0

     total cpu time spent up to now is      283.3 secs

     total energy              =    -842.54468421 Ry
     estimated scf accuracy    <          2.9E-10 Ry

     iteration # 12     ecut=   100.00 Ry     beta= 0.30
     Davidson diagonalization with overlap
     ethr =  5.81E-13,  avg # of iterations = 10.6

     total cpu time spent up to now is      319.2 secs

     total energy              =    -842.54468426 Ry
     estimated scf accuracy    <          1.9E-10 Ry

     iteration # 13     ecut=   100.00 Ry     beta= 0.30
     Davidson diagonalization with overlap
     ethr =  3.83E-13,  avg # of iterations =  2.3

     total cpu time spent up to now is      340.4 secs

     total energy              =    -842.54468428 Ry
     estimated scf accuracy    <          1.2E-10 Ry

     iteration # 14     ecut=   100.00 Ry     beta= 0.30
     Davidson diagonalization with overlap
     ethr =  2.30E-13,  avg # of iterations =  2.0

     total cpu time spent up to now is      359.4 secs

     total energy              =    -842.54468429 Ry
     estimated scf accuracy    <          1.2E-11 Ry

     iteration # 15     ecut=   100.00 Ry     beta= 0.30
     Davidson diagonalization with overlap
     ethr =  1.00E-13,  avg # of iterations =  2.2

     total cpu time spent up to now is      378.1 secs

     End of self-consistent calculation

          k = 0.0000 0.0000 0.0000 ( 14771 PWs)   bands (ev):

  -120.5124 -74.6938 -74.6938 -74.6938 -14.8898  -9.9101  -9.1428  -9.1428
    -1.8663  -1.8663  -1.8663  -1.4423  -1.4423  -1.4423  -1.3180  -1.3180
     0.9210   0.9210   0.9210   2.9610   2.9610   2.9610   3.3996   3.3996
     3.3996   4.9652  10.1267  10.1267  10.1998  11.2130

          k = 0.0000 0.0000 0.1000 ( 14723 PWs)   bands (ev):

  -120.5124 -74.6938 -74.6938 -74.6937 -14.8883  -9.8970  -9.1582  -9.1420
    -1.8594  -1.8594  -1.8581  -1.4422  -1.4414  -1.4414  -1.3655  -1.3179
     0.9230   0.9230   0.9339   2.9361   2.9452   2.9452   3.2453   3.3753
     3.3753   5.2232  10.2284  10.2389  10.3492  11.2585

          k = 0.0000 0.0000 0.2000 ( 14759 PWs)   bands (ev):

  -120.5124 -74.6938 -74.6938 -74.6938 -14.8843  -9.8599  -9.2013  -9.1400
    -1.8416  -1.8416  -1.8408  -1.4805  -1.4421  -1.4381  -1.4381  -1.3178
     0.9265   0.9265   0.9744   2.8723   2.9107   2.9107   2.9283   3.3076
     3.3076   5.8377  10.5051  10.5501  10.7824  11.3925

          k = 0.0000 0.0000 0.3000 ( 14730 PWs)   bands (ev):

  -120.5124 -74.6938 -74.6938 -74.6938 -14.8793  -9.8069  -9.2616  -9.1375
    -1.8397  -1.8203  -1.8203  -1.5930  -1.4419  -1.4320  -1.4320  -1.3177
     0.9268   0.9268   1.0416   2.6020   2.7967   2.8864   2.8864   3.2111
     3.2111   6.6125  10.9023  10.9830  11.4236  11.6042

          k = 0.0000 0.0000 0.4000 ( 14718 PWs)   bands (ev):

  -120.5124 -74.6938 -74.6938 -74.6938 -14.8753  -9.7542  -9.3200  -9.1355
    -1.8762  -1.8040  -1.8040  -1.6399  -1.4417  -1.4251  -1.4251  -1.3176
     0.9234   0.9234   1.1174   2.3495   2.7377   2.8935   2.8935   3.1111
     3.1111   7.3524  11.2892  11.3946  11.8563  12.1322

          k = 0.0000 0.0000-0.5000 ( 14718 PWs)   bands (ev):

  -120.5124 -74.6938 -74.6938 -74.6938 -14.8737  -9.7301  -9.3462  -9.1348
    -1.9006  -1.7980  -1.7980  -1.6458  -1.4416  -1.4220  -1.4220  -1.3176
     0.9212   0.9212   1.1545   2.2499   2.7157   2.9124   2.9124   3.0578
     3.0578   7.6980  11.4297  11.5743  11.9301  12.0026

          k = 0.0000 0.1000 0.1000 ( 14739 PWs)   bands (ev):

  -120.5124 -74.6938 -74.6938 -74.6938 -14.8868  -9.8836  -9.1652  -9.1494
    -1.8717  -1.8523  -1.8339  -1.4457  -1.4408  -1.4376  -1.3858  -1.3437
     0.7570   0.9270   1.1225   2.8654   2.9284   2.9788   3.0800   3.3503
     3.4138   5.4332  10.3300  10.3418  10.4758  11.3724

          k = 0.0000 0.1000 0.2000 ( 14760 PWs)   bands (ev):

  -120.5124 -74.6938 -74.6938 -74.6938 -14.8829  -9.8460  -9.2042  -9.1505
    -1.8698  -1.8338  -1.8085  -1.4894  -1.4480  -1.4385  -1.4337  -1.3550
     0.6391   0.9360   1.3039   2.7412   2.8346   2.8913   2.9827   3.2805
     3.3850   5.9808  10.5994  10.6351  10.8589  11.5085

          k = 0.0000 0.1000 0.3000 ( 14745 PWs)   bands (ev):

  -120.5124 -74.6938 -74.6938 -74.6938 -14.8781  -9.7920  -9.2633  -9.1484
    -1.8626  -1.8116  -1.8002  -1.6032  -1.4478  -1.4354  -1.4301  -1.3590
     0.5806   0.9436   1.4504   2.4914   2.7309   2.8635   2.9762   3.1814
     3.2943   6.7144  10.9983  11.0421  11.4484  11.7128

          k = 0.0000 0.1000 0.4000 ( 14724 PWs)   bands (ev):

  -120.5124 -74.6938 -74.6938 -74.6938 -14.8741  -9.7379  -9.3216  -9.1464
    -1.8798  -1.8060  -1.7945  -1.6552  -1.4462  -1.4327  -1.4270  -1.3621
     0.5638   0.9464   1.5506   2.2801   2.6850   2.8680   2.9958   3.0786
     3.1784   7.4371  11.3997  11.4437  11.9560  12.1176

          k = 0.0000 0.1000-0.5000 ( 14734 PWs)   bands (ev):

  -120.5124 -74.6938 -74.6938 -74.6938 -14.8726  -9.7130  -9.3482  -9.1456
    -1.9002  -1.8046  -1.7881  -1.6635  -1.4453  -1.4318  -1.4256  -1.3634
     0.5625   0.9466   1.5891   2.1966   2.6709   2.8868   3.0234   3.0478
     3.0876   7.7804  11.5388  11.6235  11.8330  12.0980

          k = 0.0000 0.2000 0.2000 ( 14777 PWs)   bands (ev):

  -120.5124 -74.6938 -74.6938 -74.6938 -14.8793  -9.8067  -9.2227  -9.1701
    -1.8853  -1.8134  -1.7842  -1.5321  -1.4547  -1.4503  -1.4307  -1.4228
     0.4191   0.9602   1.6375   2.5054   2.7411   2.8464   3.0347   3.2055
     3.4563   6.3978  10.7934  10.9559  11.1189  11.8113

          k = 0.0000 0.2000 0.3000 ( 14752 PWs)   bands (ev):

  -120.5124 -74.6938 -74.6938 -74.6938 -14.8748  -9.7498  -9.2705  -9.1774
    -1.8870  -1.7883  -1.7826  -1.6310  -1.4746  -1.4580  -1.4412  -1.4309
     0.2971   0.9884   1.9010   2.2809   2.6885   2.8077   3.0679   3.0996
     3.4372   7.0260  11.1242  11.3708  11.5935  12.0169

          k = 0.0000 0.2000 0.4000 ( 14721 PWs)   bands (ev):

  -120.5124 -74.6938 -74.6938 -74.6938 -14.8711  -9.6917  -9.3262  -9.1784
    -1.8890  -1.8097  -1.7684  -1.6948  -1.4845  -1.4568  -1.4526  -1.4339
     0.2465   1.0092   2.0550   2.1269   2.6823   2.8030   2.9903   3.1133
     3.3471   7.6978  11.5177  11.7566  11.9731  12.1486

          k = 0.0000 0.2000-0.5000 ( 14734 PWs)   bands (ev):

  -120.5124 -74.6938 -74.6938 -74.6938 -14.8697  -9.6641  -9.3533  -9.1783
    -1.8987  -1.8209  -1.7609  -1.7095  -1.4872  -1.4577  -1.4549  -1.4362
     0.2344   1.0167   2.0614   2.1119   2.6898   2.8206   2.9300   3.1720
     3.2623   8.0344  11.4765  11.8107  11.9583  12.3849

          k = 0.0000 0.3000 0.3000 ( 14750 PWs)   bands (ev):

  -120.5124 -74.6938 -74.6938 -74.6938 -14.8707  -9.6880  -9.2919  -9.2104
    -1.8985  -1.7830  -1.7585  -1.6789  -1.5911  -1.4660  -1.4625  -1.4368
     0.1321   1.0456   2.0904   2.2701   2.6826   2.7511   2.9859   3.1463
     3.5178   7.5370  11.3453  11.8693  11.8861  12.4587

          k = 0.0000 0.3000 0.4000 ( 14739 PWs)   bands (ev):

  -120.5124 -74.6938 -74.6938 -74.6938 -14.8674  -9.6229  -9.3333  -9.2280
    -1.8976  -1.8138  -1.7444  -1.7334  -1.6364  -1.4818  -1.4682  -1.4462
     0.0548   1.0934   1.9633   2.4804   2.7242   2.7280   2.8711   3.2310
     3.5041   8.1400  11.5415  11.8061  12.1954  12.3621

          k = 0.0000 0.3000-0.5000 ( 14732 PWs)   bands (ev):

  -120.5124 -74.6938 -74.6938 -74.6938 -14.8661  -9.5899  -9.3596  -9.2323
    -1.8956  -1.8391  -1.7662  -1.7235  -1.6439  -1.4901  -1.4663  -1.4526
     0.0330   1.1120   1.9188   2.5317   2.7400   2.7607   2.8062   3.2980
     3.4568   8.4699  11.1937  12.0755  12.1625  12.4923

          k = 0.0000 0.4000 0.4000 ( 14762 PWs)   bands (ev):

  -120.5124 -74.6938 -74.6938 -74.6938 -14.8643  -9.5460  -9.3463  -9.2820
    -1.8968  -1.8273  -1.7920  -1.7465  -1.7018  -1.5069  -1.4753  -1.4610
    -0.0405   1.1683   1.8567   2.6784   2.7270   2.7579   2.7775   3.3569
     3.5831   8.7044  11.3443  11.5629  12.0344  12.3639

          k = 0.0000 0.4000-0.5000 ( 14732 PWs)   bands (ev):

  -120.5124 -74.6938 -74.6938 -74.6937 -14.8632  -9.5014  -9.3647  -9.3045
    -1.8882  -1.8521  -1.8167  -1.7694  -1.6886  -1.5169  -1.4754  -1.4703
    -0.0687   1.1990   1.8192   2.6758   2.6965   2.7767   2.8262   3.4284
     3.5916   9.0520  10.9845  11.4378  12.1249  12.3199

          k = 0.0000-0.5000-0.5000 ( 14676 PWs)   bands (ev):

  -120.5124 -74.6937 -74.6937 -74.6937 -14.8620  -9.4329  -9.3667  -9.3667
    -1.8718  -1.8567  -1.8567  -1.8094  -1.6734  -1.5274  -1.4788  -1.4788
    -0.0991   1.2354   1.7840   2.6515   2.6515   2.8518   2.8518   3.4864
     3.6400   9.4548  10.9091  10.9091  12.0645  12.4210

          k = 0.1000 0.1000 0.1000 ( 14750 PWs)   bands (ev):

  -120.5124 -74.6938 -74.6938 -74.6938 -14.8854  -9.8701  -9.1642  -9.1642
    -1.8677  -1.8677  -1.8067  -1.4449  -1.4449  -1.4352  -1.3863  -1.3863
     0.5859   1.1269   1.1269   2.8533   2.8533   2.9338   3.0209   3.3933
     3.3933   5.6140  10.4276  10.4276  10.5883  11.5017

          k = 0.1000 0.1000 0.2000 ( 14754 PWs)   bands (ev):

  -120.5124 -74.6938 -74.6938 -74.6938 -14.8816  -9.8321  -9.2057  -9.1619
    -1.8724  -1.8574  -1.7742  -1.4980  -1.4465  -1.4417  -1.4345  -1.3882
     0.4188   1.1372   1.3747   2.6696   2.7514   2.8340   3.0425   3.3358
     3.3832   6.1109  10.6817  10.7007  10.9218  11.6352

          k = 0.1000 0.1000 0.3000 ( 14749 PWs)   bands (ev):

  -120.5124 -74.6938 -74.6938 -74.6938 -14.8768  -9.7773  -9.2645  -9.1590
    -1.8678  -1.8453  -1.7605  -1.6134  -1.4495  -1.4375  -1.4353  -1.3918
     0.3263   1.1469   1.5760   2.4186   2.6687   2.8296   3.0423   3.2535
     3.2882   6.8084  11.0711  11.0884  11.4503  11.8350

          k = 0.1000 0.1000 0.4000 ( 14723 PWs)   bands (ev):

  -120.5124 -74.6938 -74.6938 -74.6938 -14.8730  -9.7221  -9.3228  -9.1566
    -1.8821  -1.8361  -1.7644  -1.6704  -1.4498  -1.4431  -1.4265  -1.3972
     0.2908   1.1519   1.7067   2.2340   2.6200   2.8799   3.0494   3.1449
     3.1659   7.5152  11.4661  11.4865  11.9862  12.0894

          k = 0.1000 0.1000-0.5000 ( 14714 PWs)   bands (ev):

  -120.5124 -74.6938 -74.6938 -74.6937 -14.8715  -9.6964  -9.3497  -9.1557
    -1.9003  -1.8328  -1.7614  -1.6828  -1.4492  -1.4467  -1.4212  -1.4010
     0.2836   1.1531   1.7531   2.1634   2.6047   2.9824   3.0065   3.0743
     3.1080   7.8568  11.5984  11.6835  11.6892  12.2756

          k = 0.1000 0.2000 0.2000 ( 14749 PWs)   bands (ev):

  -120.5124 -74.6938 -74.6938 -74.6938 -14.8780  -9.7927  -9.2215  -9.1826
    -1.8884  -1.8581  -1.7380  -1.5383  -1.4708  -1.4493  -1.4404  -1.4291
     0.1797   1.2451   1.6481   2.4513   2.6890   2.7681   3.1007   3.2929
     3.4419   6.4992  10.8626  10.9688  11.1384  11.9435

          k = 0.1000 0.2000 0.3000 ( 14738 PWs)   bands (ev):

  -120.5124 -74.6938 -74.6938 -74.6938 -14.8736  -9.7356  -9.2701  -9.1872
    -1.8931  -1.8534  -1.7248  -1.6404  -1.4966  -1.4570  -1.4503  -1.4274
     0.0378   1.2870   1.9286   2.2501   2.6238   2.7585   3.1307   3.2042
     3.4245   7.1010  11.1779  11.3435  11.5384  12.1294

          k = 0.1000 0.2000 0.4000 ( 14721 PWs)   bands (ev):

  -120.5124 -74.6938 -74.6938 -74.6937 -14.8701  -9.6770  -9.3263  -9.1865
    -1.8939  -1.8577  -1.7422  -1.7041  -1.5054  -1.4711  -1.4516  -1.4258
    -0.0249   1.3117   2.0936   2.1211   2.5879   2.8261   3.0939   3.1558
     3.3359   7.7597  11.5419  11.6720  11.8679  12.0632

          k = 0.1000 0.2000-0.5000 ( 14730 PWs)   bands (ev):

  -120.5124 -74.6938 -74.6938 -74.6938 -14.8687  -9.6488  -9.3538  -9.1860
    -1.9009  -1.8631  -1.7360  -1.7314  -1.5078  -1.4775  -1.4514  -1.4254
    -0.0411   1.3201   2.0654   2.1516   2.5778   2.9433   2.9785   3.1862
     3.2635   8.0953  11.3762  11.8270  11.8803  12.2942

          k = 0.1000 0.3000 0.3000 ( 14736 PWs)   bands (ev):

  -120.5124 -74.6938 -74.6938 -74.6938 -14.8697  -9.6746  -9.2902  -9.2184
    -1.9094  -1.8546  -1.7090  -1.6885  -1.6040  -1.4766  -1.4582  -1.4302
    -0.1405   1.3676   2.0918   2.2834   2.6091   2.7127   3.1172   3.1992
     3.5099   7.5919  11.3755  11.7307  11.7417  12.2062

          k = 0.1000 0.3000 0.4000 ( 14743 PWs)   bands (ev):

  -120.5124 -74.6938 -74.6938 -74.6938 -14.8664  -9.6100  -9.3321  -9.2332
    -1.9095  -1.8646  -1.7637  -1.7168  -1.6450  -1.4934  -1.4596  -1.4346
    -0.2256   1.4226   1.9890   2.4689   2.5980   2.7817   3.0267   3.2605
     3.4996   8.1834  11.4382  11.7379  12.0080  12.1987

          k = 0.1000 0.3000-0.5000 ( 14730 PWs)   bands (ev):

  -120.5124 -74.6938 -74.6938 -74.6938 -14.8652  -9.5769  -9.3589  -9.2365
    -1.9023  -1.8828  -1.7876  -1.7274  -1.6520  -1.4992  -1.4585  -1.4377
    -0.2497   1.4430   1.9539   2.5022   2.5889   2.8810   2.9612   3.3068
     3.4575   8.5127  11.0793  12.0097  12.1300  12.2227

          k = 0.1000 0.4000 0.4000 ( 14753 PWs)   bands (ev):

  -120.5124 -74.6938 -74.6938 -74.6938 -14.8635  -9.5352  -9.3443  -9.2841
    -1.9127  -1.8725  -1.8057  -1.7499  -1.7275  -1.5013  -1.4650  -1.4468
    -0.3252   1.5080   1.9053   2.5796   2.6126   2.8614   2.9819   3.3692
     3.5825   8.7359  11.2049  11.4395  11.8860  12.3486

          k = 0.1000 0.4000-0.5000 ( 14746 PWs)   bands (ev):

  -120.5124 -74.6938 -74.6938 -74.6938 -14.8623  -9.4914  -9.3630  -9.3046
    -1.9013  -1.8895  -1.8349  -1.7719  -1.7371  -1.5007  -1.4650  -1.4551
    -0.3545   1.5422   1.8764   2.5876   2.5970   2.9284   2.9677   3.4316
     3.5932   9.0838  10.8667  11.3026  11.9096  12.3882

          k = 0.1000-0.5000-0.5000 ( 14768 PWs)   bands (ev):

  -120.5124 -74.6938 -74.6938 -74.6938 -14.8612  -9.4247  -9.3646  -9.3646
    -1.8896  -1.8896  -1.8716  -1.8104  -1.7456  -1.4931  -1.4675  -1.4675
    -0.3854   1.5834   1.8495   2.5824   2.5824   2.9756   2.9756   3.4874
     3.6420   9.4931  10.7902  10.7902  11.8430  12.4913

          k = 0.2000 0.2000 0.2000 ( 14750 PWs)   bands (ev):

  -120.5124 -74.6938 -74.6938 -74.6938 -14.8747  -9.7532  -9.2182  -9.2182
    -1.8970  -1.8970  -1.6976  -1.5511  -1.5511  -1.4557  -1.4382  -1.4382
    -0.1191   1.6757   1.6757   2.3085   2.6523   2.6523   3.1839   3.4036
     3.4036   6.8163  11.0697  11.0697  11.2452  12.2106

          k = 0.2000 0.2000 0.3000 ( 14728 PWs)   bands (ev):

  -120.5124 -74.6938 -74.6938 -74.6937 -14.8707  -9.6955  -9.2708  -9.2141
    -1.9109  -1.9081  -1.6924  -1.6633  -1.5628  -1.4759  -1.4437  -1.4281
    -0.3092   1.7092   2.0432   2.1716   2.5638   2.6717   3.2307   3.3557
     3.4088   7.3436  11.3156  11.3547  11.4865  12.2437

          k = 0.2000 0.2000 0.4000 ( 14727 PWs)   bands (ev):

  -120.5124 -74.6938 -74.6938 -74.6938 -14.8673  -9.6353  -9.3270  -9.2107
    -1.9176  -1.9087  -1.7594  -1.7112  -1.5702  -1.4907  -1.4458  -1.4216
    -0.3991   1.7355   2.0881   2.2432   2.5145   2.8040   3.2437   3.2929
     3.3189   7.9605  11.3683  11.6811  11.7972  11.9674

          k = 0.2000 0.2000-0.5000 ( 14740 PWs)   bands (ev):

  -120.5124 -74.6938 -74.6938 -74.6938 -14.8661  -9.6054  -9.3552  -9.2095
    -1.9213  -1.9099  -1.7810  -1.7345  -1.5727  -1.4955  -1.4462  -1.4194
    -0.4240   1.7453   2.0617   2.2859   2.4996   2.9690   3.1507   3.2428
     3.3067   8.2914  11.0890  11.8645  12.0477  12.0940

          k = 0.2000 0.3000 0.3000 ( 14729 PWs)   bands (ev):

  -120.5124 -74.6938 -74.6938 -74.6938 -14.8670  -9.6367  -9.2858  -9.2423
    -1.9399  -1.9309  -1.7071  -1.7046  -1.6459  -1.4884  -1.4423  -1.4263
    -0.5414   1.9110   2.0964   2.3199   2.5400   2.6426   3.3047   3.3260
     3.4889   7.7753  11.4128  11.4689  11.5186  12.2074

          k = 0.2000 0.3000 0.4000 ( 14730 PWs)   bands (ev):

  -120.5124 -74.6938 -74.6938 -74.6937 -14.8640  -9.5736  -9.3292  -9.2493
    -1.9547  -1.9366  -1.7899  -1.7518  -1.6734  -1.4898  -1.4440  -1.4235
    -0.6562   1.9856   2.0550   2.4534   2.5073   2.8402   3.2625   3.3398
     3.4877   8.3276  11.1194  11.5421  11.6604  12.1332

          k = 0.2000 0.3000-0.5000 ( 14722 PWs)   bands (ev):

  -120.5124 -74.6938 -74.6938 -74.6937 -14.8628  -9.5404  -9.3570  -9.2497
    -1.9612  -1.9314  -1.8261  -1.7812  -1.6784  -1.4892  -1.4444  -1.4226
    -0.6890   2.0116   2.0413   2.4677   2.4905   3.0273   3.1888   3.3424
     3.4629   8.6523  10.7837  11.5998  11.7694  12.0572

          k = 0.2000 0.4000 0.4000 ( 14738 PWs)   bands (ev):

  -120.5124 -74.6938 -74.6938 -74.6937 -14.8612  -9.5049  -9.3391  -9.2910
    -1.9643  -1.9616  -1.8237  -1.8128  -1.7603  -1.4772  -1.4448  -1.4290
    -0.7853   2.0291   2.1178   2.5029   2.5256   3.0218   3.2270   3.4116
     3.5808   8.8353  10.8690  11.1078  11.5658  12.3955

          k = 0.2000 0.4000-0.5000 ( 14740 PWs)   bands (ev):

  -120.5124 -74.6938 -74.6938 -74.6937 -14.8602  -9.4639  -9.3585  -9.3060
    -1.9724  -1.9574  -1.8535  -1.8452  -1.7801  -1.4701  -1.4451  -1.4330
    -0.8224   2.0234   2.1647   2.5019   2.5222   3.1409   3.1942   3.4445
     3.5976   9.1770  10.5656  10.9664  11.5435  12.3763

          k = 0.2000-0.5000-0.5000 ( 14752 PWs)   bands (ev):

  -120.5124 -74.6938 -74.6938 -74.6937 -14.8592  -9.4030  -9.3591  -9.3591
    -1.9671  -1.9671  -1.8794  -1.8714  -1.8147  -1.4536  -1.4458  -1.4458
    -0.8607   2.0175   2.2298   2.5068   2.5068   3.1966   3.1966   3.4902
     3.6473   9.5957  10.4870  10.4870  11.4634  12.6470

          k = 0.3000 0.3000 0.3000 ( 14721 PWs)   bands (ev):

  -120.5124 -74.6938 -74.6938 -74.6937 -14.8636  -9.5810  -9.2804  -9.2804
    -1.9801  -1.9801  -1.7609  -1.7217  -1.7217  -1.4812  -1.4283  -1.4283
    -0.8324   2.1079   2.3704   2.3704   2.5818   2.5818   3.3990   3.4655
     3.4655   8.1221  11.2573  11.2573  11.4031  12.3070

          k = 0.3000 0.3000 0.4000 ( 14749 PWs)   bands (ev):

  -120.5124 -74.6938 -74.6938 -74.6938 -14.8610  -9.5205  -9.3266  -9.2759
    -2.0134  -1.9927  -1.8350  -1.8079  -1.7294  -1.4701  -1.4322  -1.4199
    -0.9829   2.1271   2.4221   2.4520   2.5360   2.9291   3.4244   3.4641
     3.4810   8.6047  10.7931  11.1352  11.4167  12.2044

          k = 0.3000 0.3000-0.5000 ( 14748 PWs)   bands (ev):

  -120.5124 -74.6938 -74.6938 -74.6938 -14.8599  -9.4867  -9.3548  -9.2743
    -2.0262  -1.9862  -1.8736  -1.8469  -1.7317  -1.4655  -1.4342  -1.4172
    -1.0261   2.1373   2.4524   2.4550   2.5106   3.1690   3.3672   3.4183
     3.4998   8.9176  10.4559  11.0960  11.4707  12.0530

          k = 0.3000 0.4000 0.4000 ( 14743 PWs)   bands (ev):

  -120.5124 -74.6938 -74.6938 -74.6938 -14.8585  -9.4618  -9.3326  -9.3049
    -2.0424  -2.0331  -1.9208  -1.8317  -1.7880  -1.4524  -1.4281  -1.4200
    -1.1565   2.1811   2.4463   2.4622   2.7479   3.1398   3.4484   3.4918
     3.5789   9.0171  10.5098  10.6905  11.2935  12.2534

          k = 0.3000 0.4000-0.5000 ( 14770 PWs)   bands (ev):

  -120.5124 -74.6938 -74.6938 -74.6938 -14.8576  -9.4255  -9.3530  -9.3117
    -2.0556  -2.0342  -1.9635  -1.8588  -1.8000  -1.4444  -1.4293  -1.4199
    -1.2060   2.2001   2.4560   2.4607   2.7901   3.3194   3.4171   3.4894
     3.6040   9.3266  10.2177  10.5579  11.2707  12.1490

          k = 0.3000-0.5000-0.5000 ( 14776 PWs)   bands (ev):

  -120.5124 -74.6938 -74.6938 -74.6938 -14.8567  -9.3757  -9.3523  -9.3523
    -2.0520  -2.0520  -2.0110  -1.8710  -1.8266  -1.4302  -1.4280  -1.4280
    -1.2568   2.2196   2.4643   2.4643   2.8620   3.4235   3.4235   3.4936
     3.6538   9.7115  10.1316  10.1316  11.1995  12.2390

          k = 0.4000 0.4000 0.4000 ( 14769 PWs)   bands (ev):

  -120.5124 -74.6938 -74.6938 -74.6938 -14.8563  -9.4153  -9.3274  -9.3274
    -2.0874  -2.0874  -2.0143  -1.8345  -1.8345  -1.4353  -1.4186  -1.4186
    -1.3684   2.2969   2.4453   2.4453   3.1972   3.1972   3.5718   3.5718
     3.5862   9.2918  10.2521  10.2521  11.1822  12.1030

          k = 0.4000 0.4000-0.5000 ( 14766 PWs)   bands (ev):

  -120.5124 -74.6938 -74.6938 -74.6938 -14.8554  -9.3850  -9.3484  -9.3254
    -2.1076  -2.0933  -2.0584  -1.8624  -1.8352  -1.4300  -1.4275  -1.4207
    -1.4156   2.3362   2.4411   2.4492   3.2130   3.4085   3.5710   3.5749
     3.6208   9.5309   9.9546  10.1594  11.1816  11.9898

          k = 0.4000-0.5000-0.5000 ( 14768 PWs)   bands (ev):

  -120.5124 -74.6938 -74.6938 -74.6938 -14.8546  -9.3533  -9.3467  -9.3467
    -2.1150  -2.1150  -2.1045  -1.8707  -1.8518  -1.4957  -1.4185  -1.4181
    -1.4181   2.3800   2.4456   2.4456   3.3253   3.4964   3.5961   3.5961
     3.6592   9.7592   9.8576   9.8576  11.1949  11.9307

          k =-0.5000-0.5000-0.5000 ( 14832 PWs)   bands (ev):

  -120.5124 -74.6939 -74.6939 -74.6939 -14.8538  -9.3446  -9.3446  -9.3446
    -2.1380  -2.1380  -2.1380  -1.8706  -1.8706  -1.5677  -1.4150  -1.4150
    -1.4150   2.4407   2.4407   2.4407   3.4974   3.4974   3.6612   3.6612
     3.6612   9.7554   9.7554   9.7554  11.2998  11.8226

     the Fermi energy is     4.3943 ev

!    total energy              =    -842.54468430 Ry
     estimated scf accuracy    <          7.2E-13 Ry
     smearing contrib. (-TS)   =      -0.00000000 Ry
     internal energy E=F+TS    =    -842.54468430 Ry

     The total energy is F=E-TS. E is the sum of the following terms:
     one-electron contribution =    -526.23043622 Ry
     hartree contribution      =     282.62210510 Ry
     xc contribution           =     -95.73854208 Ry
     ewald contribution        =    -266.03970048 Ry
     one-center paw contrib.   =    -237.15811062 Ry

     convergence has been achieved in  15 iterations

     Writing all to output data dir ./tmp/CsZnCl3.save/ :
     XML data file, charge density, pseudopotentials, collected wavefunctions

     init_run     :     10.02s CPU      9.24s WALL (       1 calls)
     electrons    :    458.50s CPU    368.22s WALL (       1 calls)

     Called by init_run:
     wfcinit      :      6.00s CPU      4.84s WALL (       1 calls)
     potinit      :      0.91s CPU      1.00s WALL (       1 calls)
     hinit0       :      1.56s CPU      1.60s WALL (       1 calls)

     Called by electrons:
     c_bands      :    337.17s CPU    257.49s WALL (      16 calls)
     sum_band     :     92.71s CPU     77.71s WALL (      16 calls)
     v_of_rho     :      6.11s CPU      6.74s WALL (      16 calls)
     newd         :     20.21s CPU     24.27s WALL (      16 calls)
     PAW_pot      :      2.78s CPU      2.78s WALL (      16 calls)
     mix_rho      :      0.47s CPU      0.49s WALL (      16 calls)

     Called by c_bands:
     init_us_2    :     12.26s CPU      8.89s WALL (     462 calls)
     cegterg      :    283.81s CPU    214.32s WALL (     224 calls)

     Called by *egterg:
     cdiaghg      :      5.53s CPU      3.94s WALL (    1285 calls)
     h_psi        :    220.46s CPU    179.36s WALL (    1313 calls)
     s_psi        :     15.48s CPU      8.35s WALL (    1313 calls)
     g_psi        :      1.59s CPU      1.14s WALL (    1075 calls)

     Called by h_psi:
     h_psi:calbec :     16.71s CPU      9.32s WALL (    1313 calls)
     vloc_psi     :    186.35s CPU    160.41s WALL (    1313 calls)
     add_vuspsi   :     16.18s CPU      8.69s WALL (    1313 calls)

     General routines
     calbec       :     21.93s CPU     12.18s WALL (    1537 calls)
     fft          :      3.71s CPU      4.06s WALL (     207 calls)
     ffts         :      0.43s CPU      0.41s WALL (      32 calls)
     fftw         :    163.47s CPU    139.33s WALL (   45830 calls)
     interpolate  :      0.71s CPU      0.74s WALL (      16 calls)

     Parallel routines

     PWSCF        :   7m49.30s CPU   6m18.40s WALL


   This run was terminated on:   9:49:12  16May2025            

=------------------------------------------------------------------------------=
   JOB DONE.
=------------------------------------------------------------------------------=
