
     Program PWSCF v.7.3.1 starts on 30Apr2025 at  7:39:45 

     This program is part of the open-source Quantum ESPRESSO suite
     for quantum simulation of materials; please cite
         "P. Giannozzi et al., J. Phys.:Condens. Matter 21 395502 (2009);
         "P. Giannozzi et al., J. Phys.:Condens. Matter 29 465901 (2017);
         "P. Giannozzi et al., J. Chem. Phys. 152 154105 (2020);
          URL http://www.quantum-espresso.org", 
     in publications or presentations arising from this work. More details at
     http://www.quantum-espresso.org/quote

     Parallel version (MPI), running on     8 processors

     MPI processes distributed on     1 nodes
     48534 MiB available memory on the printing compute node when the environment starts

     Waiting for input...
     Reading input from standard input

     Current dimensions of program PWSCF are:
     Max number of different atomic species (ntypx) = 10
     Max number of k-points (npk) = 120000
     Max angular momentum in pseudopotentials (lmaxx) =  4
     file K.pbe-spn-rrkjus_psl.1.0.0.UPF: wavefunction(s)  3S renormalized
     file Nb.pbe-spn-kjpaw_psl.1.0.0.UPF: wavefunction(s)  4S 4P 4D renormalized
     file S.pbe-n-kjpaw_psl.1.0.0.UPF: wavefunction(s)  3S 3P renormalized

     IMPORTANT: XC functional enforced from input :
     Exchange-correlation= PBE
                           (   1   4   3   4   0   0   0)
     Any further DFT definition will be discarded
     Please, verify this is what you really want

     Message from routine setup:
     using ibrav=0 with symmetry is DISCOURAGED, use correct ibrav instead

     K-points division:     npool     =       4
     R & G space division:  proc/nbgrp/npool/nimage =       2
     Subspace diagonalization in iterative solution of the eigenvalue problem:
     a serial algorithm will be used


     Parallelization info
     --------------------
     sticks:   dense  smooth     PW     G-vecs:    dense   smooth      PW
     Min        2030    1014    296                97994    34618    5317
     Max        2031    1015    297                97995    34621    5318
     Sum        4061    2029    593               195989    69239   10635

     Using Slab Decomposition



     bravais-lattice index     =            0
     lattice parameter (alat)  =       8.9528  a.u.
     unit-cell volume          =     717.5894 (a.u.)^3
     number of atoms/cell      =            5
     number of atomic types    =            3
     number of electrons       =        40.00
     number of Kohn-Sham states=           24
     kinetic-energy cutoff     =      80.0000  Ry
     charge density cutoff     =     640.0000  Ry
     scf convergence threshold =      1.0E-08
     mixing beta               =       0.4000
     number of iterations used =            8  plain     mixing
     energy convergence thresh.=      1.0E-04
     force convergence thresh. =      1.0E-03
     press convergence thresh. =      5.0E-01
     Exchange-correlation= PBE
                           (   1   4   3   4   0   0   0)
     nstep                     =           50


     celldm(1)=   8.952796  celldm(2)=   0.000000  celldm(3)=   0.000000
     celldm(4)=   0.000000  celldm(5)=   0.000000  celldm(6)=   0.000000

     crystal axes: (cart. coord. in units of alat)
               a(1) = (   1.000000   0.000000   0.000000 )  
               a(2) = (   0.000000   1.000000   0.000000 )  
               a(3) = (   0.000000   0.000000   1.000000 )  

     reciprocal axes: (cart. coord. in units 2 pi/alat)
               b(1) = (  1.000000  0.000000  0.000000 )  
               b(2) = (  0.000000  1.000000  0.000000 )  
               b(3) = (  0.000000  0.000000  1.000000 )  


     PseudoPot. # 1 for K  read from file:
     /home/administrator/Downloads/BURAI/BURAI1.3/pseudopot/K.pbe-spn-rrkjus_psl.1.0.0.UPF
     MD5 check sum: 716c94968b5730b158b89360ae401048
     Pseudo is Ultrasoft + core correction, Zval =  9.0
     Generated using "atomic" code by A. Dal Corso  v.5.1.2
     Using radial grid of 1165 points,  6 beta functions with: 
                l(1) =   0
                l(2) =   0
                l(3) =   1
                l(4) =   1
                l(5) =   2
                l(6) =   2
     Q(r) pseudized with 0 coefficients 


     PseudoPot. # 2 for Nb read from file:
     /home/administrator/Downloads/BURAI/BURAI1.3/pseudopot/Nb.pbe-spn-kjpaw_psl.1.0.0.UPF
     MD5 check sum: b00631c500922d21a0ac96a4ccc82b41
     Pseudo is Projector augmented-wave + core cor, Zval = 13.0
     Generated using "atomic" code by A. Dal Corso  v.5.1.2
     Shape of augmentation charge: PSQ
     Using radial grid of 1227 points,  6 beta functions with: 
                l(1) =   0
                l(2) =   0
                l(3) =   1
                l(4) =   1
                l(5) =   2
                l(6) =   2
     Q(r) pseudized with 0 coefficients 


     PseudoPot. # 3 for S  read from file:
     /home/administrator/Downloads/BURAI/BURAI1.3/pseudopot/S.pbe-n-kjpaw_psl.1.0.0.UPF
     MD5 check sum: cb96b46a5ee63c4f5db34501b74ad364
     Pseudo is Projector augmented-wave + core cor, Zval =  6.0
     Generated using "atomic" code by A. Dal Corso  v.5.1.2
     Shape of augmentation charge: PSQ
     Using radial grid of 1151 points,  6 beta functions with: 
                l(1) =   0
                l(2) =   0
                l(3) =   1
                l(4) =   1
                l(5) =   2
                l(6) =   2
     Q(r) pseudized with 0 coefficients 


     atomic species   valence    mass     pseudopotential
     K                 9.00    39.09830     K ( 1.00)
     Nb               13.00    92.90640     Nb( 1.00)
     S                 6.00    32.06000     S ( 1.00)

     48 Sym. Ops., with inversion, found


                                    s                        frac. trans.

      isym =  1     identity                                     

 cryst.   s( 1) = (     1          0          0      )
                  (     0          1          0      )
                  (     0          0          1      )

 cart.    s( 1) = (  1.0000000  0.0000000  0.0000000 )
                  (  0.0000000  1.0000000  0.0000000 )
                  (  0.0000000  0.0000000  1.0000000 )


      isym =  2     180 deg rotation - cart. axis [0,0,1]        

 cryst.   s( 2) = (    -1          0          0      )
                  (     0         -1          0      )
                  (     0          0          1      )

 cart.    s( 2) = ( -1.0000000  0.0000000  0.0000000 )
                  (  0.0000000 -1.0000000  0.0000000 )
                  (  0.0000000  0.0000000  1.0000000 )


      isym =  3     180 deg rotation - cart. axis [0,1,0]        

 cryst.   s( 3) = (    -1          0          0      )
                  (     0          1          0      )
                  (     0          0         -1      )

 cart.    s( 3) = ( -1.0000000  0.0000000  0.0000000 )
                  (  0.0000000  1.0000000  0.0000000 )
                  (  0.0000000  0.0000000 -1.0000000 )


      isym =  4     180 deg rotation - cart. axis [1,0,0]        

 cryst.   s( 4) = (     1          0          0      )
                  (     0         -1          0      )
                  (     0          0         -1      )

 cart.    s( 4) = (  1.0000000  0.0000000  0.0000000 )
                  (  0.0000000 -1.0000000  0.0000000 )
                  (  0.0000000  0.0000000 -1.0000000 )


      isym =  5     180 deg rotation - cart. axis [1,1,0]        

 cryst.   s( 5) = (     0          1          0      )
                  (     1          0          0      )
                  (     0          0         -1      )

 cart.    s( 5) = (  0.0000000  1.0000000  0.0000000 )
                  (  1.0000000  0.0000000  0.0000000 )
                  (  0.0000000  0.0000000 -1.0000000 )


      isym =  6     180 deg rotation - cart. axis [1,-1,0]       

 cryst.   s( 6) = (     0         -1          0      )
                  (    -1          0          0      )
                  (     0          0         -1      )

 cart.    s( 6) = (  0.0000000 -1.0000000  0.0000000 )
                  ( -1.0000000  0.0000000  0.0000000 )
                  (  0.0000000  0.0000000 -1.0000000 )


      isym =  7      90 deg rotation - cart. axis [0,0,-1]       

 cryst.   s( 7) = (     0         -1          0      )
                  (     1          0          0      )
                  (     0          0          1      )

 cart.    s( 7) = (  0.0000000  1.0000000  0.0000000 )
                  ( -1.0000000  0.0000000  0.0000000 )
                  (  0.0000000  0.0000000  1.0000000 )


      isym =  8      90 deg rotation - cart. axis [0,0,1]        

 cryst.   s( 8) = (     0          1          0      )
                  (    -1          0          0      )
                  (     0          0          1      )

 cart.    s( 8) = (  0.0000000 -1.0000000  0.0000000 )
                  (  1.0000000  0.0000000  0.0000000 )
                  (  0.0000000  0.0000000  1.0000000 )


      isym =  9     180 deg rotation - cart. axis [1,0,1]        

 cryst.   s( 9) = (     0          0          1      )
                  (     0         -1          0      )
                  (     1          0          0      )

 cart.    s( 9) = (  0.0000000  0.0000000  1.0000000 )
                  (  0.0000000 -1.0000000  0.0000000 )
                  (  1.0000000  0.0000000  0.0000000 )


      isym = 10     180 deg rotation - cart. axis [-1,0,1]       

 cryst.   s(10) = (     0          0         -1      )
                  (     0         -1          0      )
                  (    -1          0          0      )

 cart.    s(10) = (  0.0000000  0.0000000 -1.0000000 )
                  (  0.0000000 -1.0000000  0.0000000 )
                  ( -1.0000000  0.0000000  0.0000000 )


      isym = 11      90 deg rotation - cart. axis [0,1,0]        

 cryst.   s(11) = (     0          0         -1      )
                  (     0          1          0      )
                  (     1          0          0      )

 cart.    s(11) = (  0.0000000  0.0000000  1.0000000 )
                  (  0.0000000  1.0000000  0.0000000 )
                  ( -1.0000000  0.0000000  0.0000000 )


      isym = 12      90 deg rotation - cart. axis [0,-1,0]       

 cryst.   s(12) = (     0          0          1      )
                  (     0          1          0      )
                  (    -1          0          0      )

 cart.    s(12) = (  0.0000000  0.0000000 -1.0000000 )
                  (  0.0000000  1.0000000  0.0000000 )
                  (  1.0000000  0.0000000  0.0000000 )


      isym = 13     180 deg rotation - cart. axis [0,1,1]        

 cryst.   s(13) = (    -1          0          0      )
                  (     0          0          1      )
                  (     0          1          0      )

 cart.    s(13) = ( -1.0000000  0.0000000  0.0000000 )
                  (  0.0000000  0.0000000  1.0000000 )
                  (  0.0000000  1.0000000  0.0000000 )


      isym = 14     180 deg rotation - cart. axis [0,1,-1]       

 cryst.   s(14) = (    -1          0          0      )
                  (     0          0         -1      )
                  (     0         -1          0      )

 cart.    s(14) = ( -1.0000000  0.0000000  0.0000000 )
                  (  0.0000000  0.0000000 -1.0000000 )
                  (  0.0000000 -1.0000000  0.0000000 )


      isym = 15      90 deg rotation - cart. axis [-1,0,0]       

 cryst.   s(15) = (     1          0          0      )
                  (     0          0         -1      )
                  (     0          1          0      )

 cart.    s(15) = (  1.0000000  0.0000000  0.0000000 )
                  (  0.0000000  0.0000000  1.0000000 )
                  (  0.0000000 -1.0000000  0.0000000 )


      isym = 16      90 deg rotation - cart. axis [1,0,0]        

 cryst.   s(16) = (     1          0          0      )
                  (     0          0          1      )
                  (     0         -1          0      )

 cart.    s(16) = (  1.0000000  0.0000000  0.0000000 )
                  (  0.0000000  0.0000000 -1.0000000 )
                  (  0.0000000  1.0000000  0.0000000 )


      isym = 17     120 deg rotation - cart. axis [-1,-1,-1]     

 cryst.   s(17) = (     0          0          1      )
                  (     1          0          0      )
                  (     0          1          0      )

 cart.    s(17) = (  0.0000000  1.0000000  0.0000000 )
                  (  0.0000000  0.0000000  1.0000000 )
                  (  1.0000000  0.0000000  0.0000000 )


      isym = 18     120 deg rotation - cart. axis [-1,1,1]       

 cryst.   s(18) = (     0          0         -1      )
                  (    -1          0          0      )
                  (     0          1          0      )

 cart.    s(18) = (  0.0000000 -1.0000000  0.0000000 )
                  (  0.0000000  0.0000000  1.0000000 )
                  ( -1.0000000  0.0000000  0.0000000 )


      isym = 19     120 deg rotation - cart. axis [1,1,-1]       

 cryst.   s(19) = (     0          0         -1      )
                  (     1          0          0      )
                  (     0         -1          0      )

 cart.    s(19) = (  0.0000000  1.0000000  0.0000000 )
                  (  0.0000000  0.0000000 -1.0000000 )
                  ( -1.0000000  0.0000000  0.0000000 )


      isym = 20     120 deg rotation - cart. axis [1,-1,1]       

 cryst.   s(20) = (     0          0          1      )
                  (    -1          0          0      )
                  (     0         -1          0      )

 cart.    s(20) = (  0.0000000 -1.0000000  0.0000000 )
                  (  0.0000000  0.0000000 -1.0000000 )
                  (  1.0000000  0.0000000  0.0000000 )


      isym = 21     120 deg rotation - cart. axis [1,1,1]        

 cryst.   s(21) = (     0          1          0      )
                  (     0          0          1      )
                  (     1          0          0      )

 cart.    s(21) = (  0.0000000  0.0000000  1.0000000 )
                  (  1.0000000  0.0000000  0.0000000 )
                  (  0.0000000  1.0000000  0.0000000 )


      isym = 22     120 deg rotation - cart. axis [-1,1,-1]      

 cryst.   s(22) = (     0         -1          0      )
                  (     0          0         -1      )
                  (     1          0          0      )

 cart.    s(22) = (  0.0000000  0.0000000  1.0000000 )
                  ( -1.0000000  0.0000000  0.0000000 )
                  (  0.0000000 -1.0000000  0.0000000 )


      isym = 23     120 deg rotation - cart. axis [1,-1,-1]      

 cryst.   s(23) = (     0         -1          0      )
                  (     0          0          1      )
                  (    -1          0          0      )

 cart.    s(23) = (  0.0000000  0.0000000 -1.0000000 )
                  ( -1.0000000  0.0000000  0.0000000 )
                  (  0.0000000  1.0000000  0.0000000 )


      isym = 24     120 deg rotation - cart. axis [-1,-1,1]      

 cryst.   s(24) = (     0          1          0      )
                  (     0          0         -1      )
                  (    -1          0          0      )

 cart.    s(24) = (  0.0000000  0.0000000 -1.0000000 )
                  (  1.0000000  0.0000000  0.0000000 )
                  (  0.0000000 -1.0000000  0.0000000 )


      isym = 25     inversion                                    

 cryst.   s(25) = (    -1          0          0      )
                  (     0         -1          0      )
                  (     0          0         -1      )

 cart.    s(25) = ( -1.0000000  0.0000000  0.0000000 )
                  (  0.0000000 -1.0000000  0.0000000 )
                  (  0.0000000  0.0000000 -1.0000000 )


      isym = 26     inv. 180 deg rotation - cart. axis [0,0,1]   

 cryst.   s(26) = (     1          0          0      )
                  (     0          1          0      )
                  (     0          0         -1      )

 cart.    s(26) = (  1.0000000  0.0000000  0.0000000 )
                  (  0.0000000  1.0000000  0.0000000 )
                  (  0.0000000  0.0000000 -1.0000000 )


      isym = 27     inv. 180 deg rotation - cart. axis [0,1,0]   

 cryst.   s(27) = (     1          0          0      )
                  (     0         -1          0      )
                  (     0          0          1      )

 cart.    s(27) = (  1.0000000  0.0000000  0.0000000 )
                  (  0.0000000 -1.0000000  0.0000000 )
                  (  0.0000000  0.0000000  1.0000000 )


      isym = 28     inv. 180 deg rotation - cart. axis [1,0,0]   

 cryst.   s(28) = (    -1          0          0      )
                  (     0          1          0      )
                  (     0          0          1      )

 cart.    s(28) = ( -1.0000000  0.0000000  0.0000000 )
                  (  0.0000000  1.0000000  0.0000000 )
                  (  0.0000000  0.0000000  1.0000000 )


      isym = 29     inv. 180 deg rotation - cart. axis [1,1,0]   

 cryst.   s(29) = (     0         -1          0      )
                  (    -1          0          0      )
                  (     0          0          1      )

 cart.    s(29) = (  0.0000000 -1.0000000  0.0000000 )
                  ( -1.0000000  0.0000000  0.0000000 )
                  (  0.0000000  0.0000000  1.0000000 )


      isym = 30     inv. 180 deg rotation - cart. axis [1,-1,0]  

 cryst.   s(30) = (     0          1          0      )
                  (     1          0          0      )
                  (     0          0          1      )

 cart.    s(30) = (  0.0000000  1.0000000  0.0000000 )
                  (  1.0000000  0.0000000  0.0000000 )
                  (  0.0000000  0.0000000  1.0000000 )


      isym = 31     inv.  90 deg rotation - cart. axis [0,0,-1]  

 cryst.   s(31) = (     0          1          0      )
                  (    -1          0          0      )
                  (     0          0         -1      )

 cart.    s(31) = (  0.0000000 -1.0000000  0.0000000 )
                  (  1.0000000  0.0000000  0.0000000 )
                  (  0.0000000  0.0000000 -1.0000000 )


      isym = 32     inv.  90 deg rotation - cart. axis [0,0,1]   

 cryst.   s(32) = (     0         -1          0      )
                  (     1          0          0      )
                  (     0          0         -1      )

 cart.    s(32) = (  0.0000000  1.0000000  0.0000000 )
                  ( -1.0000000  0.0000000  0.0000000 )
                  (  0.0000000  0.0000000 -1.0000000 )


      isym = 33     inv. 180 deg rotation - cart. axis [1,0,1]   

 cryst.   s(33) = (     0          0         -1      )
                  (     0          1          0      )
                  (    -1          0          0      )

 cart.    s(33) = (  0.0000000  0.0000000 -1.0000000 )
                  (  0.0000000  1.0000000  0.0000000 )
                  ( -1.0000000  0.0000000  0.0000000 )


      isym = 34     inv. 180 deg rotation - cart. axis [-1,0,1]  

 cryst.   s(34) = (     0          0          1      )
                  (     0          1          0      )
                  (     1          0          0      )

 cart.    s(34) = (  0.0000000  0.0000000  1.0000000 )
                  (  0.0000000  1.0000000  0.0000000 )
                  (  1.0000000  0.0000000  0.0000000 )


      isym = 35     inv.  90 deg rotation - cart. axis [0,1,0]   

 cryst.   s(35) = (     0          0          1      )
                  (     0         -1          0      )
                  (    -1          0          0      )

 cart.    s(35) = (  0.0000000  0.0000000 -1.0000000 )
                  (  0.0000000 -1.0000000  0.0000000 )
                  (  1.0000000  0.0000000  0.0000000 )


      isym = 36     inv.  90 deg rotation - cart. axis [0,-1,0]  

 cryst.   s(36) = (     0          0         -1      )
                  (     0         -1          0      )
                  (     1          0          0      )

 cart.    s(36) = (  0.0000000  0.0000000  1.0000000 )
                  (  0.0000000 -1.0000000  0.0000000 )
                  ( -1.0000000  0.0000000  0.0000000 )


      isym = 37     inv. 180 deg rotation - cart. axis [0,1,1]   

 cryst.   s(37) = (     1          0          0      )
                  (     0          0         -1      )
                  (     0         -1          0      )

 cart.    s(37) = (  1.0000000  0.0000000  0.0000000 )
                  (  0.0000000  0.0000000 -1.0000000 )
                  (  0.0000000 -1.0000000  0.0000000 )


      isym = 38     inv. 180 deg rotation - cart. axis [0,1,-1]  

 cryst.   s(38) = (     1          0          0      )
                  (     0          0          1      )
                  (     0          1          0      )

 cart.    s(38) = (  1.0000000  0.0000000  0.0000000 )
                  (  0.0000000  0.0000000  1.0000000 )
                  (  0.0000000  1.0000000  0.0000000 )


      isym = 39     inv.  90 deg rotation - cart. axis [-1,0,0]  

 cryst.   s(39) = (    -1          0          0      )
                  (     0          0          1      )
                  (     0         -1          0      )

 cart.    s(39) = ( -1.0000000  0.0000000  0.0000000 )
                  (  0.0000000  0.0000000 -1.0000000 )
                  (  0.0000000  1.0000000  0.0000000 )


      isym = 40     inv.  90 deg rotation - cart. axis [1,0,0]   

 cryst.   s(40) = (    -1          0          0      )
                  (     0          0         -1      )
                  (     0          1          0      )

 cart.    s(40) = ( -1.0000000  0.0000000  0.0000000 )
                  (  0.0000000  0.0000000  1.0000000 )
                  (  0.0000000 -1.0000000  0.0000000 )


      isym = 41     inv. 120 deg rotation - cart. axis [-1,-1,-1]

 cryst.   s(41) = (     0          0         -1      )
                  (    -1          0          0      )
                  (     0         -1          0      )

 cart.    s(41) = (  0.0000000 -1.0000000  0.0000000 )
                  (  0.0000000  0.0000000 -1.0000000 )
                  ( -1.0000000  0.0000000  0.0000000 )


      isym = 42     inv. 120 deg rotation - cart. axis [-1,1,1]  

 cryst.   s(42) = (     0          0          1      )
                  (     1          0          0      )
                  (     0         -1          0      )

 cart.    s(42) = (  0.0000000  1.0000000  0.0000000 )
                  (  0.0000000  0.0000000 -1.0000000 )
                  (  1.0000000  0.0000000  0.0000000 )


      isym = 43     inv. 120 deg rotation - cart. axis [1,1,-1]  

 cryst.   s(43) = (     0          0          1      )
                  (    -1          0          0      )
                  (     0          1          0      )

 cart.    s(43) = (  0.0000000 -1.0000000  0.0000000 )
                  (  0.0000000  0.0000000  1.0000000 )
                  (  1.0000000  0.0000000  0.0000000 )


      isym = 44     inv. 120 deg rotation - cart. axis [1,-1,1]  

 cryst.   s(44) = (     0          0         -1      )
                  (     1          0          0      )
                  (     0          1          0      )

 cart.    s(44) = (  0.0000000  1.0000000  0.0000000 )
                  (  0.0000000  0.0000000  1.0000000 )
                  ( -1.0000000  0.0000000  0.0000000 )


      isym = 45     inv. 120 deg rotation - cart. axis [1,1,1]   

 cryst.   s(45) = (     0         -1          0      )
                  (     0          0         -1      )
                  (    -1          0          0      )

 cart.    s(45) = (  0.0000000  0.0000000 -1.0000000 )
                  ( -1.0000000  0.0000000  0.0000000 )
                  (  0.0000000 -1.0000000  0.0000000 )


      isym = 46     inv. 120 deg rotation - cart. axis [-1,1,-1] 

 cryst.   s(46) = (     0          1          0      )
                  (     0          0          1      )
                  (    -1          0          0      )

 cart.    s(46) = (  0.0000000  0.0000000 -1.0000000 )
                  (  1.0000000  0.0000000  0.0000000 )
                  (  0.0000000  1.0000000  0.0000000 )


      isym = 47     inv. 120 deg rotation - cart. axis [1,-1,-1] 

 cryst.   s(47) = (     0          1          0      )
                  (     0          0         -1      )
                  (     1          0          0      )

 cart.    s(47) = (  0.0000000  0.0000000  1.0000000 )
                  (  1.0000000  0.0000000  0.0000000 )
                  (  0.0000000 -1.0000000  0.0000000 )


      isym = 48     inv. 120 deg rotation - cart. axis [-1,-1,1] 

 cryst.   s(48) = (     0         -1          0      )
                  (     0          0          1      )
                  (     1          0          0      )

 cart.    s(48) = (  0.0000000  0.0000000  1.0000000 )
                  ( -1.0000000  0.0000000  0.0000000 )
                  (  0.0000000  1.0000000  0.0000000 )


   Cartesian axes

     site n.     atom                  positions (alat units)
         1        K      tau(   1) = (   0.0000000   0.0000000   0.0000000  )
         2        Nb     tau(   2) = (   0.5000000   0.5000000   0.5000000  )
         3        S      tau(   3) = (   0.5000000   0.0000000   0.0000000  )
         4        S      tau(   4) = (   0.0000000   0.5000000   0.0000000  )
         5        S      tau(   5) = (   0.0000000   0.0000000   0.5000000  )

   Crystallographic axes

     site n.     atom                  positions (cryst. coord.)
         1        K      tau(   1) = (  0.0000000  0.0000000  0.0000000  )
         2        Nb     tau(   2) = (  0.5000000  0.5000000  0.5000000  )
         3        S      tau(   3) = (  0.5000000  0.0000000  0.0000000  )
         4        S      tau(   4) = (  0.0000000  0.5000000  0.0000000  )
         5        S      tau(   5) = (  0.0000000  0.0000000  0.5000000  )

     number of k points=    35  Gaussian smearing, width (Ry)=  0.0050
                       cart. coord. in units 2pi/alat
        k(    1) = (   0.0000000   0.0000000   0.0000000), wk =   0.0039062
        k(    2) = (   0.0000000   0.0000000   0.1250000), wk =   0.0234375
        k(    3) = (   0.0000000   0.0000000   0.2500000), wk =   0.0234375
        k(    4) = (   0.0000000   0.0000000   0.3750000), wk =   0.0234375
        k(    5) = (   0.0000000   0.0000000  -0.5000000), wk =   0.0117188
        k(    6) = (   0.0000000   0.1250000   0.1250000), wk =   0.0468750
        k(    7) = (   0.0000000   0.1250000   0.2500000), wk =   0.0937500
        k(    8) = (   0.0000000   0.1250000   0.3750000), wk =   0.0937500
        k(    9) = (   0.0000000   0.1250000  -0.5000000), wk =   0.0468750
        k(   10) = (   0.0000000   0.2500000   0.2500000), wk =   0.0468750
        k(   11) = (   0.0000000   0.2500000   0.3750000), wk =   0.0937500
        k(   12) = (   0.0000000   0.2500000  -0.5000000), wk =   0.0468750
        k(   13) = (   0.0000000   0.3750000   0.3750000), wk =   0.0468750
        k(   14) = (   0.0000000   0.3750000  -0.5000000), wk =   0.0468750
        k(   15) = (   0.0000000  -0.5000000  -0.5000000), wk =   0.0117188
        k(   16) = (   0.1250000   0.1250000   0.1250000), wk =   0.0312500
        k(   17) = (   0.1250000   0.1250000   0.2500000), wk =   0.0937500
        k(   18) = (   0.1250000   0.1250000   0.3750000), wk =   0.0937500
        k(   19) = (   0.1250000   0.1250000  -0.5000000), wk =   0.0468750
        k(   20) = (   0.1250000   0.2500000   0.2500000), wk =   0.0937500
        k(   21) = (   0.1250000   0.2500000   0.3750000), wk =   0.1875000
        k(   22) = (   0.1250000   0.2500000  -0.5000000), wk =   0.0937500
        k(   23) = (   0.1250000   0.3750000   0.3750000), wk =   0.0937500
        k(   24) = (   0.1250000   0.3750000  -0.5000000), wk =   0.0937500
        k(   25) = (   0.1250000  -0.5000000  -0.5000000), wk =   0.0234375
        k(   26) = (   0.2500000   0.2500000   0.2500000), wk =   0.0312500
        k(   27) = (   0.2500000   0.2500000   0.3750000), wk =   0.0937500
        k(   28) = (   0.2500000   0.2500000  -0.5000000), wk =   0.0468750
        k(   29) = (   0.2500000   0.3750000   0.3750000), wk =   0.0937500
        k(   30) = (   0.2500000   0.3750000  -0.5000000), wk =   0.0937500
        k(   31) = (   0.2500000  -0.5000000  -0.5000000), wk =   0.0234375
        k(   32) = (   0.3750000   0.3750000   0.3750000), wk =   0.0312500
        k(   33) = (   0.3750000   0.3750000  -0.5000000), wk =   0.0468750
        k(   34) = (   0.3750000  -0.5000000  -0.5000000), wk =   0.0234375
        k(   35) = (  -0.5000000  -0.5000000  -0.5000000), wk =   0.0039062

                       cryst. coord.
        k(    1) = (   0.0000000   0.0000000   0.0000000), wk =   0.0039062
        k(    2) = (   0.0000000   0.0000000   0.1250000), wk =   0.0234375
        k(    3) = (   0.0000000   0.0000000   0.2500000), wk =   0.0234375
        k(    4) = (   0.0000000   0.0000000   0.3750000), wk =   0.0234375
        k(    5) = (   0.0000000   0.0000000  -0.5000000), wk =   0.0117188
        k(    6) = (   0.0000000   0.1250000   0.1250000), wk =   0.0468750
        k(    7) = (   0.0000000   0.1250000   0.2500000), wk =   0.0937500
        k(    8) = (   0.0000000   0.1250000   0.3750000), wk =   0.0937500
        k(    9) = (   0.0000000   0.1250000  -0.5000000), wk =   0.0468750
        k(   10) = (   0.0000000   0.2500000   0.2500000), wk =   0.0468750
        k(   11) = (   0.0000000   0.2500000   0.3750000), wk =   0.0937500
        k(   12) = (   0.0000000   0.2500000  -0.5000000), wk =   0.0468750
        k(   13) = (   0.0000000   0.3750000   0.3750000), wk =   0.0468750
        k(   14) = (   0.0000000   0.3750000  -0.5000000), wk =   0.0468750
        k(   15) = (   0.0000000  -0.5000000  -0.5000000), wk =   0.0117188
        k(   16) = (   0.1250000   0.1250000   0.1250000), wk =   0.0312500
        k(   17) = (   0.1250000   0.1250000   0.2500000), wk =   0.0937500
        k(   18) = (   0.1250000   0.1250000   0.3750000), wk =   0.0937500
        k(   19) = (   0.1250000   0.1250000  -0.5000000), wk =   0.0468750
        k(   20) = (   0.1250000   0.2500000   0.2500000), wk =   0.0937500
        k(   21) = (   0.1250000   0.2500000   0.3750000), wk =   0.1875000
        k(   22) = (   0.1250000   0.2500000  -0.5000000), wk =   0.0937500
        k(   23) = (   0.1250000   0.3750000   0.3750000), wk =   0.0937500
        k(   24) = (   0.1250000   0.3750000  -0.5000000), wk =   0.0937500
        k(   25) = (   0.1250000  -0.5000000  -0.5000000), wk =   0.0234375
        k(   26) = (   0.2500000   0.2500000   0.2500000), wk =   0.0312500
        k(   27) = (   0.2500000   0.2500000   0.3750000), wk =   0.0937500
        k(   28) = (   0.2500000   0.2500000  -0.5000000), wk =   0.0468750
        k(   29) = (   0.2500000   0.3750000   0.3750000), wk =   0.0937500
        k(   30) = (   0.2500000   0.3750000  -0.5000000), wk =   0.0937500
        k(   31) = (   0.2500000  -0.5000000  -0.5000000), wk =   0.0234375
        k(   32) = (   0.3750000   0.3750000   0.3750000), wk =   0.0312500
        k(   33) = (   0.3750000   0.3750000  -0.5000000), wk =   0.0468750
        k(   34) = (   0.3750000  -0.5000000  -0.5000000), wk =   0.0234375
        k(   35) = (  -0.5000000  -0.5000000  -0.5000000), wk =   0.0039062

     Dense  grid:   195989 G-vectors     FFT dimensions: (  75,  75,  75)

     Smooth grid:    69239 G-vectors     FFT dimensions: (  54,  54,  54)

     Dynamical RAM for                 wfc:       1.59 MB

     Dynamical RAM for     wfc (w. buffer):      15.88 MB

     Dynamical RAM for           str. fact:       4.49 MB

     Dynamical RAM for           local pot:       0.00 MB

     Dynamical RAM for          nlocal pot:       5.95 MB

     Dynamical RAM for                qrad:      12.18 MB

     Dynamical RAM for          rho,v,vnew:       9.38 MB

     Dynamical RAM for               rhoin:       3.13 MB

     Dynamical RAM for            rho*nmix:      23.92 MB

     Dynamical RAM for           G-vectors:       5.87 MB

     Dynamical RAM for          h,s,v(r/c):       0.11 MB

     Dynamical RAM for          <psi|beta>:       0.03 MB

     Dynamical RAM for                 psi:       3.18 MB

     Dynamical RAM for                hpsi:       3.18 MB

     Dynamical RAM for                spsi:       3.18 MB

     Dynamical RAM for      wfcinit/wfcrot:       4.39 MB

     Dynamical RAM for           addusdens:      71.77 MB

     Dynamical RAM for          addusforce:      72.90 MB

     Dynamical RAM for         addusstress:      75.70 MB

     Estimated static dynamical RAM per process >      71.00 MB

     Estimated max dynamical RAM per process >     170.62 MB

     Estimated total dynamical RAM >       1.19 GB

     Initial potential from superposition of free atoms

     starting charge      39.9798, renormalised to      40.0000
     Starting wfcs are   33 randomized atomic wfcs
     Checking if some PAW data can be deallocated... 
       PAW data deallocated on    6 nodes for type:  2
       PAW data deallocated on    4 nodes for type:  3

     total cpu time spent up to now is       10.1 secs

     Self-consistent Calculation

     iteration #  1     ecut=    80.00 Ry     beta= 0.40
     Davidson diagonalization with overlap

---- Real-time Memory Report at c_bands before calling an iterative solver
           152 MiB given to the printing process from OS
             0 MiB allocation reported by mallinfo(arena+hblkhd)
         47368 MiB available memory on the node where the printing process lives
------------------
     ethr =  1.00E-02,  avg # of iterations =  2.0

     total cpu time spent up to now is       28.3 secs

     total energy              =    -589.75985277 Ry
     estimated scf accuracy    <       3.26505170 Ry

     iteration #  2     ecut=    80.00 Ry     beta= 0.40
     Davidson diagonalization with overlap

---- Real-time Memory Report at c_bands before calling an iterative solver
           189 MiB given to the printing process from OS
             0 MiB allocation reported by mallinfo(arena+hblkhd)
         47124 MiB available memory on the node where the printing process lives
------------------
     ethr =  8.16E-03,  avg # of iterations =  5.3

     total cpu time spent up to now is       56.0 secs

     total energy              =    -589.95466046 Ry
     estimated scf accuracy    <      24.89568334 Ry

     iteration #  3     ecut=    80.00 Ry     beta= 0.40
     Davidson diagonalization with overlap

---- Real-time Memory Report at c_bands before calling an iterative solver
           190 MiB given to the printing process from OS
             0 MiB allocation reported by mallinfo(arena+hblkhd)
         47253 MiB available memory on the node where the printing process lives
------------------
     ethr =  8.16E-03,  avg # of iterations =  2.1

     total cpu time spent up to now is       73.6 secs

     total energy              =    -591.21118175 Ry
     estimated scf accuracy    <       0.30184991 Ry

     iteration #  4     ecut=    80.00 Ry     beta= 0.40
     Davidson diagonalization with overlap

---- Real-time Memory Report at c_bands before calling an iterative solver
           192 MiB given to the printing process from OS
             0 MiB allocation reported by mallinfo(arena+hblkhd)
         47267 MiB available memory on the node where the printing process lives
------------------
     ethr =  7.55E-04,  avg # of iterations =  3.8

     total cpu time spent up to now is       95.3 secs

     total energy              =    -591.26500856 Ry
     estimated scf accuracy    <       0.04637543 Ry

     iteration #  5     ecut=    80.00 Ry     beta= 0.40
     Davidson diagonalization with overlap

---- Real-time Memory Report at c_bands before calling an iterative solver
           193 MiB given to the printing process from OS
             0 MiB allocation reported by mallinfo(arena+hblkhd)
         47330 MiB available memory on the node where the printing process lives
------------------
     ethr =  1.16E-04,  avg # of iterations =  2.9

     total cpu time spent up to now is      115.5 secs

     total energy              =    -591.27812595 Ry
     estimated scf accuracy    <       0.03156737 Ry

     iteration #  6     ecut=    80.00 Ry     beta= 0.40
     Davidson diagonalization with overlap

---- Real-time Memory Report at c_bands before calling an iterative solver
           194 MiB given to the printing process from OS
             0 MiB allocation reported by mallinfo(arena+hblkhd)
         47324 MiB available memory on the node where the printing process lives
------------------
     ethr =  7.89E-05,  avg # of iterations =  1.0

     total cpu time spent up to now is      129.6 secs

     total energy              =    -591.27938126 Ry
     estimated scf accuracy    <       0.00177129 Ry

     iteration #  7     ecut=    80.00 Ry     beta= 0.40
     Davidson diagonalization with overlap

---- Real-time Memory Report at c_bands before calling an iterative solver
           195 MiB given to the printing process from OS
             0 MiB allocation reported by mallinfo(arena+hblkhd)
         47352 MiB available memory on the node where the printing process lives
------------------
     ethr =  4.43E-06,  avg # of iterations =  9.1

     total cpu time spent up to now is      168.0 secs

     total energy              =    -591.28537909 Ry
     estimated scf accuracy    <       0.03118646 Ry

     iteration #  8     ecut=    80.00 Ry     beta= 0.40
     Davidson diagonalization with overlap

---- Real-time Memory Report at c_bands before calling an iterative solver
           196 MiB given to the printing process from OS
             0 MiB allocation reported by mallinfo(arena+hblkhd)
         47277 MiB available memory on the node where the printing process lives
------------------
     ethr =  4.43E-06,  avg # of iterations =  1.1

     total cpu time spent up to now is      182.5 secs

     total energy              =    -591.28292888 Ry
     estimated scf accuracy    <       0.03949647 Ry

     iteration #  9     ecut=    80.00 Ry     beta= 0.40
     Davidson diagonalization with overlap

---- Real-time Memory Report at c_bands before calling an iterative solver
           197 MiB given to the printing process from OS
             0 MiB allocation reported by mallinfo(arena+hblkhd)
         47393 MiB available memory on the node where the printing process lives
------------------
     ethr =  4.43E-06,  avg # of iterations =  1.2

     total cpu time spent up to now is      197.8 secs

     total energy              =    -591.28365205 Ry
     estimated scf accuracy    <       0.00278183 Ry

     iteration # 10     ecut=    80.00 Ry     beta= 0.40
     Davidson diagonalization with overlap

---- Real-time Memory Report at c_bands before calling an iterative solver
           198 MiB given to the printing process from OS
             0 MiB allocation reported by mallinfo(arena+hblkhd)
         47368 MiB available memory on the node where the printing process lives
------------------
     ethr =  4.43E-06,  avg # of iterations =  1.0

     total cpu time spent up to now is      212.0 secs

     total energy              =    -591.28365340 Ry
     estimated scf accuracy    <       0.00052514 Ry

     iteration # 11     ecut=    80.00 Ry     beta= 0.40
     Davidson diagonalization with overlap

---- Real-time Memory Report at c_bands before calling an iterative solver
           198 MiB given to the printing process from OS
             0 MiB allocation reported by mallinfo(arena+hblkhd)
         47201 MiB available memory on the node where the printing process lives
------------------
     ethr =  1.31E-06,  avg # of iterations =  2.8

     total cpu time spent up to now is      231.5 secs

     total energy              =    -591.28368550 Ry
     estimated scf accuracy    <       0.00000544 Ry

     iteration # 12     ecut=    80.00 Ry     beta= 0.40
     Davidson diagonalization with overlap

---- Real-time Memory Report at c_bands before calling an iterative solver
           199 MiB given to the printing process from OS
             0 MiB allocation reported by mallinfo(arena+hblkhd)
         47462 MiB available memory on the node where the printing process lives
------------------
     ethr =  1.36E-08,  avg # of iterations =  7.2

     total cpu time spent up to now is      266.5 secs

     total energy              =    -591.28379279 Ry
     estimated scf accuracy    <       0.00048802 Ry

     iteration # 13     ecut=    80.00 Ry     beta= 0.40
     Davidson diagonalization with overlap

---- Real-time Memory Report at c_bands before calling an iterative solver
           199 MiB given to the printing process from OS
             0 MiB allocation reported by mallinfo(arena+hblkhd)
         47531 MiB available memory on the node where the printing process lives
------------------
     ethr =  1.36E-08,  avg # of iterations =  4.6

     total cpu time spent up to now is      291.5 secs

     total energy              =    -591.28380463 Ry
     estimated scf accuracy    <       0.00004778 Ry

     iteration # 14     ecut=    80.00 Ry     beta= 0.40
     Davidson diagonalization with overlap

---- Real-time Memory Report at c_bands before calling an iterative solver
           199 MiB given to the printing process from OS
             0 MiB allocation reported by mallinfo(arena+hblkhd)
         47341 MiB available memory on the node where the printing process lives
------------------
     ethr =  1.36E-08,  avg # of iterations =  2.0

     total cpu time spent up to now is      308.6 secs

     total energy              =    -591.28379390 Ry
     estimated scf accuracy    <       0.00022826 Ry

     iteration # 15     ecut=    80.00 Ry     beta= 0.40
     Davidson diagonalization with overlap

---- Real-time Memory Report at c_bands before calling an iterative solver
           199 MiB given to the printing process from OS
             0 MiB allocation reported by mallinfo(arena+hblkhd)
         47212 MiB available memory on the node where the printing process lives
------------------
     ethr =  1.36E-08,  avg # of iterations =  2.0

     total cpu time spent up to now is      326.6 secs

     total energy              =    -591.28379806 Ry
     estimated scf accuracy    <       0.00000959 Ry

     iteration # 16     ecut=    80.00 Ry     beta= 0.40
     Davidson diagonalization with overlap

---- Real-time Memory Report at c_bands before calling an iterative solver
           199 MiB given to the printing process from OS
             0 MiB allocation reported by mallinfo(arena+hblkhd)
         47378 MiB available memory on the node where the printing process lives
------------------
     ethr =  1.36E-08,  avg # of iterations =  2.3

     total cpu time spent up to now is      343.4 secs

     total energy              =    -591.28379881 Ry
     estimated scf accuracy    <       0.00000374 Ry

     iteration # 17     ecut=    80.00 Ry     beta= 0.40
     Davidson diagonalization with overlap

---- Real-time Memory Report at c_bands before calling an iterative solver
           199 MiB given to the printing process from OS
             0 MiB allocation reported by mallinfo(arena+hblkhd)
         47185 MiB available memory on the node where the printing process lives
------------------
     ethr =  9.35E-09,  avg # of iterations =  1.0

     total cpu time spent up to now is      357.4 secs

     total energy              =    -591.28379887 Ry
     estimated scf accuracy    <       0.00000058 Ry

     iteration # 18     ecut=    80.00 Ry     beta= 0.40
     Davidson diagonalization with overlap

---- Real-time Memory Report at c_bands before calling an iterative solver
           199 MiB given to the printing process from OS
             0 MiB allocation reported by mallinfo(arena+hblkhd)
         47273 MiB available memory on the node where the printing process lives
------------------
     ethr =  1.45E-09,  avg # of iterations =  2.8

     total cpu time spent up to now is      376.0 secs

     total energy              =    -591.28379888 Ry
     estimated scf accuracy    <       0.00000029 Ry

     iteration # 19     ecut=    80.00 Ry     beta= 0.40
     Davidson diagonalization with overlap

---- Real-time Memory Report at c_bands before calling an iterative solver
           199 MiB given to the printing process from OS
             0 MiB allocation reported by mallinfo(arena+hblkhd)
         47276 MiB available memory on the node where the printing process lives
------------------
     ethr =  7.23E-10,  avg # of iterations =  1.5

     total cpu time spent up to now is      391.5 secs

     End of self-consistent calculation

          k = 0.0000 0.0000 0.0000 (  8709 PWs)   bands (ev):

   -48.4939 -24.4495 -24.4495 -24.4495 -20.8916  -5.2731  -5.2731  -5.2731
    -4.8068  -3.7492  -3.7492   5.3417   5.3417   5.3417   6.5661   6.5661
     6.5661   7.5102   7.5102   7.6965   7.6965   7.6965   8.8090   8.8093

     occupation numbers 
     1.0000   1.0000   1.0000   1.0000   1.0000   1.0000   1.0000   1.0000
     1.0000   1.0000   1.0000   1.0000   1.0000   1.0000   1.0000   1.0000
     1.0000   1.0000   1.0000   1.0000   1.0000   1.0000   0.0000   0.0000

          k = 0.0000 0.0000 0.1250 (  8629 PWs)   bands (ev):

   -48.4939 -24.4499 -24.4494 -24.4494 -20.8897  -5.6961  -5.2699  -5.2699
    -4.5963  -3.7417  -3.3930   5.1593   5.3188   5.3188   6.2006   6.3287
     6.3287   7.5818   7.7119   7.9096   7.9901   7.9901   8.2299   8.7672

     occupation numbers 
     1.0000   1.0000   1.0000   1.0000   1.0000   1.0000   1.0000   1.0000
     1.0000   1.0000   1.0000   1.0000   1.0000   1.0000   1.0000   1.0000
     1.0000   1.0000   1.0000   0.9978   0.8801   0.8801   0.0001   0.0000

          k = 0.0000 0.0000 0.2500 (  8645 PWs)   bands (ev):

   -48.4939 -24.4509 -24.4493 -24.4493 -20.8851  -6.2111  -5.2623  -5.2623
    -4.4731  -3.7233  -2.6233   4.8246   5.2748   5.2748   5.6952   5.9370
     5.9370   7.1537   7.7498   7.7666   8.4940   8.5284   8.5285   8.6844

     occupation numbers 
     1.0000   1.0000   1.0000   1.0000   1.0000   1.0000   1.0000   1.0000
     1.0000   1.0000   1.0000   1.0000   1.0000   1.0000   1.0000   1.0000
     1.0000   1.0000   1.0000   1.0000   0.0000   0.0000   0.0000   0.0000

          k = 0.0000 0.0000 0.3750 (  8686 PWs)   bands (ev):

   -48.4939 -24.4519 -24.4493 -24.4493 -20.8806  -6.5520  -5.2546  -5.2546
    -4.4153  -3.7047  -1.9034   4.6332   5.2609   5.2609   5.3462   5.6187
     5.6187   6.0736   7.7890   7.9698   8.6182   8.6182   8.9169   9.0058

     occupation numbers 
     1.0000   1.0000   1.0000   1.0000   1.0000   1.0000   1.0000   1.0000
     1.0000   1.0000   1.0000   1.0000   1.0000   1.0000   1.0000   1.0000
     1.0000   1.0000   1.0000   0.9448   0.0000   0.0000   0.0000   0.0000

          k = 0.0000 0.0000-0.5000 (  8722 PWs)   bands (ev):

   -48.4938 -24.4523 -24.4492 -24.4492 -20.8787  -6.6696  -5.2514  -5.2514
    -4.3958  -3.6970  -1.6005   4.6424   5.2236   5.2845   5.2845   5.4736
     5.4736   5.5519   7.8056   8.0619   8.5953   8.5953   9.0684   9.2026

     occupation numbers 
     1.0000   1.0000   1.0000   1.0000   1.0000   1.0000   1.0000   1.0000
     1.0000   1.0000   1.0000   1.0000   1.0000   1.0000   1.0000   1.0000
     1.0000   1.0000   1.0000   0.3752   0.0000   0.0000   0.0000   0.0000

          k = 0.0000 0.1250 0.1250 (  8682 PWs)   bands (ev):

   -48.4939 -24.4499 -24.4498 -24.4494 -20.8878  -5.7453  -5.6181  -5.2667
    -4.3764  -3.5091  -3.2944   4.8963   5.2937   5.4077   5.7962   6.1459
     6.4718   7.6579   7.8245   7.8484   8.1068   8.1460   8.3703   8.3789

     occupation numbers 
     1.0000   1.0000   1.0000   1.0000   1.0000   1.0000   1.0000   1.0000
     1.0000   1.0000   1.0000   1.0000   1.0000   1.0000   1.0000   1.0000
     1.0000   1.0000   1.0000   1.0000   0.1056   0.0194   0.0000   0.0000

          k = 0.0000 0.1250 0.2500 (  8672 PWs)   bands (ev):

   -48.4939 -24.4508 -24.4497 -24.4493 -20.8833  -6.2059  -5.6585  -5.2589
    -4.2495  -3.4169  -2.6100   4.5299   5.2438   5.3482   5.4249   5.8105
     6.3069   7.1509   7.8263   7.9318   8.1680   8.3368   8.5401   8.6309

     occupation numbers 
     1.0000   1.0000   1.0000   1.0000   1.0000   1.0000   1.0000   1.0000
     1.0000   1.0000   1.0000   1.0000   1.0000   1.0000   1.0000   1.0000
     1.0000   1.0000   1.0000   0.9915   0.0058   0.0000   0.0000   0.0000

          k = 0.0000 0.1250 0.3750 (  8700 PWs)   bands (ev):

   -48.4938 -24.4518 -24.4497 -24.4492 -20.8788  -6.5448  -5.6477  -5.2511
    -4.1978  -3.3928  -1.8950   4.2928   5.1093   5.2225   5.3362   5.5232
     5.9640   6.2828   7.9728   8.0109   8.1842   8.5499   8.7066   8.9946

     occupation numbers 
     1.0000   1.0000   1.0000   1.0000   1.0000   1.0000   1.0000   1.0000
     1.0000   1.0000   1.0000   1.0000   1.0000   1.0000   1.0000   1.0000
     1.0000   1.0000   0.9376   0.7714   0.0021   0.0000   0.0000   0.0000

          k = 0.0000 0.1250-0.5000 (  8686 PWs)   bands (ev):

   -48.4938 -24.4523 -24.4496 -24.4492 -20.8769  -6.6621  -5.6426  -5.2479
    -4.1813  -3.3842  -1.5919   4.2373   5.0779   5.2441   5.2530   5.3869
     5.5763   6.1317   7.9891   8.1106   8.1631   8.5224   8.9902   8.9912

     occupation numbers 
     1.0000   1.0000   1.0000   1.0000   1.0000   1.0000   1.0000   1.0000
     1.0000   1.0000   1.0000   1.0000   1.0000   1.0000   1.0000   1.0000
     1.0000   1.0000   0.8840   0.0917   0.0077   0.0000   0.0000   0.0000

          k = 0.0000 0.2500 0.2500 (  8664 PWs)   bands (ev):

   -48.4938 -24.4508 -24.4507 -24.4492 -20.8789  -6.2290  -6.1347  -5.2509
    -4.1358  -2.7478  -2.4927   4.0631   5.1465   5.1775   5.4606   5.5558
     6.5969   6.8946   7.4484   7.9390   8.2550   8.3739   8.5244   8.6567

     occupation numbers 
     1.0000   1.0000   1.0000   1.0000   1.0000   1.0000   1.0000   1.0000
     1.0000   1.0000   1.0000   1.0000   1.0000   1.0000   1.0000   1.0000
     1.0000   1.0000   1.0000   0.9874   0.0000   0.0000   0.0000   0.0000

          k = 0.0000 0.2500 0.3750 (  8671 PWs)   bands (ev):

   -48.4938 -24.4517 -24.4506 -24.4491 -20.8744  -6.5275  -6.1626  -5.2427
    -4.0968  -2.6170  -1.8732   3.7323   5.0683   5.1344   5.3263   5.4139
     6.0179   6.7744   7.2388   8.0812   8.3638   8.4549   8.5932   8.8485

     occupation numbers 
     1.0000   1.0000   1.0000   1.0000   1.0000   1.0000   1.0000   1.0000
     1.0000   1.0000   1.0000   1.0000   1.0000   1.0000   1.0000   1.0000
     1.0000   1.0000   1.0000   0.2364   0.0000   0.0000   0.0000   0.0000

          k = 0.0000 0.2500-0.5000 (  8708 PWs)   bands (ev):

   -48.4938 -24.4521 -24.4506 -24.4491 -20.8726  -6.6441  -6.1573  -5.2394
    -4.0852  -2.6028  -1.5705   3.6227   5.1465   5.1909   5.2104   5.2354
     5.6116   6.8118   7.1964   8.2170   8.3783   8.4296   8.6214   8.8516

     occupation numbers 
     1.0000   1.0000   1.0000   1.0000   1.0000   1.0000   1.0000   1.0000
     1.0000   1.0000   1.0000   1.0000   1.0000   1.0000   1.0000   1.0000
     1.0000   1.0000   1.0000   0.0002   0.0000   0.0000   0.0000   0.0000

          k = 0.0000 0.3750 0.3750 (  8672 PWs)   bands (ev):

   -48.4938 -24.4516 -24.4516 -24.4491 -20.8701  -6.5219  -6.4932  -5.2343
    -4.0676  -1.9160  -1.8117   3.3378   5.0595   5.0812   5.1509   5.4807
     5.8641   6.4127   7.1185   8.0757   8.3024   8.5469   8.8248   8.8271

     occupation numbers 
     1.0000   1.0000   1.0000   1.0000   1.0000   1.0000   1.0000   1.0000
     1.0000   1.0000   1.0000   1.0000   1.0000   1.0000   1.0000   1.0000
     1.0000   1.0000   1.0000   0.2726   0.0000   0.0000   0.0000   0.0000

          k = 0.0000 0.3750-0.5000 (  8664 PWs)   bands (ev):

   -48.4938 -24.4520 -24.4515 -24.4490 -20.8682  -6.6259  -6.5001  -5.2308
    -4.0597  -1.8561  -1.5480   3.2008   5.0496   5.0642   5.1254   5.4555
     5.6074   6.3094   7.1800   8.1539   8.3475   8.9034   8.9325   9.1322

     occupation numbers 
     1.0000   1.0000   1.0000   1.0000   1.0000   1.0000   1.0000   1.0000
     1.0000   1.0000   1.0000   1.0000   1.0000   1.0000   1.0000   1.0000
     1.0000   1.0000   1.0000   0.0129   0.0000   0.0000   0.0000   0.0000

          k = 0.0000-0.5000-0.5000 (  8604 PWs)   bands (ev):

   -48.4938 -24.4519 -24.4519 -24.4490 -20.8664  -6.6183  -6.6183  -5.2273
    -4.0533  -1.5384  -1.5384   3.0529   5.0098   5.0098   5.0806   5.5638
     5.5638   5.9948   7.2800   8.0572   8.2510   9.0380   9.1237   9.1237

     occupation numbers 
     1.0000   1.0000   1.0000   1.0000   1.0000   1.0000   1.0000   1.0000
     1.0000   1.0000   1.0000   1.0000   1.0000   1.0000   1.0000   1.0000
     1.0000   1.0000   1.0000   0.4129   0.0000   0.0000   0.0000   0.0000

          k = 0.1250 0.1250 0.1250 (  8646 PWs)   bands (ev):

   -48.4939 -24.4498 -24.4498 -24.4498 -20.8860  -5.7830  -5.6142  -5.6142
    -4.0658  -3.2884  -3.2884   4.6954   5.3106   5.3106   5.7878   5.7878
     6.7336   7.6963   7.6963   7.7453   8.1731   8.3426   8.3426   8.4896

     occupation numbers 
     1.0000   1.0000   1.0000   1.0000   1.0000   1.0000   1.0000   1.0000
     1.0000   1.0000   1.0000   1.0000   1.0000   1.0000   1.0000   1.0000
     1.0000   1.0000   1.0000   1.0000   0.0043   0.0000   0.0000   0.0000

          k = 0.1250 0.1250 0.2500 (  8652 PWs)   bands (ev):

   -48.4939 -24.4508 -24.4497 -24.4497 -20.8815  -6.2010  -5.6947  -5.6048
    -3.8724  -3.2737  -2.5984   4.3740   4.9941   5.2095   5.5692   5.7796
     6.5886   7.1156   7.8055   8.0012   8.0527   8.1892   8.3147   8.6534

     occupation numbers 
     1.0000   1.0000   1.0000   1.0000   1.0000   1.0000   1.0000   1.0000
     1.0000   1.0000   1.0000   1.0000   1.0000   1.0000   1.0000   1.0000
     1.0000   1.0000   1.0000   0.8276   0.4498   0.0015   0.0000   0.0000

          k = 0.1250 0.1250 0.3750 (  8695 PWs)   bands (ev):

   -48.4938 -24.4518 -24.4496 -24.4496 -20.8770  -6.5381  -5.6845  -5.5953
    -3.8109  -3.2587  -1.8876   4.1697   4.6994   5.0659   5.5030   5.7129
     6.2070   6.3339   7.9366   8.0319   8.2147   8.2254   8.6334   8.8014

     occupation numbers 
     1.0000   1.0000   1.0000   1.0000   1.0000   1.0000   1.0000   1.0000
     1.0000   1.0000   1.0000   1.0000   1.0000   1.0000   1.0000   1.0000
     1.0000   1.0000   0.9889   0.6205   0.0002   0.0001   0.0000   0.0000

          k = 0.1250 0.1250-0.5000 (  8720 PWs)   bands (ev):

   -48.4938 -24.4522 -24.4496 -24.4496 -20.8751  -6.6552  -5.6790  -5.5914
    -3.7934  -3.2525  -1.5843   4.1293   4.5906   4.9854   5.4886   5.5609
     5.9285   6.2293   7.9906   8.0098   8.2064   8.3028   8.8736   8.9168

     occupation numbers 
     1.0000   1.0000   1.0000   1.0000   1.0000   1.0000   1.0000   1.0000
     1.0000   1.0000   1.0000   1.0000   1.0000   1.0000   1.0000   1.0000
     1.0000   1.0000   0.8779   0.7781   0.0004   0.0000   0.0000   0.0000

          k = 0.1250 0.2500 0.2500 (  8660 PWs)   bands (ev):

   -48.4938 -24.4507 -24.4506 -24.4496 -20.8771  -6.2245  -6.1306  -5.6343
    -3.6419  -2.7181  -2.4889   4.0257   4.7368   4.9726   5.6072   5.8514
     6.8224   6.8607   7.4401   7.8888   8.1100   8.1236   8.2234   8.9093

     occupation numbers 
     1.0000   1.0000   1.0000   1.0000   1.0000   1.0000   1.0000   1.0000
     1.0000   1.0000   1.0000   1.0000   1.0000   1.0000   1.0000   1.0000
     1.0000   1.0000   1.0000   0.9995   0.0939   0.0548   0.0001   0.0000

          k = 0.1250 0.2500 0.3750 (  8663 PWs)   bands (ev):

   -48.4938 -24.4517 -24.4506 -24.4495 -20.8726  -6.5219  -6.1593  -5.6254
    -3.5902  -2.6037  -1.8684   3.7471   4.5561   4.8210   5.5808   5.8165
     6.1653   6.8452   7.2205   7.9775   8.0951   8.3232   8.5500   8.8404

     occupation numbers 
     1.0000   1.0000   1.0000   1.0000   1.0000   1.0000   1.0000   1.0000
     1.0000   1.0000   1.0000   1.0000   1.0000   1.0000   1.0000   1.0000
     1.0000   1.0000   1.0000   0.9247   0.1570   0.0000   0.0000   0.0000

          k = 0.1250 0.2500-0.5000 (  8686 PWs)   bands (ev):

   -48.4938 -24.4521 -24.4505 -24.4495 -20.8708  -6.6384  -6.1544  -5.6213
    -3.5772  -2.5917  -1.5656   3.6540   4.5106   4.7466   5.4712   5.7121
     5.9825   6.8440   7.1635   8.0087   8.1053   8.5837   8.5961   8.8090

     occupation numbers 
     1.0000   1.0000   1.0000   1.0000   1.0000   1.0000   1.0000   1.0000
     1.0000   1.0000   1.0000   1.0000   1.0000   1.0000   1.0000   1.0000
     1.0000   1.0000   1.0000   0.7845   0.1114   0.0000   0.0000   0.0000

          k = 0.1250 0.3750 0.3750 (  8669 PWs)   bands (ev):

   -48.4938 -24.4516 -24.4515 -24.4494 -20.8682  -6.5172  -6.4892  -5.6176
    -3.5499  -1.9126  -1.8100   3.3889   4.5275   4.6696   5.4568   5.9084
     6.0410   6.5123   7.1727   7.8755   8.1201   8.4442   8.6123   8.8772

     occupation numbers 
     1.0000   1.0000   1.0000   1.0000   1.0000   1.0000   1.0000   1.0000
     1.0000   1.0000   1.0000   1.0000   1.0000   1.0000   1.0000   1.0000
     1.0000   1.0000   1.0000   0.9998   0.0634   0.0000   0.0000   0.0000

          k = 0.1250 0.3750-0.5000 (  8692 PWs)   bands (ev):

   -48.4938 -24.4519 -24.4515 -24.4494 -20.8664  -6.6214  -6.4962  -5.6140
    -3.5409  -1.8548  -1.5460   3.2617   4.5490   4.5962   5.2726   5.8814
     6.0286   6.3763   7.2324   7.8509   8.1541   8.3536   8.7248   9.0049

     occupation numbers 
     1.0000   1.0000   1.0000   1.0000   1.0000   1.0000   1.0000   1.0000
     1.0000   1.0000   1.0000   1.0000   1.0000   1.0000   1.0000   1.0000
     1.0000   1.0000   1.0000   1.0000   0.0127   0.0000   0.0000   0.0000

          k = 0.1250-0.5000-0.5000 (  8664 PWs)   bands (ev):

   -48.4938 -24.4519 -24.4519 -24.4494 -20.8646  -6.6144  -6.6144  -5.6107
    -3.5332  -1.5377  -1.5377   3.1219   4.5639   4.5639   5.0840   6.0001
     6.0745   6.0745   7.3337   7.7733   8.0740   8.2812   8.9539   9.0508

     occupation numbers 
     1.0000   1.0000   1.0000   1.0000   1.0000   1.0000   1.0000   1.0000
     1.0000   1.0000   1.0000   1.0000   1.0000   1.0000   1.0000   1.0000
     1.0000   1.0000   1.0000   1.0000   0.2847   0.0000   0.0000   0.0000

          k = 0.2500 0.2500 0.2500 (  8658 PWs)   bands (ev):

   -48.4938 -24.4506 -24.4506 -24.4506 -20.8727  -6.2389  -6.1206  -6.1206
    -2.9971  -2.4795  -2.4795   3.8796   4.4844   4.4844   5.9612   5.9612
     6.6078   7.1815   7.4152   7.4152   7.9543   7.9543   8.1125   9.1253

     occupation numbers 
     1.0000   1.0000   1.0000   1.0000   1.0000   1.0000   1.0000   1.0000
     1.0000   1.0000   1.0000   1.0000   1.0000   1.0000   1.0000   1.0000
     1.0000   1.0000   1.0000   1.0000   0.9725   0.9725   0.0855   0.0000

          k = 0.2500 0.2500 0.3750 (  8660 PWs)   bands (ev):

   -48.4938 -24.4515 -24.4505 -24.4505 -20.8682  -6.5085  -6.1798  -6.1105
    -2.8450  -2.4701  -1.8558   3.7080   4.1574   4.4003   5.7966   6.0076
     6.3840   7.0544   7.1454   7.4035   8.0100   8.2390   8.2896   9.0355

     occupation numbers 
     1.0000   1.0000   1.0000   1.0000   1.0000   1.0000   1.0000   1.0000
     1.0000   1.0000   1.0000   1.0000   1.0000   1.0000   1.0000   1.0000
     1.0000   1.0000   1.0000   1.0000   0.7770   0.0000   0.0000   0.0000

          k = 0.2500 0.2500-0.5000 (  8672 PWs)   bands (ev):

   -48.4938 -24.4519 -24.4505 -24.4504 -20.8664  -6.6246  -6.1760  -6.1063
    -2.8230  -2.4662  -1.5535   3.6494   4.0432   4.3739   5.4680   6.0268
     6.5192   6.8848   7.0679   7.4025   8.0489   8.4401   8.6029   8.8611

     occupation numbers 
     1.0000   1.0000   1.0000   1.0000   1.0000   1.0000   1.0000   1.0000
     1.0000   1.0000   1.0000   1.0000   1.0000   1.0000   1.0000   1.0000
     1.0000   1.0000   1.0000   1.0000   0.4808   0.0000   0.0000   0.0000

          k = 0.2500 0.3750 0.3750 (  8664 PWs)   bands (ev):

   -48.4938 -24.4514 -24.4514 -24.4504 -20.8639  -6.5061  -6.4795  -6.1337
    -2.6771  -1.9009  -1.8058   3.5124   4.0638   4.1620   5.5333   6.1586
     6.3649   6.8410   7.1911   7.3862   8.0901   8.2333   8.2921   8.9183

     occupation numbers 
     1.0000   1.0000   1.0000   1.0000   1.0000   1.0000   1.0000   1.0000
     1.0000   1.0000   1.0000   1.0000   1.0000   1.0000   1.0000   1.0000
     1.0000   1.0000   1.0000   1.0000   0.1829   0.0001   0.0000   0.0000

          k = 0.2500 0.3750-0.5000 (  8658 PWs)   bands (ev):

   -48.4938 -24.4518 -24.4514 -24.4503 -20.8620  -6.6107  -6.4870  -6.1304
    -2.6622  -1.8502  -1.5411   3.4170   4.0182   4.1314   5.2640   6.1230
     6.5658   6.7053   7.1442   7.4048   8.1365   8.2546   8.4951   8.8591

     occupation numbers 
     1.0000   1.0000   1.0000   1.0000   1.0000   1.0000   1.0000   1.0000
     1.0000   1.0000   1.0000   1.0000   1.0000   1.0000   1.0000   1.0000
     1.0000   1.0000   1.0000   1.0000   0.0308   0.0000   0.0000   0.0000

          k = 0.2500-0.5000-0.5000 (  8620 PWs)   bands (ev):

   -48.4938 -24.4518 -24.4518 -24.4503 -20.8602  -6.6049  -6.6049  -6.1275
    -2.6496  -1.5358  -1.5358   3.3023   4.0545   4.0545   5.0589   6.0130
     6.7735   6.7735   6.9293   7.4899   8.1136   8.1748   8.7257   8.8277

     occupation numbers 
     1.0000   1.0000   1.0000   1.0000   1.0000   1.0000   1.0000   1.0000
     1.0000   1.0000   1.0000   1.0000   1.0000   1.0000   1.0000   1.0000
     1.0000   1.0000   1.0000   1.0000   0.0819   0.0039   0.0000   0.0000

          k = 0.3750 0.3750 0.3750 (  8684 PWs)   bands (ev):

   -48.4938 -24.4513 -24.4513 -24.4513 -20.8595  -6.5031  -6.4698  -6.4698
    -1.9942  -1.8016  -1.8016   3.5873   3.8285   3.8285   5.3165   6.2309
     6.2309   7.1137   7.1137   7.7145   8.0885   8.0905   8.0905   8.8717

     occupation numbers 
     1.0000   1.0000   1.0000   1.0000   1.0000   1.0000   1.0000   1.0000
     1.0000   1.0000   1.0000   1.0000   1.0000   1.0000   1.0000   1.0000
     1.0000   1.0000   1.0000   1.0000   0.1920   0.1811   0.1811   0.0000

          k = 0.3750 0.3750-0.5000 (  8674 PWs)   bands (ev):

   -48.4938 -24.4517 -24.4513 -24.4513 -20.8577  -6.5998  -6.4871  -6.4657
    -1.9301  -1.7999  -1.5360   3.5534   3.7129   3.8241   5.0865   6.1555
     6.2503   7.1976   7.2401   7.6888   8.0916   8.1282   8.3179   8.5988

     occupation numbers 
     1.0000   1.0000   1.0000   1.0000   1.0000   1.0000   1.0000   1.0000
     1.0000   1.0000   1.0000   1.0000   1.0000   1.0000   1.0000   1.0000
     1.0000   1.0000   1.0000   1.0000   0.1748   0.0450   0.0000   0.0000

          k = 0.3750-0.5000-0.5000 (  8652 PWs)   bands (ev):

   -48.4937 -24.4517 -24.4517 -24.4512 -20.8558  -6.5953  -6.5953  -6.4724
    -1.8654  -1.5339  -1.5339   3.5082   3.7193   3.7193   4.9045   6.0261
     6.2390   7.4212   7.4212   7.7330   8.0544   8.1457   8.4130   8.4632

     occupation numbers 
     1.0000   1.0000   1.0000   1.0000   1.0000   1.0000   1.0000   1.0000
     1.0000   1.0000   1.0000   1.0000   1.0000   1.0000   1.0000   1.0000
     1.0000   1.0000   1.0000   1.0000   0.4355   0.0197   0.0000   0.0000

          k =-0.5000-0.5000-0.5000 (  8552 PWs)   bands (ev):

   -48.4937 -24.4516 -24.4516 -24.4516 -20.8540  -6.5913  -6.5913  -6.5913
    -1.5331  -1.5331  -1.5331   3.6033   3.6033   3.6033   4.7506   6.0315
     6.0315   7.9713   7.9713   7.9713   8.0027   8.0027   8.0027   8.1463

     occupation numbers 
     1.0000   1.0000   1.0000   1.0000   1.0000   1.0000   1.0000   1.0000
     1.0000   1.0000   1.0000   1.0000   1.0000   1.0000   1.0000   1.0000
     1.0000   0.9413   0.9413   0.9413   0.8194   0.8194   0.8194   0.0191

     the Fermi energy is     8.0466 ev

!    total energy              =    -591.28379890 Ry
     estimated scf accuracy    <          4.5E-09 Ry
     smearing contrib. (-TS)   =      -0.00204633 Ry
     internal energy E=F+TS    =    -591.28175256 Ry

     The total energy is F=E-TS. E is the sum of the following terms:
     one-electron contribution =     -49.52799526 Ry
     hartree contribution      =      42.71671672 Ry
     xc contribution           =     -44.89812216 Ry
     ewald contribution        =    -182.39356421 Ry
     one-center paw contrib.   =    -357.17878766 Ry
      -> PAW hartree energy AE =       0.00000000 Ry
      -> PAW hartree energy PS =       0.00000000 Ry
      -> PAW xc energy AE      =       0.00000000 Ry
      -> PAW xc energy PS      =       0.00000000 Ry
      -> total E_H with PAW    =      42.71671672 Ry
      -> total E_XC with PAW   =     -44.89812216 Ry

     convergence has been achieved in  19 iterations

     Forces acting on atoms (cartesian axes, Ry/au):

     atom    1 type  1   force =     0.00000000    0.00000000    0.00000000
     atom    2 type  2   force =     0.00000000    0.00000000    0.00000000
     atom    3 type  3   force =     0.00000000    0.00000000    0.00000000
     atom    4 type  3   force =     0.00000000    0.00000000    0.00000000
     atom    5 type  3   force =     0.00000000    0.00000000    0.00000000
     The non-local contrib.  to forces
     atom    1 type  1   force =     0.00000000    0.00000000    0.00000000
     atom    2 type  2   force =     0.00000000    0.00000000    0.00000000
     atom    3 type  3   force =     0.00000000    0.00000000    0.00000000
     atom    4 type  3   force =     0.00000000    0.00000000    0.00000000
     atom    5 type  3   force =     0.00000000    0.00000000    0.00000000
     The ionic contribution  to forces
     atom    1 type  1   force =    -0.00000000   -0.00000000   -0.00000000
     atom    2 type  2   force =     0.00000000    0.00000000    0.00000000
     atom    3 type  3   force =     0.00000000   -0.00000000   -0.00000000
     atom    4 type  3   force =    -0.00000000    0.00000000   -0.00000000
     atom    5 type  3   force =    -0.00000000   -0.00000000    0.00000000
     The local contribution  to forces
     atom    1 type  1   force =     0.00000000   -0.00000000   -0.00000000
     atom    2 type  2   force =     0.00000000    0.00000000    0.00000000
     atom    3 type  3   force =     0.00000000   -0.00000000   -0.00000000
     atom    4 type  3   force =    -0.00000000    0.00000000    0.00000000
     atom    5 type  3   force =    -0.00000000   -0.00000000    0.00000000
     The core correction contribution to forces
     atom    1 type  1   force =    -0.00000000   -0.00000000   -0.00000000
     atom    2 type  2   force =    -0.00000000   -0.00000000   -0.00000000
     atom    3 type  3   force =    -0.00000000    0.00000000    0.00000000
     atom    4 type  3   force =    -0.00000000   -0.00000000    0.00000000
     atom    5 type  3   force =    -0.00000000   -0.00000000   -0.00000000
     The Hubbard contrib.    to forces
     atom    1 type  1   force =     0.00000000    0.00000000    0.00000000
     atom    2 type  2   force =     0.00000000    0.00000000    0.00000000
     atom    3 type  3   force =     0.00000000    0.00000000    0.00000000
     atom    4 type  3   force =     0.00000000    0.00000000    0.00000000
     atom    5 type  3   force =     0.00000000    0.00000000    0.00000000
     The SCF correction term to forces
     atom    1 type  1   force =    -0.00000000    0.00000000   -0.00000000
     atom    2 type  2   force =    -0.00000000   -0.00000000   -0.00000000
     atom    3 type  3   force =     0.00000000    0.00000000   -0.00000000
     atom    4 type  3   force =    -0.00000000    0.00000000   -0.00000000
     atom    5 type  3   force =    -0.00000000   -0.00000000   -0.00000000

     Total force =     0.000000     Total SCF correction =     0.000000


     Computing stress (Cartesian axis) and pressure

          total   stress  (Ry/bohr**3)                   (kbar)     P=       78.04
   0.00053049   0.00000000   0.00000000           78.04        0.00        0.00
   0.00000000   0.00053049   0.00000000            0.00       78.04        0.00
   0.00000000   0.00000000   0.00053049            0.00        0.00       78.04

     kinetic stress (kbar)  12530.34      0.00      0.00
                                0.00  12530.34      0.00
                                0.00      0.00  12530.34

     local   stress (kbar)  -5005.11      0.00     -0.00
                                0.00  -5005.11     -0.00
                               -0.00     -0.00  -5005.11

     nonloc. stress (kbar)   4806.08      0.00      0.00
                                0.00   4806.08      0.00
                                0.00      0.00   4806.08

     hartree stress (kbar)   2918.96      0.00      0.00
                                0.00   2918.96     -0.00
                                0.00     -0.00   2918.96

     exc-cor stress (kbar)   -751.69      0.00      0.00
                                0.00   -751.69      0.00
                                0.00      0.00   -751.69

     corecor stress (kbar)  -1957.04     -0.00     -0.00
                               -0.00  -1957.04     -0.00
                               -0.00     -0.00  -1957.04

     ewald   stress (kbar) -12463.50      0.00     -0.00
                                0.00 -12463.50     -0.00
                               -0.00     -0.00 -12463.50

     hubbard stress (kbar)      0.00      0.00      0.00
                                0.00      0.00      0.00
                                0.00      0.00      0.00

     DFT-D   stress (kbar)      0.00      0.00      0.00
                                0.00      0.00      0.00
                                0.00      0.00      0.00

     XDM     stress (kbar)      0.00      0.00      0.00
                                0.00      0.00      0.00
                                0.00      0.00      0.00

     dft-nl  stress (kbar)      0.00      0.00      0.00
                                0.00      0.00      0.00
                                0.00      0.00      0.00

     TS-vdW  stress (kbar)      0.00      0.00      0.00
                                0.00      0.00      0.00
                                0.00      0.00      0.00

     MDB     stress (kbar)      0.00      0.00      0.00
                                0.00      0.00      0.00
                                0.00      0.00      0.00

     3D-RISM stress (kbar)      0.00      0.00      0.00
                                0.00      0.00      0.00
                                0.00      0.00      0.00


     BFGS Geometry Optimization
     Energy error            =      0.0E+00 Ry
     Gradient error          =      0.0E+00 Ry/Bohr
     Cell gradient error     =      7.8E+01 kbar

     number of scf cycles    =   1
     number of bfgs steps    =   0

     enthalpy           new  =    -591.2837988954 Ry

     new trust radius        =       0.0710535716 bohr
     new conv_thr            =       0.0000000100 Ry

     new unit-cell volume =    746.52032 a.u.^3 (   110.62290 Ang^3 )
     density =      3.42524 g/cm^3

CELL_PARAMETERS (angstrom)
   4.800446975   0.000000000   0.000000000
   0.000000000   4.800446975   0.000000000
   0.000000000   0.000000000   4.800446975

ATOMIC_POSITIONS (crystal)
K                0.0000000000        0.0000000000        0.0000000000
Nb               0.5000000000        0.5000000000        0.5000000000
S                0.5000000000        0.0000000000        0.0000000000
S                0.0000000000        0.5000000000        0.0000000000
S                0.0000000000        0.0000000000        0.5000000000



     Writing config-only to output data dir ./tmp/knbs3.save/ :
     XML data file
     NEW-OLD atomic charge density approx. for the potential

     total cpu time spent up to now is      409.2 secs

     Self-consistent Calculation

     iteration #  1     ecut=    80.00 Ry     beta= 0.40
     Davidson diagonalization with overlap

---- Real-time Memory Report at c_bands before calling an iterative solver
           205 MiB given to the printing process from OS
             0 MiB allocation reported by mallinfo(arena+hblkhd)
         47209 MiB available memory on the node where the printing process lives
------------------
     ethr =  1.00E-06,  avg # of iterations =  6.8

     total cpu time spent up to now is      444.4 secs

     total energy              =    -591.28350050 Ry
     estimated scf accuracy    <       0.02528746 Ry

     iteration #  2     ecut=    80.00 Ry     beta= 0.40
     Davidson diagonalization with overlap

---- Real-time Memory Report at c_bands before calling an iterative solver
           209 MiB given to the printing process from OS
             0 MiB allocation reported by mallinfo(arena+hblkhd)
         47081 MiB available memory on the node where the printing process lives
------------------
     ethr =  6.32E-05,  avg # of iterations =  6.3

     total cpu time spent up to now is      474.8 secs

     total energy              =    -591.24393765 Ry
     estimated scf accuracy    <       1.35891448 Ry

     iteration #  3     ecut=    80.00 Ry     beta= 0.40
     Davidson diagonalization with overlap

---- Real-time Memory Report at c_bands before calling an iterative solver
           210 MiB given to the printing process from OS
             0 MiB allocation reported by mallinfo(arena+hblkhd)
         47056 MiB available memory on the node where the printing process lives
------------------
     ethr =  6.32E-05,  avg # of iterations =  5.1

     total cpu time spent up to now is      500.5 secs

     total energy              =    -591.29683369 Ry
     estimated scf accuracy    <       0.00286631 Ry

     iteration #  4     ecut=    80.00 Ry     beta= 0.40
     Davidson diagonalization with overlap

---- Real-time Memory Report at c_bands before calling an iterative solver
           212 MiB given to the printing process from OS
             0 MiB allocation reported by mallinfo(arena+hblkhd)
         47179 MiB available memory on the node where the printing process lives
------------------
     ethr =  7.17E-06,  avg # of iterations =  3.2

     total cpu time spent up to now is      520.8 secs

     total energy              =    -591.29692428 Ry
     estimated scf accuracy    <       0.00014729 Ry

     iteration #  5     ecut=    80.00 Ry     beta= 0.40
     Davidson diagonalization with overlap

---- Real-time Memory Report at c_bands before calling an iterative solver
           213 MiB given to the printing process from OS
             0 MiB allocation reported by mallinfo(arena+hblkhd)
         47126 MiB available memory on the node where the printing process lives
------------------
     ethr =  3.68E-07,  avg # of iterations =  3.8

     total cpu time spent up to now is      543.2 secs

     total energy              =    -591.29687038 Ry
     estimated scf accuracy    <       0.00002073 Ry

     iteration #  6     ecut=    80.00 Ry     beta= 0.40
     Davidson diagonalization with overlap

---- Real-time Memory Report at c_bands before calling an iterative solver
           214 MiB given to the printing process from OS
             0 MiB allocation reported by mallinfo(arena+hblkhd)
         47167 MiB available memory on the node where the printing process lives
------------------
     ethr =  5.18E-08,  avg # of iterations =  2.6

     total cpu time spent up to now is      564.8 secs

     total energy              =    -591.29686545 Ry
     estimated scf accuracy    <       0.00002032 Ry

     iteration #  7     ecut=    80.00 Ry     beta= 0.40
     Davidson diagonalization with overlap

---- Real-time Memory Report at c_bands before calling an iterative solver
           215 MiB given to the printing process from OS
             0 MiB allocation reported by mallinfo(arena+hblkhd)
         47162 MiB available memory on the node where the printing process lives
------------------
     ethr =  5.08E-08,  avg # of iterations =  2.0

     total cpu time spent up to now is      581.5 secs

     total energy              =    -591.29686746 Ry
     estimated scf accuracy    <       0.00000370 Ry

     iteration #  8     ecut=    80.00 Ry     beta= 0.40
     Davidson diagonalization with overlap

---- Real-time Memory Report at c_bands before calling an iterative solver
           216 MiB given to the printing process from OS
             0 MiB allocation reported by mallinfo(arena+hblkhd)
         47086 MiB available memory on the node where the printing process lives
------------------
     ethr =  9.26E-09,  avg # of iterations =  3.2

     total cpu time spent up to now is      600.8 secs

     total energy              =    -591.29686779 Ry
     estimated scf accuracy    <       0.00000036 Ry

     iteration #  9     ecut=    80.00 Ry     beta= 0.40
     Davidson diagonalization with overlap

---- Real-time Memory Report at c_bands before calling an iterative solver
           217 MiB given to the printing process from OS
             0 MiB allocation reported by mallinfo(arena+hblkhd)
         46984 MiB available memory on the node where the printing process lives
------------------
     ethr =  8.94E-10,  avg # of iterations =  3.5

     total cpu time spent up to now is      620.9 secs

     total energy              =    -591.29686778 Ry
     estimated scf accuracy    <       0.00000095 Ry

     iteration # 10     ecut=    80.00 Ry     beta= 0.40
     Davidson diagonalization with overlap

---- Real-time Memory Report at c_bands before calling an iterative solver
           218 MiB given to the printing process from OS
             0 MiB allocation reported by mallinfo(arena+hblkhd)
         47037 MiB available memory on the node where the printing process lives
------------------
     ethr =  8.94E-10,  avg # of iterations =  1.1

     total cpu time spent up to now is      634.9 secs

     total energy              =    -591.29686783 Ry
     estimated scf accuracy    <       0.00000009 Ry

     iteration # 11     ecut=    80.00 Ry     beta= 0.40
     Davidson diagonalization with overlap

---- Real-time Memory Report at c_bands before calling an iterative solver
           218 MiB given to the printing process from OS
             0 MiB allocation reported by mallinfo(arena+hblkhd)
         47062 MiB available memory on the node where the printing process lives
------------------
     ethr =  2.34E-10,  avg # of iterations =  1.5

     total cpu time spent up to now is      650.0 secs

     End of self-consistent calculation

          k = 0.0000 0.0000 0.0000 (  8709 PWs)   bands (ev):

   -49.0818 -25.0357 -25.0357 -25.0357 -21.2356  -5.5547  -5.5547  -5.5547
    -5.1817  -4.1784  -4.1784   4.9101   4.9101   4.9101   6.1111   6.1111
     6.1111   6.9854   6.9854   7.1711   7.1711   7.1711   8.1726   8.1824

     occupation numbers 
     1.0000   1.0000   1.0000   1.0000   1.0000   1.0000   1.0000   1.0000
     1.0000   1.0000   1.0000   1.0000   1.0000   1.0000   1.0000   1.0000
     1.0000   1.0000   1.0000   1.0000   1.0000   1.0000   0.0000   0.0000

          k = 0.0000 0.0000 0.1234 (  8629 PWs)   bands (ev):

   -49.0818 -25.0361 -25.0357 -25.0357 -21.2340  -5.9756  -5.5518  -5.5518
    -4.9754  -4.1719  -3.8317   4.7359   4.8914   4.8914   5.7647   5.8898
     5.8898   7.0507   7.1841   7.3607   7.4441   7.4441   7.6223   8.1320

     occupation numbers 
     1.0000   1.0000   1.0000   1.0000   1.0000   1.0000   1.0000   1.0000
     1.0000   1.0000   1.0000   1.0000   1.0000   1.0000   1.0000   1.0000
     1.0000   1.0000   1.0000   0.9913   0.7405   0.7405   0.0011   0.0000

          k = 0.0000 0.0000 0.2467 (  8645 PWs)   bands (ev):

   -49.0818 -25.0369 -25.0356 -25.0356 -21.2302  -6.4706  -5.5450  -5.5450
    -4.8654  -4.1558  -3.1008   4.4171   4.8566   4.8566   5.2870   5.5232
     5.5232   6.6212   7.2159   7.2173   7.9047   7.9441   7.9445   8.0496

     occupation numbers 
     1.0000   1.0000   1.0000   1.0000   1.0000   1.0000   1.0000   1.0000
     1.0000   1.0000   1.0000   1.0000   1.0000   1.0000   1.0000   1.0000
     1.0000   1.0000   1.0000   1.0000   0.0000   0.0000   0.0000   0.0000

          k = 0.0000 0.0000 0.3701 (  8686 PWs)   bands (ev):

   -49.0817 -25.0377 -25.0356 -25.0356 -21.2264  -6.7968  -5.5382  -5.5382
    -4.8147  -4.1397  -2.4296   4.2331   4.8489   4.8489   4.9573   5.2250
     5.2250   5.6187   7.2486   7.4001   7.9838   7.9838   8.2958   8.3828

     occupation numbers 
     1.0000   1.0000   1.0000   1.0000   1.0000   1.0000   1.0000   1.0000
     1.0000   1.0000   1.0000   1.0000   1.0000   1.0000   1.0000   1.0000
     1.0000   1.0000   1.0000   0.9406   0.0000   0.0000   0.0000   0.0000

          k = 0.0000 0.0000-0.4935 (  8722 PWs)   bands (ev):

   -49.0817 -25.0380 -25.0355 -25.0355 -21.2248  -6.9093  -5.5353  -5.5353
    -4.7976  -4.1329  -2.1508   4.2346   4.8415   4.8694   4.8694   5.0926
     5.0926   5.1415   7.2624   7.4821   7.9602   7.9602   8.4355   8.5626

     occupation numbers 
     1.0000   1.0000   1.0000   1.0000   1.0000   1.0000   1.0000   1.0000
     1.0000   1.0000   1.0000   1.0000   1.0000   1.0000   1.0000   1.0000
     1.0000   1.0000   1.0000   0.4426   0.0000   0.0000   0.0000   0.0000

          k = 0.0000 0.1234 0.1234 (  8682 PWs)   bands (ev):

   -49.0818 -25.0360 -25.0360 -25.0357 -21.2324  -6.0256  -5.8956  -5.5490
    -4.7622  -3.9436  -3.7383   4.4897   4.8710   4.9768   5.3828   5.7180
     6.0202   7.1265   7.2789   7.3151   7.5347   7.5492   7.7844   7.7887

     occupation numbers 
     1.0000   1.0000   1.0000   1.0000   1.0000   1.0000   1.0000   1.0000
     1.0000   1.0000   1.0000   1.0000   1.0000   1.0000   1.0000   1.0000
     1.0000   1.0000   1.0000   0.9996   0.1078   0.0619   0.0000   0.0000

          k = 0.0000 0.1234 0.2467 (  8672 PWs)   bands (ev):

   -49.0818 -25.0368 -25.0360 -25.0356 -21.2286  -6.4661  -5.9382  -5.5421
    -4.6482  -3.8563  -3.0889   4.1468   4.8312   4.9436   5.0098   5.4028
     5.8641   6.6181   7.2764   7.3900   7.5953   7.7397   7.9544   7.9975

     occupation numbers 
     1.0000   1.0000   1.0000   1.0000   1.0000   1.0000   1.0000   1.0000
     1.0000   1.0000   1.0000   1.0000   1.0000   1.0000   1.0000   1.0000
     1.0000   1.0000   1.0000   0.9616   0.0063   0.0000   0.0000   0.0000

          k = 0.0000 0.1234 0.3701 (  8700 PWs)   bands (ev):

   -49.0817 -25.0376 -25.0359 -25.0355 -21.2248  -6.7904  -5.9289  -5.5351
    -4.6028  -3.8348  -2.4225   3.9258   4.7245   4.8174   4.9181   5.1329
     5.5255   5.8347   7.4236   7.4419   7.5897   7.9204   8.0985   8.3719

     occupation numbers 
     1.0000   1.0000   1.0000   1.0000   1.0000   1.0000   1.0000   1.0000
     1.0000   1.0000   1.0000   1.0000   1.0000   1.0000   1.0000   1.0000
     1.0000   1.0000   0.8580   0.7551   0.0086   0.0000   0.0000   0.0000

          k = 0.0000 0.1234-0.4935 (  8686 PWs)   bands (ev):

   -49.0817 -25.0379 -25.0359 -25.0355 -21.2233  -6.9026  -5.9244  -5.5323
    -4.5883  -3.8273  -2.1435   3.8741   4.6902   4.8366   4.8390   5.0082
     5.1642   5.7034   7.4368   7.5302   7.5670   7.8927   8.3636   8.3638

     occupation numbers 
     1.0000   1.0000   1.0000   1.0000   1.0000   1.0000   1.0000   1.0000
     1.0000   1.0000   1.0000   1.0000   1.0000   1.0000   1.0000   1.0000
     1.0000   1.0000   0.7873   0.1260   0.0281   0.0000   0.0000   0.0000

          k = 0.0000 0.2467 0.2467 (  8664 PWs)   bands (ev):

   -49.0817 -25.0368 -25.0367 -25.0355 -21.2249  -6.4902  -6.3970  -5.5350
    -4.5452  -3.2182  -2.9810   3.7136   4.7525   4.7773   5.0404   5.1616
     6.1312   6.3588   6.9373   7.3798   7.6986   7.7873   7.8938   8.0573

     occupation numbers 
     1.0000   1.0000   1.0000   1.0000   1.0000   1.0000   1.0000   1.0000
     1.0000   1.0000   1.0000   1.0000   1.0000   1.0000   1.0000   1.0000
     1.0000   1.0000   1.0000   0.9762   0.0000   0.0000   0.0000   0.0000

          k = 0.0000 0.2467 0.3701 (  8671 PWs)   bands (ev):

   -49.0817 -25.0375 -25.0367 -25.0355 -21.2212  -6.7750  -6.4260  -5.5278
    -4.5104  -3.0976  -2.4039   3.4041   4.6722   4.7447   4.9444   4.9998
     5.5614   6.2937   6.7298   7.5119   7.7692   7.8513   7.9888   8.2296

     occupation numbers 
     1.0000   1.0000   1.0000   1.0000   1.0000   1.0000   1.0000   1.0000
     1.0000   1.0000   1.0000   1.0000   1.0000   1.0000   1.0000   1.0000
     1.0000   1.0000   1.0000   0.2224   0.0000   0.0000   0.0000   0.0000

          k = 0.0000 0.2467-0.4935 (  8708 PWs)   bands (ev):

   -49.0817 -25.0378 -25.0366 -25.0355 -21.2196  -6.8866  -6.4215  -5.5248
    -4.5000  -3.0851  -2.1255   3.3009   4.7570   4.7767   4.8339   4.8372
     5.1970   6.3354   6.6818   7.6381   7.7546   7.8514   8.0120   8.2348

     occupation numbers 
     1.0000   1.0000   1.0000   1.0000   1.0000   1.0000   1.0000   1.0000
     1.0000   1.0000   1.0000   1.0000   1.0000   1.0000   1.0000   1.0000
     1.0000   1.0000   1.0000   0.0004   0.0000   0.0000   0.0000   0.0000

          k = 0.0000 0.3701 0.3701 (  8672 PWs)   bands (ev):

   -49.0817 -25.0374 -25.0374 -25.0354 -21.2175  -6.7710  -6.7430  -5.5204
    -4.4838  -2.4443  -2.3491   3.0326   4.6747   4.6831   4.7777   5.0704
     5.4027   5.9797   6.6176   7.5061   7.6808   7.9424   8.2098   8.2215

     occupation numbers 
     1.0000   1.0000   1.0000   1.0000   1.0000   1.0000   1.0000   1.0000
     1.0000   1.0000   1.0000   1.0000   1.0000   1.0000   1.0000   1.0000
     1.0000   1.0000   1.0000   0.2596   0.0000   0.0000   0.0000   0.0000

          k = 0.0000 0.3701-0.4935 (  8664 PWs)   bands (ev):

   -49.0817 -25.0377 -25.0374 -25.0354 -21.2159  -6.8703  -6.7503  -5.5173
    -4.4767  -2.3902  -2.1067   2.9032   4.6769   4.6961   4.7058   5.0437
     5.1893   5.8793   6.6727   7.5842   7.6447   7.7487   8.2906   8.3112

     occupation numbers 
     1.0000   1.0000   1.0000   1.0000   1.0000   1.0000   1.0000   1.0000
     1.0000   1.0000   1.0000   1.0000   1.0000   1.0000   1.0000   1.0000
     1.0000   1.0000   1.0000   0.0117   0.0002   0.0000   0.0000   0.0000

          k = 0.0000-0.4935-0.4935 (  8604 PWs)   bands (ev):

   -49.0817 -25.0377 -25.0377 -25.0354 -21.2144  -6.8636  -6.8636  -5.5142
    -4.4707  -2.0987  -2.0987   2.7636   4.6437   4.6437   4.6562   5.1476
     5.1476   5.6020   6.7637   7.4933   7.6554   8.4104   8.4912   8.4913

     occupation numbers 
     1.0000   1.0000   1.0000   1.0000   1.0000   1.0000   1.0000   1.0000
     1.0000   1.0000   1.0000   1.0000   1.0000   1.0000   1.0000   1.0000
     1.0000   1.0000   1.0000   0.3526   0.0001   0.0000   0.0000   0.0000

          k = 0.1234 0.1234 0.1234 (  8646 PWs)   bands (ev):

   -49.0818 -25.0360 -25.0360 -25.0360 -21.2308  -6.0637  -5.8921  -5.8921
    -4.4571  -3.7331  -3.7331   4.3001   4.8968   4.8968   5.3673   5.3673
     6.2698   7.1627   7.1627   7.1882   7.5692   7.7485   7.7485   7.9028

     occupation numbers 
     1.0000   1.0000   1.0000   1.0000   1.0000   1.0000   1.0000   1.0000
     1.0000   1.0000   1.0000   1.0000   1.0000   1.0000   1.0000   1.0000
     1.0000   1.0000   1.0000   1.0000   0.0253   0.0000   0.0000   0.0000

          k = 0.1234 0.1234 0.2467 (  8652 PWs)   bands (ev):

   -49.0817 -25.0368 -25.0359 -25.0359 -21.2271  -6.4619  -5.9753  -5.8836
    -4.2779  -3.7204  -3.0786   3.9989   4.6197   4.8106   5.1428   5.3537
     6.1343   6.5777   7.2568   7.4480   7.4999   7.5948   7.7147   8.0510

     occupation numbers 
     1.0000   1.0000   1.0000   1.0000   1.0000   1.0000   1.0000   1.0000
     1.0000   1.0000   1.0000   1.0000   1.0000   1.0000   1.0000   1.0000
     1.0000   1.0000   1.0000   0.7133   0.3035   0.0064   0.0000   0.0000

          k = 0.1234 0.1234 0.3701 (  8695 PWs)   bands (ev):

   -49.0817 -25.0376 -25.0359 -25.0359 -21.2233  -6.7844  -5.9669  -5.8751
    -4.2230  -3.7075  -2.4161   3.8084   4.3466   4.6731   5.0783   5.2918
     5.7449   5.8970   7.3756   7.4432   7.6254   7.6530   8.0312   8.1856

     occupation numbers 
     1.0000   1.0000   1.0000   1.0000   1.0000   1.0000   1.0000   1.0000
     1.0000   1.0000   1.0000   1.0000   1.0000   1.0000   1.0000   1.0000
     1.0000   1.0000   0.9807   0.7466   0.0009   0.0001   0.0000   0.0000

          k = 0.1234 0.1234-0.4935 (  8720 PWs)   bands (ev):

   -49.0817 -25.0379 -25.0358 -25.0358 -21.2218  -6.8965  -5.9621  -5.8715
    -4.2075  -3.7021  -2.1371   3.7702   4.2446   4.5932   5.0650   5.1478
     5.4994   5.7997   7.4156   7.4247   7.6135   7.7261   8.2530   8.2960

     occupation numbers 
     1.0000   1.0000   1.0000   1.0000   1.0000   1.0000   1.0000   1.0000
     1.0000   1.0000   1.0000   1.0000   1.0000   1.0000   1.0000   1.0000
     1.0000   1.0000   0.8921   0.8529   0.0020   0.0000   0.0000   0.0000

          k = 0.1234 0.2467 0.2467 (  8660 PWs)   bands (ev):

   -49.0817 -25.0367 -25.0367 -25.0359 -21.2234  -6.4864  -6.3933  -5.9149
    -4.0628  -3.1912  -2.9777   3.6761   4.3730   4.5988   5.1797   5.4162
     6.3170   6.3498   6.9284   7.3381   7.5408   7.5474   7.6385   8.2910

     occupation numbers 
     1.0000   1.0000   1.0000   1.0000   1.0000   1.0000   1.0000   1.0000
     1.0000   1.0000   1.0000   1.0000   1.0000   1.0000   1.0000   1.0000
     1.0000   1.0000   1.0000   0.9978   0.0861   0.0665   0.0003   0.0000

          k = 0.1234 0.2467 0.3701 (  8663 PWs)   bands (ev):

   -49.0817 -25.0375 -25.0366 -25.0358 -21.2196  -6.7700  -6.4232  -5.9071
    -4.0162  -3.0854  -2.3997   3.4177   4.2025   4.4515   5.1536   5.3864
     5.6985   6.3657   6.7092   7.4086   7.5117   7.7420   7.9546   8.2256

     occupation numbers 
     1.0000   1.0000   1.0000   1.0000   1.0000   1.0000   1.0000   1.0000
     1.0000   1.0000   1.0000   1.0000   1.0000   1.0000   1.0000   1.0000
     1.0000   1.0000   1.0000   0.9166   0.2237   0.0000   0.0000   0.0000

          k = 0.1234 0.2467-0.4935 (  8686 PWs)   bands (ev):

   -49.0817 -25.0378 -25.0366 -25.0358 -21.2181  -6.8814  -6.4190  -5.9035
    -4.0046  -3.0748  -2.1213   3.3309   4.1625   4.3741   5.0487   5.2872
     5.5495   6.3684   6.6452   7.4236   7.5311   7.9760   8.0062   8.1972

     occupation numbers 
     1.0000   1.0000   1.0000   1.0000   1.0000   1.0000   1.0000   1.0000
     1.0000   1.0000   1.0000   1.0000   1.0000   1.0000   1.0000   1.0000
     1.0000   1.0000   1.0000   0.8581   0.1223   0.0000   0.0000   0.0000

          k = 0.1234 0.3701 0.3701 (  8669 PWs)   bands (ev):

   -49.0817 -25.0374 -25.0374 -25.0357 -21.2159  -6.7668  -6.7394  -5.9004
    -3.9795  -2.4412  -2.3476   3.0821   4.1723   4.3145   5.0195   5.4850
     5.5801   6.0688   6.6697   7.2996   7.5412   7.8472   8.0112   8.2661

     occupation numbers 
     1.0000   1.0000   1.0000   1.0000   1.0000   1.0000   1.0000   1.0000
     1.0000   1.0000   1.0000   1.0000   1.0000   1.0000   1.0000   1.0000
     1.0000   1.0000   1.0000   0.9999   0.0846   0.0000   0.0000   0.0000

          k = 0.1234 0.3701-0.4935 (  8692 PWs)   bands (ev):

   -49.0817 -25.0377 -25.0374 -25.0357 -21.2144  -6.8663  -6.7468  -5.8972
    -3.9712  -2.3889  -2.1049   2.9622   4.1995   4.2393   4.8411   5.4615
     5.5917   5.9344   6.7231   7.2699   7.5824   7.7517   8.1198   8.3833

     occupation numbers 
     1.0000   1.0000   1.0000   1.0000   1.0000   1.0000   1.0000   1.0000
     1.0000   1.0000   1.0000   1.0000   1.0000   1.0000   1.0000   1.0000
     1.0000   1.0000   1.0000   1.0000   0.0128   0.0000   0.0000   0.0000

          k = 0.1234-0.4935-0.4935 (  8664 PWs)   bands (ev):

   -49.0817 -25.0377 -25.0377 -25.0357 -21.2129  -6.8600  -6.8600  -5.8942
    -3.9641  -2.0980  -2.0980   2.8304   4.2145   4.2145   4.6556   5.6069
     5.6351   5.6351   6.8146   7.1941   7.5081   7.6796   8.3324   8.4222

     occupation numbers 
     1.0000   1.0000   1.0000   1.0000   1.0000   1.0000   1.0000   1.0000
     1.0000   1.0000   1.0000   1.0000   1.0000   1.0000   1.0000   1.0000
     1.0000   1.0000   1.0000   1.0000   0.2466   0.0000   0.0000   0.0000

          k = 0.2467 0.2467 0.2467 (  8658 PWs)   bands (ev):

   -49.0817 -25.0367 -25.0366 -25.0366 -21.2197  -6.5018  -6.3842  -6.3842
    -3.4490  -2.9696  -2.9696   3.5380   4.1389   4.1389   5.5172   5.5172
     6.0562   6.6923   6.9037   6.9037   7.3916   7.3916   7.5418   8.4905

     occupation numbers 
     1.0000   1.0000   1.0000   1.0000   1.0000   1.0000   1.0000   1.0000
     1.0000   1.0000   1.0000   1.0000   1.0000   1.0000   1.0000   1.0000
     1.0000   1.0000   1.0000   1.0000   0.9586   0.9586   0.0829   0.0000

          k = 0.2467 0.2467 0.3701 (  8660 PWs)   bands (ev):

   -49.0817 -25.0374 -25.0366 -25.0365 -21.2159  -6.7580  -6.4445  -6.3750
    -3.3083  -2.9614  -2.3888   3.3807   3.8293   4.0546   5.3375   5.5628
     5.8988   6.5527   6.6564   6.8892   7.4402   7.6587   7.7090   8.4100

     occupation numbers 
     1.0000   1.0000   1.0000   1.0000   1.0000   1.0000   1.0000   1.0000
     1.0000   1.0000   1.0000   1.0000   1.0000   1.0000   1.0000   1.0000
     1.0000   1.0000   1.0000   1.0000   0.7662   0.0001   0.0000   0.0000

          k = 0.2467 0.2467-0.4935 (  8672 PWs)   bands (ev):

   -49.0817 -25.0377 -25.0365 -25.0365 -21.2144  -6.8690  -6.4414  -6.3712
    -3.2884  -2.9580  -2.1110   3.3274   3.7210   4.0258   5.0343   5.5819
     6.0490   6.3759   6.5832   6.8864   7.4748   7.8401   8.0037   8.2569

     occupation numbers 
     1.0000   1.0000   1.0000   1.0000   1.0000   1.0000   1.0000   1.0000
     1.0000   1.0000   1.0000   1.0000   1.0000   1.0000   1.0000   1.0000
     1.0000   1.0000   1.0000   1.0000   0.5024   0.0000   0.0000   0.0000

          k = 0.2467 0.3701 0.3701 (  8664 PWs)   bands (ev):

   -49.0817 -25.0373 -25.0373 -25.0365 -21.2122  -6.7567  -6.7305  -6.3992
    -3.1526  -2.4307  -2.3438   3.2016   3.7356   3.8314   5.0611   5.7334
     5.8934   6.3625   6.6856   6.8754   7.5161   7.6501   7.7096   8.3016

     occupation numbers 
     1.0000   1.0000   1.0000   1.0000   1.0000   1.0000   1.0000   1.0000
     1.0000   1.0000   1.0000   1.0000   1.0000   1.0000   1.0000   1.0000
     1.0000   1.0000   1.0000   1.0000   0.1974   0.0001   0.0000   0.0000

          k = 0.2467 0.3701-0.4935 (  8658 PWs)   bands (ev):

   -49.0817 -25.0376 -25.0373 -25.0364 -21.2107  -6.8565  -6.7384  -6.3963
    -3.1389  -2.3846  -2.1005   3.1130   3.6941   3.7996   4.8147   5.7057
     6.0909   6.2268   6.6404   6.8890   7.5604   7.6618   7.9043   8.2412

     occupation numbers 
     1.0000   1.0000   1.0000   1.0000   1.0000   1.0000   1.0000   1.0000
     1.0000   1.0000   1.0000   1.0000   1.0000   1.0000   1.0000   1.0000
     1.0000   1.0000   1.0000   1.0000   0.0381   0.0001   0.0000   0.0000

          k = 0.2467-0.4935-0.4935 (  8620 PWs)   bands (ev):

   -49.0817 -25.0376 -25.0376 -25.0364 -21.2092  -6.8513  -6.8513  -6.3938
    -3.1273  -2.0961  -2.0961   3.0055   3.7286   3.7286   4.6179   5.6187
     6.2927   6.2927   6.4297   6.9629   7.5423   7.5842   8.1199   8.2126

     occupation numbers 
     1.0000   1.0000   1.0000   1.0000   1.0000   1.0000   1.0000   1.0000
     1.0000   1.0000   1.0000   1.0000   1.0000   1.0000   1.0000   1.0000
     1.0000   1.0000   1.0000   1.0000   0.0814   0.0117   0.0000   0.0000

          k = 0.3701 0.3701 0.3701 (  8684 PWs)   bands (ev):

   -49.0817 -25.0372 -25.0372 -25.0372 -21.2085  -6.7547  -6.7216  -6.7216
    -2.5156  -2.3399  -2.3399   3.2753   3.5138   3.5138   4.8339   5.8069
     5.8069   6.6125   6.6125   7.1912   7.5128   7.5142   7.5142   8.2538

     occupation numbers 
     1.0000   1.0000   1.0000   1.0000   1.0000   1.0000   1.0000   1.0000
     1.0000   1.0000   1.0000   1.0000   1.0000   1.0000   1.0000   1.0000
     1.0000   1.0000   1.0000   1.0000   0.2165   0.2085   0.2085   0.0000

          k = 0.3701 0.3701-0.4935 (  8674 PWs)   bands (ev):

   -49.0817 -25.0375 -25.0372 -25.0372 -21.2070  -6.8466  -6.7392  -6.7179
    -2.4570  -2.3383  -2.0960   3.2460   3.4037   3.5082   4.6249   5.7426
     5.8265   6.6875   6.7306   7.1596   7.5138   7.5441   7.7350   7.9980

     occupation numbers 
     1.0000   1.0000   1.0000   1.0000   1.0000   1.0000   1.0000   1.0000
     1.0000   1.0000   1.0000   1.0000   1.0000   1.0000   1.0000   1.0000
     1.0000   1.0000   1.0000   1.0000   0.2109   0.0757   0.0000   0.0000

          k = 0.3701-0.4935-0.4935 (  8652 PWs)   bands (ev):

   -49.0817 -25.0375 -25.0375 -25.0372 -21.2055  -6.8425  -6.8425  -6.7249
    -2.3979  -2.0941  -2.0941   3.2055   3.4089   3.4089   4.4535   5.6307
     5.8185   6.8992   6.8992   7.1940   7.4736   7.5676   7.8264   7.8719

     occupation numbers 
     1.0000   1.0000   1.0000   1.0000   1.0000   1.0000   1.0000   1.0000
     1.0000   1.0000   1.0000   1.0000   1.0000   1.0000   1.0000   1.0000
     1.0000   1.0000   1.0000   1.0000   0.5124   0.0273   0.0000   0.0000

          k =-0.4935-0.4935-0.4935 (  8552 PWs)   bands (ev):

   -49.0817 -25.0375 -25.0375 -25.0375 -21.2039  -6.8389  -6.8389  -6.8389
    -2.0933  -2.0933  -2.0933   3.2982   3.2982   3.2982   4.3073   5.6357
     5.6357   7.4258   7.4258   7.4258   7.4295   7.4295   7.4295   7.5655

     occupation numbers 
     1.0000   1.0000   1.0000   1.0000   1.0000   1.0000   1.0000   1.0000
     1.0000   1.0000   1.0000   1.0000   1.0000   1.0000   1.0000   1.0000
     1.0000   0.8474   0.8474   0.8474   0.8283   0.8283   0.8283   0.0301

     the Fermi energy is     7.4751 ev

!    total energy              =    -591.29686784 Ry
     estimated scf accuracy    <          1.3E-10 Ry
     smearing contrib. (-TS)   =      -0.00225647 Ry
     internal energy E=F+TS    =    -591.29461137 Ry

     The total energy is F=E-TS. E is the sum of the following terms:
     one-electron contribution =     -53.08699722 Ry
     hartree contribution      =      43.78186684 Ry
     xc contribution           =     -44.80876364 Ry
     ewald contribution        =    -180.00627219 Ry
     one-center paw contrib.   =    -357.17444517 Ry
      -> PAW hartree energy AE =       0.00000000 Ry
      -> PAW hartree energy PS =       0.00000000 Ry
      -> PAW xc energy AE      =       0.00000000 Ry
      -> PAW xc energy PS      =       0.00000000 Ry
      -> total E_H with PAW    =      43.78186684 Ry
      -> total E_XC with PAW   =     -44.80876364 Ry

     convergence has been achieved in  11 iterations

     Forces acting on atoms (cartesian axes, Ry/au):

     atom    1 type  1   force =     0.00000000    0.00000000    0.00000000
     atom    2 type  2   force =     0.00000000    0.00000000    0.00000000
     atom    3 type  3   force =     0.00000000    0.00000000    0.00000000
     atom    4 type  3   force =     0.00000000    0.00000000    0.00000000
     atom    5 type  3   force =     0.00000000    0.00000000    0.00000000
     The non-local contrib.  to forces
     atom    1 type  1   force =     0.00000000    0.00000000    0.00000000
     atom    2 type  2   force =     0.00000000    0.00000000    0.00000000
     atom    3 type  3   force =     0.00000000    0.00000000    0.00000000
     atom    4 type  3   force =     0.00000000    0.00000000    0.00000000
     atom    5 type  3   force =     0.00000000    0.00000000    0.00000000
     The ionic contribution  to forces
     atom    1 type  1   force =    -0.00000000   -0.00000000   -0.00000000
     atom    2 type  2   force =     0.00000000    0.00000000    0.00000000
     atom    3 type  3   force =     0.00000000    0.00000000    0.00000000
     atom    4 type  3   force =     0.00000000    0.00000000    0.00000000
     atom    5 type  3   force =     0.00000000    0.00000000    0.00000000
     The local contribution  to forces
     atom    1 type  1   force =    -0.00000000   -0.00000000    0.00000000
     atom    2 type  2   force =    -0.00000000   -0.00000000   -0.00000000
     atom    3 type  3   force =    -0.00000000   -0.00000000    0.00000000
     atom    4 type  3   force =     0.00000000   -0.00000000   -0.00000000
     atom    5 type  3   force =     0.00000000   -0.00000000   -0.00000000
     The core correction contribution to forces
     atom    1 type  1   force =     0.00000000    0.00000000    0.00000000
     atom    2 type  2   force =     0.00000000    0.00000000    0.00000000
     atom    3 type  3   force =    -0.00000000    0.00000000   -0.00000000
     atom    4 type  3   force =     0.00000000   -0.00000000    0.00000000
     atom    5 type  3   force =     0.00000000    0.00000000   -0.00000000
     The Hubbard contrib.    to forces
     atom    1 type  1   force =     0.00000000    0.00000000    0.00000000
     atom    2 type  2   force =     0.00000000    0.00000000    0.00000000
     atom    3 type  3   force =     0.00000000    0.00000000    0.00000000
     atom    4 type  3   force =     0.00000000    0.00000000    0.00000000
     atom    5 type  3   force =     0.00000000    0.00000000    0.00000000
     The SCF correction term to forces
     atom    1 type  1   force =    -0.00000000    0.00000000    0.00000000
     atom    2 type  2   force =    -0.00000000    0.00000000   -0.00000000
     atom    3 type  3   force =     0.00000000    0.00000000    0.00000000
     atom    4 type  3   force =     0.00000000   -0.00000000    0.00000000
     atom    5 type  3   force =     0.00000000   -0.00000000    0.00000000

     Total force =     0.000000     Total SCF correction =     0.000000


     Computing stress (Cartesian axis) and pressure

          total   stress  (Ry/bohr**3)                   (kbar)     P=       55.52
   0.00037743   0.00000000   0.00000000           55.52        0.00        0.00
   0.00000000   0.00037743   0.00000000            0.00       55.52        0.00
   0.00000000   0.00000000   0.00037743            0.00        0.00       55.52

     kinetic stress (kbar)  12018.07      0.00      0.00
                                0.00  12018.07      0.00
                                0.00      0.00  12018.07

     local   stress (kbar)  -5034.41     -0.00      0.00
                               -0.00  -5034.41      0.00
                                0.00      0.00  -5034.41

     nonloc. stress (kbar)   4618.38      0.00      0.00
                                0.00   4618.38      0.00
                                0.00      0.00   4618.38

     hartree stress (kbar)   2875.80      0.00      0.00
                                0.00   2875.80     -0.00
                                0.00     -0.00   2875.80

     exc-cor stress (kbar)   -717.72     -0.00     -0.00
                               -0.00   -717.72      0.00
                               -0.00      0.00   -717.72

     corecor stress (kbar)  -1880.93     -0.00     -0.00
                               -0.00  -1880.93      0.00
                               -0.00      0.00  -1880.93

     ewald   stress (kbar) -11823.67      0.00     -0.00
                                0.00 -11823.67     -0.00
                               -0.00     -0.00 -11823.67

     hubbard stress (kbar)      0.00      0.00      0.00
                                0.00      0.00      0.00
                                0.00      0.00      0.00

     DFT-D   stress (kbar)      0.00      0.00      0.00
                                0.00      0.00      0.00
                                0.00      0.00      0.00

     XDM     stress (kbar)      0.00      0.00      0.00
                                0.00      0.00      0.00
                                0.00      0.00      0.00

     dft-nl  stress (kbar)      0.00      0.00      0.00
                                0.00      0.00      0.00
                                0.00      0.00      0.00

     TS-vdW  stress (kbar)      0.00      0.00      0.00
                                0.00      0.00      0.00
                                0.00      0.00      0.00

     MDB     stress (kbar)      0.00      0.00      0.00
                                0.00      0.00      0.00
                                0.00      0.00      0.00

     3D-RISM stress (kbar)      0.00      0.00      0.00
                                0.00      0.00      0.00
                                0.00      0.00      0.00

     Energy error            =      1.3E-02 Ry
     Gradient error          =      0.0E+00 Ry/Bohr
     Cell gradient error     =      5.6E+01 kbar

     number of scf cycles    =   2
     number of bfgs steps    =   1

     enthalpy           old  =    -591.2837988954 Ry
     enthalpy           new  =    -591.2968678388 Ry

     CASE: enthalpy          _new < enthalpy          _old

     new trust radius        =       0.0786755041 bohr
     new conv_thr            =            1.0E-10 Ry

     new unit-cell volume =    779.23098 a.u.^3 (   115.47012 Ang^3 )
     density =      3.28145 g/cm^3

CELL_PARAMETERS (angstrom)
   4.869561671   0.000000000   0.000000000
   0.000000000   4.869561671   0.000000000
   0.000000000   0.000000000   4.869561671

ATOMIC_POSITIONS (crystal)
K                0.0000000000        0.0000000000        0.0000000000
Nb               0.5000000000        0.5000000000        0.5000000000
S                0.5000000000        0.0000000000        0.0000000000
S                0.0000000000        0.5000000000        0.0000000000
S                0.0000000000        0.0000000000        0.5000000000



     Writing config-only to output data dir ./tmp/knbs3.save/ :
     XML data file
     NEW-OLD atomic charge density approx. for the potential

     total cpu time spent up to now is      667.9 secs

     Self-consistent Calculation

     iteration #  1     ecut=    80.00 Ry     beta= 0.40
     Davidson diagonalization with overlap

---- Real-time Memory Report at c_bands before calling an iterative solver
           218 MiB given to the printing process from OS
             0 MiB allocation reported by mallinfo(arena+hblkhd)
         47086 MiB available memory on the node where the printing process lives
------------------
     ethr =  1.00E-06,  avg # of iterations =  6.7

     total cpu time spent up to now is      705.1 secs

     total energy              =    -591.29084809 Ry
     estimated scf accuracy    <       0.02992460 Ry

     iteration #  2     ecut=    80.00 Ry     beta= 0.40
     Davidson diagonalization with overlap

---- Real-time Memory Report at c_bands before calling an iterative solver
           218 MiB given to the printing process from OS
             0 MiB allocation reported by mallinfo(arena+hblkhd)
         46980 MiB available memory on the node where the printing process lives
------------------
     ethr =  7.48E-05,  avg # of iterations =  6.3

     total cpu time spent up to now is      736.7 secs

     total energy              =    -591.23349748 Ry
     estimated scf accuracy    <       2.04575815 Ry

     iteration #  3     ecut=    80.00 Ry     beta= 0.40
     Davidson diagonalization with overlap

---- Real-time Memory Report at c_bands before calling an iterative solver
           218 MiB given to the printing process from OS
             0 MiB allocation reported by mallinfo(arena+hblkhd)
         46960 MiB available memory on the node where the printing process lives
------------------
     ethr =  7.48E-05,  avg # of iterations =  5.1

     total cpu time spent up to now is      763.2 secs

     total energy              =    -591.30677790 Ry
     estimated scf accuracy    <       0.00278105 Ry

     iteration #  4     ecut=    80.00 Ry     beta= 0.40
     Davidson diagonalization with overlap

---- Real-time Memory Report at c_bands before calling an iterative solver
           218 MiB given to the printing process from OS
             0 MiB allocation reported by mallinfo(arena+hblkhd)
         47015 MiB available memory on the node where the printing process lives
------------------
     ethr =  6.95E-06,  avg # of iterations =  3.1

     total cpu time spent up to now is      783.7 secs

     total energy              =    -591.30684468 Ry
     estimated scf accuracy    <       0.00014260 Ry

     iteration #  5     ecut=    80.00 Ry     beta= 0.40
     Davidson diagonalization with overlap

---- Real-time Memory Report at c_bands before calling an iterative solver
           218 MiB given to the printing process from OS
             0 MiB allocation reported by mallinfo(arena+hblkhd)
         46924 MiB available memory on the node where the printing process lives
------------------
     ethr =  3.56E-07,  avg # of iterations =  4.2

     total cpu time spent up to now is      807.2 secs

     total energy              =    -591.30679334 Ry
     estimated scf accuracy    <       0.00002914 Ry

     iteration #  6     ecut=    80.00 Ry     beta= 0.40
     Davidson diagonalization with overlap

---- Real-time Memory Report at c_bands before calling an iterative solver
           218 MiB given to the printing process from OS
             0 MiB allocation reported by mallinfo(arena+hblkhd)
         46831 MiB available memory on the node where the printing process lives
------------------
     ethr =  7.28E-08,  avg # of iterations =  2.1

     total cpu time spent up to now is      825.8 secs

     total energy              =    -591.30678606 Ry
     estimated scf accuracy    <       0.00004636 Ry

     iteration #  7     ecut=    80.00 Ry     beta= 0.40
     Davidson diagonalization with overlap

---- Real-time Memory Report at c_bands before calling an iterative solver
           218 MiB given to the printing process from OS
             0 MiB allocation reported by mallinfo(arena+hblkhd)
         46916 MiB available memory on the node where the printing process lives
------------------
     ethr =  7.28E-08,  avg # of iterations =  2.0

     total cpu time spent up to now is      841.8 secs

     total energy              =    -591.30678934 Ry
     estimated scf accuracy    <       0.00000672 Ry

     iteration #  8     ecut=    80.00 Ry     beta= 0.40
     Davidson diagonalization with overlap

---- Real-time Memory Report at c_bands before calling an iterative solver
           218 MiB given to the printing process from OS
             0 MiB allocation reported by mallinfo(arena+hblkhd)
         46886 MiB available memory on the node where the printing process lives
------------------
     ethr =  1.68E-08,  avg # of iterations =  2.8

     total cpu time spent up to now is      860.6 secs

     total energy              =    -591.30678975 Ry
     estimated scf accuracy    <       0.00000012 Ry

     iteration #  9     ecut=    80.00 Ry     beta= 0.40
     Davidson diagonalization with overlap

---- Real-time Memory Report at c_bands before calling an iterative solver
           218 MiB given to the printing process from OS
             0 MiB allocation reported by mallinfo(arena+hblkhd)
         46873 MiB available memory on the node where the printing process lives
------------------
     ethr =  3.01E-10,  avg # of iterations =  5.3

     total cpu time spent up to now is      887.4 secs

     total energy              =    -591.30679066 Ry
     estimated scf accuracy    <       0.00000009 Ry

     iteration # 10     ecut=    80.00 Ry     beta= 0.40
     Davidson diagonalization with overlap

---- Real-time Memory Report at c_bands before calling an iterative solver
           218 MiB given to the printing process from OS
             0 MiB allocation reported by mallinfo(arena+hblkhd)
         46923 MiB available memory on the node where the printing process lives
------------------
     ethr =  2.24E-10,  avg # of iterations =  2.1

     total cpu time spent up to now is      904.5 secs

     total energy              =    -591.30679066 Ry
     estimated scf accuracy    <       0.00000022 Ry

     iteration # 11     ecut=    80.00 Ry     beta= 0.40
     Davidson diagonalization with overlap

---- Real-time Memory Report at c_bands before calling an iterative solver
           219 MiB given to the printing process from OS
             0 MiB allocation reported by mallinfo(arena+hblkhd)
         46939 MiB available memory on the node where the printing process lives
------------------
     ethr =  2.24E-10,  avg # of iterations =  1.0

     total cpu time spent up to now is      918.6 secs

     total energy              =    -591.30679067 Ry
     estimated scf accuracy    <       0.00000002 Ry

     iteration # 12     ecut=    80.00 Ry     beta= 0.40
     Davidson diagonalization with overlap

---- Real-time Memory Report at c_bands before calling an iterative solver
           219 MiB given to the printing process from OS
             0 MiB allocation reported by mallinfo(arena+hblkhd)
         46760 MiB available memory on the node where the printing process lives
------------------
     ethr =  4.93E-11,  avg # of iterations =  1.2

     total cpu time spent up to now is      932.2 secs

     total energy              =    -591.30679067 Ry
     estimated scf accuracy    <          2.5E-10 Ry

     iteration # 13     ecut=    80.00 Ry     beta= 0.40
     Davidson diagonalization with overlap

---- Real-time Memory Report at c_bands before calling an iterative solver
           219 MiB given to the printing process from OS
             0 MiB allocation reported by mallinfo(arena+hblkhd)
         46840 MiB available memory on the node where the printing process lives
------------------
     ethr =  6.35E-13,  avg # of iterations =  5.1

     total cpu time spent up to now is      958.9 secs

     total energy              =    -591.30679067 Ry
     estimated scf accuracy    <          1.8E-10 Ry

     iteration # 14     ecut=    80.00 Ry     beta= 0.40
     Davidson diagonalization with overlap

---- Real-time Memory Report at c_bands before calling an iterative solver
           219 MiB given to the printing process from OS
             0 MiB allocation reported by mallinfo(arena+hblkhd)
         46841 MiB available memory on the node where the printing process lives
------------------
     ethr =  4.39E-13,  avg # of iterations =  1.3

     total cpu time spent up to now is      972.5 secs

     End of self-consistent calculation

          k = 0.0000 0.0000 0.0000 (  8709 PWs)   bands (ev):

   -49.6895 -25.6426 -25.6426 -25.6426 -21.6067  -5.8596  -5.8596  -5.8596
    -5.5732  -4.6295  -4.6295   4.4610   4.4610   4.4610   5.6347   5.6347
     5.6347   6.4364   6.4364   6.6202   6.6202   6.6202   7.5140   7.5392

     occupation numbers 
     1.0000   1.0000   1.0000   1.0000   1.0000   1.0000   1.0000   1.0000
     1.0000   1.0000   1.0000   1.0000   1.0000   1.0000   1.0000   1.0000
     1.0000   1.0000   1.0000   1.0000   1.0000   1.0000   0.0000   0.0000

          k = 0.0000 0.0000 0.1216 (  8629 PWs)   bands (ev):

   -49.6895 -25.6429 -25.6426 -25.6426 -21.6054  -6.2764  -5.8572  -5.8572
    -5.3720  -4.6238  -4.2936   4.2957   4.4464   4.4464   5.3078   5.4294
     5.4294   6.4953   6.6309   6.7872   6.8726   6.8726   6.9932   7.4749

     occupation numbers 
     1.0000   1.0000   1.0000   1.0000   1.0000   1.0000   1.0000   1.0000
     1.0000   1.0000   1.0000   1.0000   1.0000   1.0000   1.0000   1.0000
     1.0000   1.0000   1.0000   0.9739   0.5655   0.5655   0.0096   0.0000

          k = 0.0000 0.0000 0.2432 (  8645 PWs)   bands (ev):

   -49.6895 -25.6435 -25.6426 -25.6426 -21.6023  -6.7491  -5.8512  -5.8512
    -5.2755  -4.6100  -3.6046   3.9938   4.4203   4.4203   4.8590   5.0888
     5.0888   6.0679   6.6445   6.6573   7.2904   7.3322   7.3322   7.3954

     occupation numbers 
     1.0000   1.0000   1.0000   1.0000   1.0000   1.0000   1.0000   1.0000
     1.0000   1.0000   1.0000   1.0000   1.0000   1.0000   1.0000   1.0000
     1.0000   1.0000   1.0000   1.0000   0.0000   0.0000   0.0000   0.0000

          k = 0.0000 0.0000 0.3648 (  8686 PWs)   bands (ev):

   -49.6895 -25.6441 -25.6425 -25.6425 -21.5991  -7.0594  -5.8452  -5.8452
    -5.2317  -4.5961  -2.9841   3.8179   4.4180   4.4180   4.5493   4.8119
     4.8119   5.1449   6.6842   6.8072   7.3269   7.3269   7.6500   7.7357

     occupation numbers 
     1.0000   1.0000   1.0000   1.0000   1.0000   1.0000   1.0000   1.0000
     1.0000   1.0000   1.0000   1.0000   1.0000   1.0000   1.0000   1.0000
     1.0000   1.0000   1.0000   0.9364   0.0000   0.0000   0.0000   0.0000

          k = 0.0000 0.0000-0.4865 (  8722 PWs)   bands (ev):

   -49.6895 -25.6444 -25.6425 -25.6425 -21.5979  -7.1663  -5.8427  -5.8427
    -5.2170  -4.5903  -2.7296   3.8126   4.4360   4.4360   4.4405   4.6917
     4.6917   4.7120   6.6956   6.8795   7.3029   7.3029   7.7779   7.8989

     occupation numbers 
     1.0000   1.0000   1.0000   1.0000   1.0000   1.0000   1.0000   1.0000
     1.0000   1.0000   1.0000   1.0000   1.0000   1.0000   1.0000   1.0000
     1.0000   1.0000   0.9999   0.5088   0.0000   0.0000   0.0000   0.0000

          k = 0.0000 0.1216 0.1216 (  8682 PWs)   bands (ev):

   -49.6895 -25.6429 -25.6428 -25.6426 -21.6041  -6.3269  -6.1949  -5.8547
    -5.1668  -4.4007  -4.2059   4.0664   4.4303   4.5284   4.9493   5.2688
     5.5471   6.5697   6.7089   6.7558   6.9022   6.9668   7.1673   7.1831

     occupation numbers 
     1.0000   1.0000   1.0000   1.0000   1.0000   1.0000   1.0000   1.0000
     1.0000   1.0000   1.0000   1.0000   1.0000   1.0000   1.0000   1.0000
     1.0000   1.0000   0.9998   0.9952   0.3262   0.0366   0.0000   0.0000

          k = 0.0000 0.1216 0.2432 (  8672 PWs)   bands (ev):

   -49.6895 -25.6435 -25.6428 -25.6425 -21.6010  -6.7453  -6.2395  -5.8487
    -5.0659  -4.3185  -3.5942   3.7472   4.4003   4.5149   4.5827   4.9746
     5.3999   6.0638   6.7028   6.8228   6.9973   7.1222   7.3422   7.3439

     occupation numbers 
     1.0000   1.0000   1.0000   1.0000   1.0000   1.0000   1.0000   1.0000
     1.0000   1.0000   1.0000   1.0000   1.0000   1.0000   1.0000   1.0000
     1.0000   1.0000   0.9999   0.8853   0.0076   0.0000   0.0000   0.0000

          k = 0.0000 0.1216 0.3648 (  8700 PWs)   bands (ev):

   -49.6895 -25.6441 -25.6428 -25.6425 -21.5979  -7.0538  -6.2316  -5.8426
    -5.0266  -4.2996  -2.9781   3.5424   4.3226   4.3934   4.4818   4.7231
     5.0659   5.3676   6.8495   6.8499   6.9732   7.2681   7.4667   7.7253

     occupation numbers 
     1.0000   1.0000   1.0000   1.0000   1.0000   1.0000   1.0000   1.0000
     1.0000   1.0000   1.0000   1.0000   1.0000   1.0000   1.0000   1.0000
     1.0000   1.0000   0.7409   0.7378   0.0271   0.0000   0.0000   0.0000

          k = 0.0000 0.1216-0.4865 (  8686 PWs)   bands (ev):

   -49.6895 -25.6443 -25.6427 -25.6425 -21.5966  -7.1604  -6.2276  -5.8401
    -5.0142  -4.2931  -2.7236   3.4945   4.2862   4.4069   4.4107   4.6098
     4.7330   5.2544   6.8604   6.9268   6.9491   7.2405   7.7123   7.7129

     occupation numbers 
     1.0000   1.0000   1.0000   1.0000   1.0000   1.0000   1.0000   1.0000
     1.0000   1.0000   1.0000   1.0000   1.0000   1.0000   1.0000   1.0000
     1.0000   1.0000   0.6627   0.1682   0.0772   0.0000   0.0000   0.0000

          k = 0.0000 0.2432 0.2432 (  8664 PWs)   bands (ev):

   -49.6895 -25.6434 -25.6434 -25.6425 -21.5979  -6.7700  -6.6786  -5.8424
    -4.9740  -3.7142  -3.4959   3.3481   4.3410   4.3584   4.6024   4.7471
     5.6442   5.8035   6.4036   6.7973   7.1162   7.1770   7.2414   7.4337

     occupation numbers 
     1.0000   1.0000   1.0000   1.0000   1.0000   1.0000   1.0000   1.0000
     1.0000   1.0000   1.0000   1.0000   1.0000   1.0000   1.0000   1.0000
     1.0000   1.0000   1.0000   0.9583   0.0000   0.0000   0.0000   0.0000

          k = 0.0000 0.2432 0.3648 (  8671 PWs)   bands (ev):

   -49.6895 -25.6440 -25.6433 -25.6424 -21.5948  -7.0402  -6.7085  -5.8362
    -4.9434  -3.6041  -2.9625   3.0607   4.2585   4.3360   4.5431   4.5678
     5.0853   5.7916   6.2010   6.9188   7.1360   7.2388   7.3609   7.5867

     occupation numbers 
     1.0000   1.0000   1.0000   1.0000   1.0000   1.0000   1.0000   1.0000
     1.0000   1.0000   1.0000   1.0000   1.0000   1.0000   1.0000   1.0000
     1.0000   1.0000   1.0000   0.2134   0.0000   0.0000   0.0000   0.0000

          k = 0.0000 0.2432-0.4865 (  8708 PWs)   bands (ev):

   -49.6895 -25.6443 -25.6433 -25.6424 -21.5936  -7.1463  -6.7046  -5.8336
    -4.9343  -3.5932  -2.7087   2.9643   4.3445   4.3486   4.4155   4.4446
     4.7629   5.8370   6.1478   7.0352   7.1087   7.2485   7.3800   7.5936

     occupation numbers 
     1.0000   1.0000   1.0000   1.0000   1.0000   1.0000   1.0000   1.0000
     1.0000   1.0000   1.0000   1.0000   1.0000   1.0000   1.0000   1.0000
     1.0000   1.0000   1.0000   0.0007   0.0000   0.0000   0.0000   0.0000

          k = 0.0000 0.3648 0.3648 (  8672 PWs)   bands (ev):

   -49.6894 -25.6440 -25.6439 -25.6424 -21.5918  -7.0377  -7.0106  -5.8298
    -4.9197  -3.0001  -2.9143   2.7133   4.2500   4.2879   4.3853   4.6421
     4.9253   5.5261   6.0944   6.9126   7.0369   7.3151   7.5707   7.5911

     occupation numbers 
     1.0000   1.0000   1.0000   1.0000   1.0000   1.0000   1.0000   1.0000
     1.0000   1.0000   1.0000   1.0000   1.0000   1.0000   1.0000   1.0000
     1.0000   1.0000   1.0000   0.2527   0.0006   0.0000   0.0000   0.0000

          k = 0.0000 0.3648-0.4865 (  8664 PWs)   bands (ev):

   -49.6894 -25.6442 -25.6439 -25.6424 -21.5905  -7.1320  -7.0183  -5.8271
    -4.9132  -2.9518  -2.6933   2.5918   4.2685   4.2852   4.3089   4.6146
     4.7525   5.4307   6.1429   6.9899   6.9997   7.1282   7.6527   7.6657

     occupation numbers 
     1.0000   1.0000   1.0000   1.0000   1.0000   1.0000   1.0000   1.0000
     1.0000   1.0000   1.0000   1.0000   1.0000   1.0000   1.0000   1.0000
     1.0000   1.0000   1.0000   0.0115   0.0066   0.0000   0.0000   0.0000

          k = 0.0000-0.4865-0.4865 (  8604 PWs)   bands (ev):

   -49.6894 -25.6442 -25.6442 -25.6423 -21.5892  -7.1261  -7.1261  -5.8244
    -4.9078  -2.6867  -2.6867   2.4608   4.2155   4.2586   4.2586   4.7139
     4.7139   5.1881   6.2248   6.9049   6.9600   7.0383   7.7586   7.8343

     occupation numbers 
     1.0000   1.0000   1.0000   1.0000   1.0000   1.0000   1.0000   1.0000
     1.0000   1.0000   1.0000   1.0000   1.0000   1.0000   1.0000   1.0000
     1.0000   1.0000   1.0000   0.3067   0.0493   0.0005   0.0000   0.0000

          k = 0.1216 0.1216 0.1216 (  8646 PWs)   bands (ev):

   -49.6895 -25.6429 -25.6428 -25.6428 -21.6028  -6.3649  -6.1918  -6.1918
    -4.8685  -4.2015  -4.2015   3.8883   4.4638   4.4638   4.9283   4.9283
     5.7841   6.6024   6.6040   6.6040   6.9486   7.1318   7.1318   7.2918

     occupation numbers 
     1.0000   1.0000   1.0000   1.0000   1.0000   1.0000   1.0000   1.0000
     1.0000   1.0000   1.0000   1.0000   1.0000   1.0000   1.0000   1.0000
     1.0000   1.0000   1.0000   1.0000   0.0786   0.0000   0.0000   0.0000

          k = 0.1216 0.1216 0.2432 (  8652 PWs)   bands (ev):

   -49.6895 -25.6434 -25.6428 -25.6428 -21.5997  -6.7417  -6.2771  -6.1842
    -4.7041  -4.1906  -3.5852   3.6079   4.2265   4.3928   4.6986   4.9092
     5.6580   6.0180   6.6840   6.8699   6.9217   6.9809   7.0925   7.4247

     occupation numbers 
     1.0000   1.0000   1.0000   1.0000   1.0000   1.0000   1.0000   1.0000
     1.0000   1.0000   1.0000   1.0000   1.0000   1.0000   1.0000   1.0000
     1.0000   1.0000   1.0000   0.5879   0.1960   0.0185   0.0000   0.0000

          k = 0.1216 0.1216 0.3648 (  8695 PWs)   bands (ev):

   -49.6895 -25.6441 -25.6427 -25.6427 -21.5966  -7.0485  -6.2705  -6.1766
    -4.6557  -4.1796  -2.9728   3.4314   3.9762   4.2618   4.6351   4.8512
     5.2638   5.4383   6.7907   6.8326   7.0125   7.0582   7.4053   7.5464

     occupation numbers 
     1.0000   1.0000   1.0000   1.0000   1.0000   1.0000   1.0000   1.0000
     1.0000   1.0000   1.0000   1.0000   1.0000   1.0000   1.0000   1.0000
     1.0000   1.0000   0.9692   0.8408   0.0031   0.0001   0.0000   0.0000

          k = 0.1216 0.1216-0.4865 (  8720 PWs)   bands (ev):

   -49.6895 -25.6443 -25.6427 -25.6427 -21.5953  -7.1550  -6.2664  -6.1735
    -4.6422  -4.1750  -2.7182   3.3957   3.8813   4.1828   4.6228   4.7155
     5.0515   5.3486   6.8009   6.8348   6.9976   7.1258   7.6090   7.6503

     occupation numbers 
     1.0000   1.0000   1.0000   1.0000   1.0000   1.0000   1.0000   1.0000
     1.0000   1.0000   1.0000   1.0000   1.0000   1.0000   1.0000   1.0000
     1.0000   1.0000   0.9512   0.8293   0.0075   0.0000   0.0000   0.0000

          k = 0.1216 0.2432 0.2432 (  8660 PWs)   bands (ev):

   -49.6895 -25.6434 -25.6434 -25.6427 -21.5967  -6.7668  -6.6752  -6.2170
    -4.5054  -3.6899  -3.4930   3.3108   3.9919   4.2068   4.7334   4.9621
     5.7541   5.8550   6.3942   6.7630   6.9441   6.9480   7.0353   7.6485

     occupation numbers 
     1.0000   1.0000   1.0000   1.0000   1.0000   1.0000   1.0000   1.0000
     1.0000   1.0000   1.0000   1.0000   1.0000   1.0000   1.0000   1.0000
     1.0000   1.0000   1.0000   0.9927   0.0934   0.0805   0.0006   0.0000

          k = 0.1216 0.2432 0.3648 (  8663 PWs)   bands (ev):

   -49.6895 -25.6440 -25.6433 -25.6427 -21.5936  -7.0358  -6.7061  -6.2103
    -4.4640  -3.5931  -2.9590   3.0731   3.8318   4.0643   4.7072   4.9360
     5.2124   5.8644   6.1784   6.8149   6.9074   7.1369   7.3353   7.5870

     occupation numbers 
     1.0000   1.0000   1.0000   1.0000   1.0000   1.0000   1.0000   1.0000
     1.0000   1.0000   1.0000   1.0000   1.0000   1.0000   1.0000   1.0000
     1.0000   1.0000   1.0000   0.9139   0.2885   0.0000   0.0000   0.0000

          k = 0.1216 0.2432-0.4865 (  8686 PWs)   bands (ev):

   -49.6894 -25.6442 -25.6433 -25.6427 -21.5923  -7.1417  -6.7025  -6.2072
    -4.4538  -3.5838  -2.7051   2.9930   3.7978   3.9835   4.6070   4.8429
     5.0970   5.8706   6.1080   6.8167   6.9334   7.3458   7.3908   7.5609

     occupation numbers 
     1.0000   1.0000   1.0000   1.0000   1.0000   1.0000   1.0000   1.0000
     1.0000   1.0000   1.0000   1.0000   1.0000   1.0000   1.0000   1.0000
     1.0000   1.0000   1.0000   0.9079   0.1360   0.0000   0.0000   0.0000

          k = 0.1216 0.3648 0.3648 (  8669 PWs)   bands (ev):

   -49.6894 -25.6439 -25.6439 -25.6426 -21.5905  -7.0340  -7.0073  -6.2046
    -4.4309  -2.9974  -2.9129   2.7610   3.8000   3.9421   4.5634   5.0413
     5.1023   5.6051   6.1442   6.7011   6.9399   7.2272   7.3863   7.6303

     occupation numbers 
     1.0000   1.0000   1.0000   1.0000   1.0000   1.0000   1.0000   1.0000
     1.0000   1.0000   1.0000   1.0000   1.0000   1.0000   1.0000   1.0000
     1.0000   1.0000   1.0000   0.9999   0.1088   0.0000   0.0000   0.0000

          k = 0.1216 0.3648-0.4865 (  8692 PWs)   bands (ev):

   -49.6894 -25.6442 -25.6439 -25.6426 -21.5893  -7.1284  -7.0151  -6.2019
    -4.4235  -2.9506  -2.6916   2.6489   3.8332   3.8646   4.3924   5.0201
     5.1354   5.4748   6.1912   6.6674   6.9863   7.1285   7.4905   7.7368

     occupation numbers 
     1.0000   1.0000   1.0000   1.0000   1.0000   1.0000   1.0000   1.0000
     1.0000   1.0000   1.0000   1.0000   1.0000   1.0000   1.0000   1.0000
     1.0000   1.0000   1.0000   1.0000   0.0140   0.0000   0.0000   0.0000

          k = 0.1216-0.4865-0.4865 (  8664 PWs)   bands (ev):

   -49.6894 -25.6441 -25.6441 -25.6426 -21.5880  -7.1228  -7.1228  -6.1993
    -4.4171  -2.6859  -2.6859   2.5254   3.8480   3.8480   4.2107   5.1763
     5.1763   5.1926   6.2729   6.5936   6.9176   7.0573   7.6867   7.7695

     occupation numbers 
     1.0000   1.0000   1.0000   1.0000   1.0000   1.0000   1.0000   1.0000
     1.0000   1.0000   1.0000   1.0000   1.0000   1.0000   1.0000   1.0000
     1.0000   1.0000   1.0000   1.0000   0.2205   0.0001   0.0000   0.0000

          k = 0.2432 0.2432 0.2432 (  8658 PWs)   bands (ev):

   -49.6895 -25.6434 -25.6433 -25.6433 -21.5936  -6.7831  -6.6671  -6.6671
    -3.9253  -3.4861  -3.4861   3.1812   3.7766   3.7766   5.0538   5.0538
     5.4881   6.1804   6.3695   6.3695   6.8055   6.8055   6.9478   7.8315

     occupation numbers 
     1.0000   1.0000   1.0000   1.0000   1.0000   1.0000   1.0000   1.0000
     1.0000   1.0000   1.0000   1.0000   1.0000   1.0000   1.0000   1.0000
     1.0000   1.0000   1.0000   1.0000   0.9407   0.9407   0.0810   0.0000

          k = 0.2432 0.2432 0.3648 (  8660 PWs)   bands (ev):

   -49.6894 -25.6439 -25.6433 -25.6433 -21.5905  -7.0251  -6.7279  -6.6589
    -3.7965  -3.4791  -2.9496   3.0386   3.4853   3.6923   4.8555   5.0983
     5.3978   6.0330   6.1443   6.3523   6.8471   7.0553   7.1046   7.7600

     occupation numbers 
     1.0000   1.0000   1.0000   1.0000   1.0000   1.0000   1.0000   1.0000
     1.0000   1.0000   1.0000   1.0000   1.0000   1.0000   1.0000   1.0000
     1.0000   1.0000   1.0000   1.0000   0.7568   0.0001   0.0000   0.0000

          k = 0.2432 0.2432-0.4865 (  8672 PWs)   bands (ev):

   -49.6894 -25.6442 -25.6433 -25.6432 -21.5893  -7.1307  -6.7255  -6.6555
    -3.7787  -3.4762  -2.6965   2.9908   3.3833   3.6608   4.5797   5.1172
     5.5586   5.8518   6.0753   6.3480   6.8776   7.2179   7.3800   7.6265

     occupation numbers 
     1.0000   1.0000   1.0000   1.0000   1.0000   1.0000   1.0000   1.0000
     1.0000   1.0000   1.0000   1.0000   1.0000   1.0000   1.0000   1.0000
     1.0000   1.0000   1.0000   1.0000   0.5248   0.0000   0.0000   0.0000

          k = 0.2432 0.3648 0.3648 (  8664 PWs)   bands (ev):

   -49.6894 -25.6439 -25.6438 -25.6432 -21.5875  -7.0250  -6.9993  -6.6838
    -3.6536  -2.9880  -2.9095   2.8763   3.3919   3.4851   4.5714   5.2869
     5.4040   5.8639   6.1591   6.3412   6.9186   7.0440   7.1039   7.6602

     occupation numbers 
     1.0000   1.0000   1.0000   1.0000   1.0000   1.0000   1.0000   1.0000
     1.0000   1.0000   1.0000   1.0000   1.0000   1.0000   1.0000   1.0000
     1.0000   1.0000   1.0000   1.0000   0.2148   0.0003   0.0000   0.0000

          k = 0.2432 0.3648-0.4865 (  8658 PWs)   bands (ev):

   -49.6894 -25.6441 -25.6438 -25.6432 -21.5862  -7.1196  -7.0076  -6.6813
    -3.6413  -2.9465  -2.6877   2.7949   3.3547   3.4520   4.3477   5.2673
     5.5982   5.7274   6.1159   6.3501   6.9606   7.0475   7.2893   7.5999

     occupation numbers 
     1.0000   1.0000   1.0000   1.0000   1.0000   1.0000   1.0000   1.0000
     1.0000   1.0000   1.0000   1.0000   1.0000   1.0000   1.0000   1.0000
     1.0000   1.0000   1.0000   1.0000   0.0482   0.0003   0.0000   0.0000

          k = 0.2432-0.4865-0.4865 (  8620 PWs)   bands (ev):

   -49.6894 -25.6441 -25.6441 -25.6432 -21.5849  -7.1150  -7.1150  -6.6792
    -3.6308  -2.6840  -2.6840   2.6948   3.3872   3.3872   4.1606   5.2034
     5.7909   5.7909   5.9109   6.4129   6.9465   6.9725   7.4900   7.5739

     occupation numbers 
     1.0000   1.0000   1.0000   1.0000   1.0000   1.0000   1.0000   1.0000
     1.0000   1.0000   1.0000   1.0000   1.0000   1.0000   1.0000   1.0000
     1.0000   1.0000   1.0000   1.0000   0.0853   0.0280   0.0000   0.0000

          k = 0.3648 0.3648 0.3648 (  8684 PWs)   bands (ev):

   -49.6894 -25.6438 -25.6438 -25.6438 -21.5844  -7.0240  -6.9913  -6.9913
    -3.0643  -2.9060  -2.9060   2.9488   3.1844   3.1844   4.3383   5.3616
     5.3616   6.0901   6.0901   6.6443   6.9145   6.9146   6.9146   7.6123

     occupation numbers 
     1.0000   1.0000   1.0000   1.0000   1.0000   1.0000   1.0000   1.0000
     1.0000   1.0000   1.0000   1.0000   1.0000   1.0000   1.0000   1.0000
     1.0000   1.0000   1.0000   1.0000   0.2401   0.2397   0.2397   0.0000

          k = 0.3648 0.3648-0.4865 (  8674 PWs)   bands (ev):

   -49.6894 -25.6440 -25.6438 -25.6438 -21.5832  -7.1108  -7.0091  -6.9879
    -3.0114  -2.9046  -2.6838   2.9244   3.0800   3.1776   4.1491   5.3100
     5.3814   6.1557   6.1996   6.6065   6.9128   6.9385   7.1285   7.3744

     occupation numbers 
     1.0000   1.0000   1.0000   1.0000   1.0000   1.0000   1.0000   1.0000
     1.0000   1.0000   1.0000   1.0000   1.0000   1.0000   1.0000   1.0000
     1.0000   1.0000   1.0000   1.0000   0.2514   0.1142   0.0000   0.0000

          k = 0.3648-0.4865-0.4865 (  8652 PWs)   bands (ev):

   -49.6894 -25.6440 -25.6440 -25.6437 -21.5819  -7.1071  -7.1071  -6.9952
    -2.9580  -2.6821  -2.6821   2.8889   3.0840   3.0840   3.9890   5.2144
     5.3777   6.3549   6.3549   6.6313   6.8715   6.9653   7.2164   7.2580

     occupation numbers 
     1.0000   1.0000   1.0000   1.0000   1.0000   1.0000   1.0000   1.0000
     1.0000   1.0000   1.0000   1.0000   1.0000   1.0000   1.0000   1.0000
     1.0000   1.0000   1.0000   1.0000   0.5746   0.0390   0.0000   0.0000

          k =-0.4865-0.4865-0.4865 (  8552 PWs)   bands (ev):

   -49.6894 -25.6440 -25.6440 -25.6440 -21.5806  -7.1038  -7.1038  -7.1038
    -2.6813  -2.6813  -2.6813   2.9790   2.9790   2.9790   3.8515   5.2189
     5.2189   6.8275   6.8275   6.8275   6.8641   6.8641   6.8641   6.9611

     occupation numbers 
     1.0000   1.0000   1.0000   1.0000   1.0000   1.0000   1.0000   1.0000
     1.0000   1.0000   1.0000   1.0000   1.0000   1.0000   1.0000   1.0000
     1.0000   0.8649   0.8649   0.8649   0.6343   0.6343   0.6343   0.0470

     the Fermi energy is     6.8806 ev

!    total energy              =    -591.30679067 Ry
     estimated scf accuracy    <          2.8E-11 Ry
     smearing contrib. (-TS)   =      -0.00250395 Ry
     internal energy E=F+TS    =    -591.30428672 Ry

     The total energy is F=E-TS. E is the sum of the following terms:
     one-electron contribution =     -56.91397876 Ry
     hartree contribution      =      44.94870920 Ry
     xc contribution           =     -44.71757796 Ry
     ewald contribution        =    -177.45140595 Ry
     one-center paw contrib.   =    -357.17003326 Ry
      -> PAW hartree energy AE =       0.00000000 Ry
      -> PAW hartree energy PS =       0.00000000 Ry
      -> PAW xc energy AE      =       0.00000000 Ry
      -> PAW xc energy PS      =       0.00000000 Ry
      -> total E_H with PAW    =      44.94870920 Ry
      -> total E_XC with PAW   =     -44.71757796 Ry

     convergence has been achieved in  14 iterations

     Forces acting on atoms (cartesian axes, Ry/au):

     atom    1 type  1   force =     0.00000000    0.00000000    0.00000000
     atom    2 type  2   force =     0.00000000    0.00000000    0.00000000
     atom    3 type  3   force =     0.00000000    0.00000000    0.00000000
     atom    4 type  3   force =     0.00000000    0.00000000    0.00000000
     atom    5 type  3   force =     0.00000000    0.00000000    0.00000000
     The non-local contrib.  to forces
     atom    1 type  1   force =     0.00000000    0.00000000    0.00000000
     atom    2 type  2   force =     0.00000000    0.00000000    0.00000000
     atom    3 type  3   force =     0.00000000    0.00000000    0.00000000
     atom    4 type  3   force =     0.00000000    0.00000000    0.00000000
     atom    5 type  3   force =     0.00000000    0.00000000    0.00000000
     The ionic contribution  to forces
     atom    1 type  1   force =     0.00000000    0.00000000    0.00000000
     atom    2 type  2   force =     0.00000000    0.00000000    0.00000000
     atom    3 type  3   force =     0.00000000    0.00000000    0.00000000
     atom    4 type  3   force =     0.00000000    0.00000000    0.00000000
     atom    5 type  3   force =     0.00000000    0.00000000    0.00000000
     The local contribution  to forces
     atom    1 type  1   force =    -0.00000000   -0.00000000   -0.00000000
     atom    2 type  2   force =    -0.00000000   -0.00000000   -0.00000000
     atom    3 type  3   force =    -0.00000000   -0.00000000   -0.00000000
     atom    4 type  3   force =    -0.00000000   -0.00000000   -0.00000000
     atom    5 type  3   force =    -0.00000000   -0.00000000   -0.00000000
     The core correction contribution to forces
     atom    1 type  1   force =     0.00000000   -0.00000000   -0.00000000
     atom    2 type  2   force =    -0.00000000   -0.00000000   -0.00000000
     atom    3 type  3   force =    -0.00000000    0.00000000    0.00000000
     atom    4 type  3   force =     0.00000000    0.00000000    0.00000000
     atom    5 type  3   force =     0.00000000    0.00000000    0.00000000
     The Hubbard contrib.    to forces
     atom    1 type  1   force =     0.00000000    0.00000000    0.00000000
     atom    2 type  2   force =     0.00000000    0.00000000    0.00000000
     atom    3 type  3   force =     0.00000000    0.00000000    0.00000000
     atom    4 type  3   force =     0.00000000    0.00000000    0.00000000
     atom    5 type  3   force =     0.00000000    0.00000000    0.00000000
     The SCF correction term to forces
     atom    1 type  1   force =     0.00000000    0.00000000   -0.00000000
     atom    2 type  2   force =     0.00000000    0.00000000   -0.00000000
     atom    3 type  3   force =    -0.00000000    0.00000000   -0.00000000
     atom    4 type  3   force =     0.00000000    0.00000000   -0.00000000
     atom    5 type  3   force =     0.00000000   -0.00000000   -0.00000000

     Total force =     0.000000     Total SCF correction =     0.000000


     Computing stress (Cartesian axis) and pressure

          total   stress  (Ry/bohr**3)                   (kbar)     P=       34.43
   0.00023405   0.00000000   0.00000000           34.43        0.00        0.00
   0.00000000   0.00023405   0.00000000            0.00       34.43        0.00
   0.00000000   0.00000000   0.00023405            0.00        0.00       34.43

     kinetic stress (kbar)  11488.12      0.00      0.00
                                0.00  11488.12      0.00
                                0.00      0.00  11488.12

     local   stress (kbar)  -5053.94      0.00      0.00
                                0.00  -5053.94      0.00
                                0.00      0.00  -5053.94

     nonloc. stress (kbar)   4422.90      0.00      0.00
                                0.00   4422.90      0.00
                                0.00      0.00   4422.90

     hartree stress (kbar)   2828.51     -0.00      0.00
                               -0.00   2828.51     -0.00
                                0.00     -0.00   2828.51

     exc-cor stress (kbar)   -682.89      0.00      0.00
                                0.00   -682.89      0.00
                                0.00      0.00   -682.89

     corecor stress (kbar)  -1801.71      0.00     -0.00
                                0.00  -1801.71     -0.00
                               -0.00     -0.00  -1801.71

     ewald   stress (kbar) -11166.57      0.00     -0.00
                                0.00 -11166.57     -0.00
                               -0.00     -0.00 -11166.57

     hubbard stress (kbar)      0.00      0.00      0.00
                                0.00      0.00      0.00
                                0.00      0.00      0.00

     DFT-D   stress (kbar)      0.00      0.00      0.00
                                0.00      0.00      0.00
                                0.00      0.00      0.00

     XDM     stress (kbar)      0.00      0.00      0.00
                                0.00      0.00      0.00
                                0.00      0.00      0.00

     dft-nl  stress (kbar)      0.00      0.00      0.00
                                0.00      0.00      0.00
                                0.00      0.00      0.00

     TS-vdW  stress (kbar)      0.00      0.00      0.00
                                0.00      0.00      0.00
                                0.00      0.00      0.00

     MDB     stress (kbar)      0.00      0.00      0.00
                                0.00      0.00      0.00
                                0.00      0.00      0.00

     3D-RISM stress (kbar)      0.00      0.00      0.00
                                0.00      0.00      0.00
                                0.00      0.00      0.00

     Energy error            =      9.9E-03 Ry
     Gradient error          =      0.0E+00 Ry/Bohr
     Cell gradient error     =      3.4E+01 kbar

     number of scf cycles    =   3
     number of bfgs steps    =   2

     enthalpy           old  =    -591.2968678388 Ry
     enthalpy           new  =    -591.3067906688 Ry

     CASE: enthalpy          _new < enthalpy          _old

     new trust radius        =       0.1188597712 bohr
     new conv_thr            =            1.0E-10 Ry

     new unit-cell volume =    830.06711 a.u.^3 (   123.00326 Ang^3 )
     density =      3.08048 g/cm^3

CELL_PARAMETERS (angstrom)
   4.973233714   0.000000000   0.000000000
   0.000000000   4.973233714   0.000000000
   0.000000000   0.000000000   4.973233714

ATOMIC_POSITIONS (crystal)
K                0.0000000000        0.0000000000        0.0000000000
Nb               0.5000000000        0.5000000000        0.5000000000
S                0.5000000000        0.0000000000        0.0000000000
S                0.0000000000        0.5000000000        0.0000000000
S                0.0000000000        0.0000000000        0.5000000000



     Writing config-only to output data dir ./tmp/knbs3.save/ :
     XML data file
     NEW-OLD atomic charge density approx. for the potential

     total cpu time spent up to now is      990.4 secs

     Self-consistent Calculation

     iteration #  1     ecut=    80.00 Ry     beta= 0.40
     Davidson diagonalization with overlap

---- Real-time Memory Report at c_bands before calling an iterative solver
           219 MiB given to the printing process from OS
             0 MiB allocation reported by mallinfo(arena+hblkhd)
         46910 MiB available memory on the node where the printing process lives
------------------
     ethr =  1.00E-06,  avg # of iterations =  7.4

     total cpu time spent up to now is     1031.5 secs

     total energy              =    -591.27619415 Ry
     estimated scf accuracy    <       0.07012668 Ry

     iteration #  2     ecut=    80.00 Ry     beta= 0.40
     Davidson diagonalization with overlap

---- Real-time Memory Report at c_bands before calling an iterative solver
           219 MiB given to the printing process from OS
             0 MiB allocation reported by mallinfo(arena+hblkhd)
         46912 MiB available memory on the node where the printing process lives
------------------
     ethr =  1.75E-04,  avg # of iterations =  6.4

     total cpu time spent up to now is     1062.4 secs

     total energy              =    -591.12720814 Ry
     estimated scf accuracy    <       5.94372665 Ry

     iteration #  3     ecut=    80.00 Ry     beta= 0.40
     Davidson diagonalization with overlap

---- Real-time Memory Report at c_bands before calling an iterative solver
           219 MiB given to the printing process from OS
             0 MiB allocation reported by mallinfo(arena+hblkhd)
         46942 MiB available memory on the node where the printing process lives
------------------
     ethr =  1.75E-04,  avg # of iterations =  4.5

     total cpu time spent up to now is     1086.1 secs

     total energy              =    -591.31374699 Ry
     estimated scf accuracy    <       0.01222846 Ry

     iteration #  4     ecut=    80.00 Ry     beta= 0.40
     Davidson diagonalization with overlap

---- Real-time Memory Report at c_bands before calling an iterative solver
           219 MiB given to the printing process from OS
             0 MiB allocation reported by mallinfo(arena+hblkhd)
         46932 MiB available memory on the node where the printing process lives
------------------
     ethr =  3.06E-05,  avg # of iterations =  3.2

     total cpu time spent up to now is     1103.6 secs

     total energy              =    -591.31410255 Ry
     estimated scf accuracy    <       0.00045129 Ry

     iteration #  5     ecut=    80.00 Ry     beta= 0.40
     Davidson diagonalization with overlap

---- Real-time Memory Report at c_bands before calling an iterative solver
           219 MiB given to the printing process from OS
             0 MiB allocation reported by mallinfo(arena+hblkhd)
         46833 MiB available memory on the node where the printing process lives
------------------
     ethr =  1.13E-06,  avg # of iterations =  4.9

     total cpu time spent up to now is     1129.2 secs

     total energy              =    -591.31407873 Ry
     estimated scf accuracy    <       0.00002564 Ry

     iteration #  6     ecut=    80.00 Ry     beta= 0.40
     Davidson diagonalization with overlap

---- Real-time Memory Report at c_bands before calling an iterative solver
           219 MiB given to the printing process from OS
             0 MiB allocation reported by mallinfo(arena+hblkhd)
         46946 MiB available memory on the node where the printing process lives
------------------
     ethr =  6.41E-08,  avg # of iterations =  4.2

     total cpu time spent up to now is     1153.3 secs

     total energy              =    -591.31405550 Ry
     estimated scf accuracy    <       0.00007156 Ry

     iteration #  7     ecut=    80.00 Ry     beta= 0.40
     Davidson diagonalization with overlap

---- Real-time Memory Report at c_bands before calling an iterative solver
           219 MiB given to the printing process from OS
             0 MiB allocation reported by mallinfo(arena+hblkhd)
         46933 MiB available memory on the node where the printing process lives
------------------
     ethr =  6.41E-08,  avg # of iterations =  2.1

     total cpu time spent up to now is     1172.4 secs

     total energy              =    -591.31405758 Ry
     estimated scf accuracy    <       0.00000358 Ry

     iteration #  8     ecut=    80.00 Ry     beta= 0.40
     Davidson diagonalization with overlap

---- Real-time Memory Report at c_bands before calling an iterative solver
           219 MiB given to the printing process from OS
             0 MiB allocation reported by mallinfo(arena+hblkhd)
         46811 MiB available memory on the node where the printing process lives
------------------
     ethr =  8.96E-09,  avg # of iterations =  2.7

     total cpu time spent up to now is     1191.8 secs

     total energy              =    -591.31405698 Ry
     estimated scf accuracy    <       0.00000399 Ry

     iteration #  9     ecut=    80.00 Ry     beta= 0.40
     Davidson diagonalization with overlap

---- Real-time Memory Report at c_bands before calling an iterative solver
           219 MiB given to the printing process from OS
             0 MiB allocation reported by mallinfo(arena+hblkhd)
         46779 MiB available memory on the node where the printing process lives
------------------
     ethr =  8.96E-09,  avg # of iterations =  1.0

     total cpu time spent up to now is     1205.0 secs

     total energy              =    -591.31405722 Ry
     estimated scf accuracy    <       0.00000089 Ry

     iteration # 10     ecut=    80.00 Ry     beta= 0.40
     Davidson diagonalization with overlap

---- Real-time Memory Report at c_bands before calling an iterative solver
           219 MiB given to the printing process from OS
             0 MiB allocation reported by mallinfo(arena+hblkhd)
         46793 MiB available memory on the node where the printing process lives
------------------
     ethr =  2.22E-09,  avg # of iterations =  1.5

     total cpu time spent up to now is     1219.7 secs

     total energy              =    -591.31405727 Ry
     estimated scf accuracy    <       0.00000003 Ry

     iteration # 11     ecut=    80.00 Ry     beta= 0.40
     Davidson diagonalization with overlap

---- Real-time Memory Report at c_bands before calling an iterative solver
           219 MiB given to the printing process from OS
             0 MiB allocation reported by mallinfo(arena+hblkhd)
         46769 MiB available memory on the node where the printing process lives
------------------
     ethr =  7.49E-11,  avg # of iterations =  5.5

     total cpu time spent up to now is     1247.7 secs

     total energy              =    -591.31405729 Ry
     estimated scf accuracy    <       0.00000002 Ry

     iteration # 12     ecut=    80.00 Ry     beta= 0.40
     Davidson diagonalization with overlap

---- Real-time Memory Report at c_bands before calling an iterative solver
           219 MiB given to the printing process from OS
             0 MiB allocation reported by mallinfo(arena+hblkhd)
         46768 MiB available memory on the node where the printing process lives
------------------
     ethr =  5.07E-11,  avg # of iterations =  1.1

     total cpu time spent up to now is     1262.3 secs

     total energy              =    -591.31405728 Ry
     estimated scf accuracy    <       0.00000006 Ry

     iteration # 13     ecut=    80.00 Ry     beta= 0.40
     Davidson diagonalization with overlap

---- Real-time Memory Report at c_bands before calling an iterative solver
           219 MiB given to the printing process from OS
             0 MiB allocation reported by mallinfo(arena+hblkhd)
         46731 MiB available memory on the node where the printing process lives
------------------
     ethr =  5.07E-11,  avg # of iterations =  1.1

     total cpu time spent up to now is     1277.6 secs

     total energy              =    -591.31405728 Ry
     estimated scf accuracy    <          8.1E-09 Ry

     iteration # 14     ecut=    80.00 Ry     beta= 0.40
     Davidson diagonalization with overlap

---- Real-time Memory Report at c_bands before calling an iterative solver
           219 MiB given to the printing process from OS
             0 MiB allocation reported by mallinfo(arena+hblkhd)
         47010 MiB available memory on the node where the printing process lives
------------------
     ethr =  2.03E-11,  avg # of iterations =  1.7

     total cpu time spent up to now is     1294.1 secs

     total energy              =    -591.31405728 Ry
     estimated scf accuracy    <          2.4E-10 Ry

     iteration # 15     ecut=    80.00 Ry     beta= 0.40
     Davidson diagonalization with overlap

---- Real-time Memory Report at c_bands before calling an iterative solver
           219 MiB given to the printing process from OS
             0 MiB allocation reported by mallinfo(arena+hblkhd)
         46854 MiB available memory on the node where the printing process lives
------------------
     ethr =  5.97E-13,  avg # of iterations =  5.5

     total cpu time spent up to now is     1321.2 secs

     End of self-consistent calculation

          k = 0.0000 0.0000 0.0000 (  8709 PWs)   bands (ev):

   -50.5305 -26.4840 -26.4840 -26.4840 -22.1486  -6.3080  -6.3080  -6.3080
    -6.1223  -5.2664  -5.2664   3.8344   3.8344   3.8344   4.9645   4.9645
     4.9645   5.6656   5.6656   5.8443   5.8443   5.8443   6.6021   6.6021

     occupation numbers 
     1.0000   1.0000   1.0000   1.0000   1.0000   1.0000   1.0000   1.0000
     1.0000   1.0000   1.0000   1.0000   1.0000   1.0000   1.0000   1.0000
     1.0000   1.0000   1.0000   1.0000   1.0000   1.0000   0.0000   0.0000

          k = 0.0000 0.0000 0.1191 (  8629 PWs)   bands (ev):

   -50.5305 -26.4842 -26.4840 -26.4840 -22.1476  -6.7144  -6.3060  -6.3060
    -5.9304  -5.2619  -4.9482   3.6819   3.8248   3.8248   4.6644   4.7804
     4.7804   5.7159   5.8525   5.9833   6.0697   6.0697   6.1214   6.5652

     occupation numbers 
     1.0000   1.0000   1.0000   1.0000   1.0000   1.0000   1.0000   1.0000
     1.0000   1.0000   1.0000   1.0000   1.0000   1.0000   1.0000   1.0000
     1.0000   1.0000   1.0000   0.9185   0.3436   0.3436   0.0697   0.0000

          k = 0.0000 0.0000 0.2382 (  8645 PWs)   bands (ev):

   -50.5305 -26.4846 -26.4840 -26.4840 -22.1453  -7.1532  -6.3012  -6.3012
    -5.8518  -5.2509  -4.3203   3.4044   3.8094   3.8094   4.2556   4.4754
     4.4754   5.2978   5.8431   5.8725   6.4318   6.4598   6.4598   6.5060

     occupation numbers 
     1.0000   1.0000   1.0000   1.0000   1.0000   1.0000   1.0000   1.0000
     1.0000   1.0000   1.0000   1.0000   1.0000   1.0000   1.0000   1.0000
     1.0000   1.0000   1.0000   0.9999   0.0000   0.0000   0.0000   0.0000

          k = 0.0000 0.0000 0.3572 (  8686 PWs)   bands (ev):

   -50.5305 -26.4850 -26.4839 -26.4839 -22.1430  -7.4403  -6.2963  -6.2963
    -5.8168  -5.2398  -3.7701   3.2402   3.8136   3.8136   3.9737   4.2286
     4.2286   4.4834   5.8929   5.9799   6.4171   6.4171   6.7495   6.8345

     occupation numbers 
     1.0000   1.0000   1.0000   1.0000   1.0000   1.0000   1.0000   1.0000
     1.0000   1.0000   1.0000   1.0000   1.0000   1.0000   1.0000   1.0000
     1.0000   1.0000   0.9995   0.9285   0.0000   0.0000   0.0000   0.0000

          k = 0.0000 0.0000-0.4763 (  8722 PWs)   bands (ev):

   -50.5305 -26.4852 -26.4839 -26.4839 -22.1421  -7.5391  -6.2943  -6.2943
    -5.8051  -5.2352  -3.5483   3.2273   3.8290   3.8290   3.8746   4.1086
     4.1245   4.1245   5.9014   6.0400   6.3928   6.3928   6.8621   6.9760

     occupation numbers 
     1.0000   1.0000   1.0000   1.0000   1.0000   1.0000   1.0000   1.0000
     1.0000   1.0000   1.0000   1.0000   1.0000   1.0000   1.0000   1.0000
     1.0000   1.0000   0.9990   0.5851   0.0000   0.0000   0.0000   0.0000

          k = 0.0000 0.1191 0.1191 (  8682 PWs)   bands (ev):

   -50.5305 -26.4842 -26.4842 -26.4840 -22.1467  -6.7645  -6.6321  -6.3040
    -5.7382  -5.0474  -4.8688   3.4753   3.8144   3.9023   4.3386   4.6349
     4.8815   5.7863   5.9099   5.9683   6.0278   6.1504   6.3096   6.3371

     occupation numbers 
     1.0000   1.0000   1.0000   1.0000   1.0000   1.0000   1.0000   1.0000
     1.0000   1.0000   1.0000   1.0000   1.0000   1.0000   1.0000   1.0000
     1.0000   1.0000   0.9983   0.9559   0.6806   0.0188   0.0000   0.0000

          k = 0.0000 0.1191 0.2382 (  8672 PWs)   bands (ev):

   -50.5305 -26.4846 -26.4841 -26.4839 -22.1444  -7.1503  -6.6785  -6.2991
    -5.6548  -4.9726  -4.3118   3.1881   3.7963   3.9060   3.9915   4.3696
     4.7460   5.2918   5.8997   6.0255   6.1606   6.2667   6.4353   6.4901

     occupation numbers 
     1.0000   1.0000   1.0000   1.0000   1.0000   1.0000   1.0000   1.0000
     1.0000   1.0000   1.0000   1.0000   1.0000   1.0000   1.0000   1.0000
     1.0000   1.0000   0.9991   0.6971   0.0110   0.0000   0.0000   0.0000

          k = 0.0000 0.1191 0.3572 (  8700 PWs)   bands (ev):

   -50.5305 -26.4850 -26.4841 -26.4839 -22.1421  -7.4357  -6.6726  -6.2942
    -5.6232  -4.9571  -3.7655   3.0051   3.7584   3.7975   3.8710   4.1444
     4.4198   4.7133   6.0223   6.0456   6.1172   6.3642   6.5865   6.8211

     occupation numbers 
     1.0000   1.0000   1.0000   1.0000   1.0000   1.0000   1.0000   1.0000
     1.0000   1.0000   1.0000   1.0000   1.0000   1.0000   1.0000   1.0000
     1.0000   1.0000   0.7199   0.5392   0.0822   0.0000   0.0000   0.0000

          k = 0.0000 0.1191-0.4763 (  8686 PWs)   bands (ev):

   -50.5305 -26.4852 -26.4841 -26.4839 -22.1411  -7.5343  -6.6694  -6.2922
    -5.6133  -4.9519  -3.5437   2.9621   3.7209   3.8016   3.8130   4.0460
     4.1271   4.6219   6.0530   6.0858   6.0917   6.3367   6.8046   6.8074

     occupation numbers 
     1.0000   1.0000   1.0000   1.0000   1.0000   1.0000   1.0000   1.0000
     1.0000   1.0000   1.0000   1.0000   1.0000   1.0000   1.0000   1.0000
     1.0000   1.0000   0.4781   0.2308   0.1949   0.0000   0.0000   0.0000

          k = 0.0000 0.2382 0.2382 (  8664 PWs)   bands (ev):

   -50.5305 -26.4846 -26.4845 -26.4839 -22.1421  -7.1754  -7.0876  -6.2941
    -5.5778  -4.4183  -4.2266   2.8350   3.7637   3.7699   3.9896   4.1611
     4.9604   5.0337   5.6561   5.9829   6.2979   6.3252   6.3382   6.5632

     occupation numbers 
     1.0000   1.0000   1.0000   1.0000   1.0000   1.0000   1.0000   1.0000
     1.0000   1.0000   1.0000   1.0000   1.0000   1.0000   1.0000   1.0000
     1.0000   1.0000   1.0000   0.9196   0.0000   0.0000   0.0000   0.0000

          k = 0.0000 0.2382 0.3572 (  8671 PWs)   bands (ev):

   -50.5305 -26.4850 -26.4845 -26.4839 -22.1398  -7.4246  -7.1180  -6.2891
    -5.5527  -4.3225  -3.7535   2.5782   3.6783   3.7600   3.9631   3.9758
     4.4198   5.0879   5.4639   6.0901   6.2459   6.3935   6.4867   6.6914

     occupation numbers 
     1.0000   1.0000   1.0000   1.0000   1.0000   1.0000   1.0000   1.0000
     1.0000   1.0000   1.0000   1.0000   1.0000   1.0000   1.0000   1.0000
     1.0000   1.0000   1.0000   0.2042   0.0000   0.0000   0.0000   0.0000

          k = 0.0000 0.2382-0.4763 (  8708 PWs)   bands (ev):

   -50.5305 -26.4851 -26.4845 -26.4839 -22.1388  -7.5227  -7.1152  -6.2870
    -5.5453  -4.3136  -3.5325   2.4915   3.7391   3.7731   3.8303   3.8891
     4.1530   5.1365   5.4053   6.1933   6.2137   6.4045   6.5010   6.6999

     occupation numbers 
     1.0000   1.0000   1.0000   1.0000   1.0000   1.0000   1.0000   1.0000
     1.0000   1.0000   1.0000   1.0000   1.0000   1.0000   1.0000   1.0000
     1.0000   1.0000   1.0000   0.0015   0.0003   0.0000   0.0000   0.0000

          k = 0.0000 0.3572 0.3572 (  8672 PWs)   bands (ev):

   -50.5304 -26.4849 -26.4849 -26.4838 -22.1375  -7.4240  -7.3982  -6.2840
    -5.5328  -3.7868  -3.7135   2.2644   3.6549   3.7297   3.8302   4.0419
     4.2642   4.8873   5.3611   6.0831   6.1448   6.4422   6.6805   6.7105

     occupation numbers 
     1.0000   1.0000   1.0000   1.0000   1.0000   1.0000   1.0000   1.0000
     1.0000   1.0000   1.0000   1.0000   1.0000   1.0000   1.0000   1.0000
     1.0000   1.0000   1.0000   0.2478   0.0248   0.0000   0.0000   0.0000

          k = 0.0000 0.3572-0.4763 (  8664 PWs)   bands (ev):

   -50.5304 -26.4851 -26.4849 -26.4838 -22.1366  -7.5110  -7.4062  -6.2818
    -5.5273  -3.7461  -3.5209   2.1539   3.6577   3.7316   3.7612   4.0145
     4.1403   4.8015   5.4002   6.1069   6.1581   6.2660   6.7622   6.7666

     occupation numbers 
     1.0000   1.0000   1.0000   1.0000   1.0000   1.0000   1.0000   1.0000
     1.0000   1.0000   1.0000   1.0000   1.0000   1.0000   1.0000   1.0000
     1.0000   1.0000   1.0000   0.1201   0.0125   0.0000   0.0000   0.0000

          k = 0.0000-0.4763-0.4763 (  8604 PWs)   bands (ev):

   -50.5304 -26.4851 -26.4851 -26.4838 -22.1356  -7.5062  -7.5062  -6.2797
    -5.5227  -3.5161  -3.5161   2.0348   3.6027   3.7139   3.7139   4.1073
     4.1073   4.6016   5.4703   6.0668   6.0811   6.1814   6.8511   6.9193

     occupation numbers 
     1.0000   1.0000   1.0000   1.0000   1.0000   1.0000   1.0000   1.0000
     1.0000   1.0000   1.0000   1.0000   1.0000   1.0000   1.0000   1.0000
     1.0000   1.0000   1.0000   0.3659   0.2617   0.0032   0.0000   0.0000

          k = 0.1191 0.1191 0.1191 (  8646 PWs)   bands (ev):

   -50.5305 -26.4842 -26.4841 -26.4841 -22.1457  -6.8018  -6.6295  -6.6295
    -5.4520  -4.8653  -4.8653   3.3133   3.8558   3.8558   4.3122   4.3122
     5.1009   5.7765   5.8188   5.8188   6.0955   6.2742   6.2742   6.4381

     occupation numbers 
     1.0000   1.0000   1.0000   1.0000   1.0000   1.0000   1.0000   1.0000
     1.0000   1.0000   1.0000   1.0000   1.0000   1.0000   1.0000   1.0000
     1.0000   1.0000   1.0000   1.0000   0.1739   0.0000   0.0000   0.0000

          k = 0.1191 0.1191 0.2382 (  8652 PWs)   bands (ev):

   -50.5305 -26.4846 -26.4841 -26.4841 -22.1434  -7.1476  -6.7160  -6.6232
    -5.3080  -4.8567  -4.3044   3.0610   3.6710   3.8050   4.0776   4.2862
     4.9869   5.2380   5.8816   6.0580   6.1105   6.1331   6.2285   6.5513

     occupation numbers 
     1.0000   1.0000   1.0000   1.0000   1.0000   1.0000   1.0000   1.0000
     1.0000   1.0000   1.0000   1.0000   1.0000   1.0000   1.0000   1.0000
     1.0000   1.0000   0.9998   0.4367   0.1055   0.0427   0.0001   0.0000

          k = 0.1191 0.1191 0.3572 (  8695 PWs)   bands (ev):

   -50.5305 -26.4850 -26.4841 -26.4841 -22.1411  -7.4313  -6.7118  -6.6169
    -5.2679  -4.8481  -3.7614   2.9038   3.4534   3.6836   4.0145   4.2321
     4.5918   4.7911   5.9722   5.9859   6.1586   6.2281   6.5327   6.6568

     occupation numbers 
     1.0000   1.0000   1.0000   1.0000   1.0000   1.0000   1.0000   1.0000
     1.0000   1.0000   1.0000   1.0000   1.0000   1.0000   1.0000   1.0000
     1.0000   1.0000   0.9479   0.9100   0.0122   0.0001   0.0000   0.0000

          k = 0.1191 0.1191-0.4763 (  8720 PWs)   bands (ev):

   -50.5305 -26.4852 -26.4841 -26.4841 -22.1402  -7.5298  -6.7086  -6.6143
    -5.2570  -4.8445  -3.5397   2.8716   3.3684   3.6060   4.0034   4.1079
     4.4233   4.7116   5.9502   6.0102   6.1408   6.2873   6.7129   6.7501

     occupation numbers 
     1.0000   1.0000   1.0000   1.0000   1.0000   1.0000   1.0000   1.0000
     1.0000   1.0000   1.0000   1.0000   1.0000   1.0000   1.0000   1.0000
     1.0000   1.0000   0.9814   0.7983   0.0300   0.0000   0.0000   0.0000

          k = 0.1191 0.2382 0.2382 (  8660 PWs)   bands (ev):

   -50.5305 -26.4845 -26.4845 -26.4841 -22.1411  -7.1731  -7.0848  -6.6573
    -5.1324  -4.3978  -4.2243   2.7983   3.4554   3.6541   4.1082   4.3261
     4.9747   5.1592   5.6460   5.9572   6.0992   6.1199   6.1996   6.7529

     occupation numbers 
     1.0000   1.0000   1.0000   1.0000   1.0000   1.0000   1.0000   1.0000
     1.0000   1.0000   1.0000   1.0000   1.0000   1.0000   1.0000   1.0000
     1.0000   1.0000   1.0000   0.9737   0.1551   0.0741   0.0010   0.0000

          k = 0.1191 0.2382 0.3572 (  8663 PWs)   bands (ev):

   -50.5304 -26.4849 -26.4845 -26.4840 -22.1388  -7.4209  -7.1162  -6.6521
    -5.0979  -4.3132  -3.7507   2.5891   3.3097   3.5192   4.0810   4.3027
     4.5347   5.1607   5.4395   5.9846   6.0687   6.2918   6.4711   6.6973

     occupation numbers 
     1.0000   1.0000   1.0000   1.0000   1.0000   1.0000   1.0000   1.0000
     1.0000   1.0000   1.0000   1.0000   1.0000   1.0000   1.0000   1.0000
     1.0000   1.0000   1.0000   0.9141   0.3517   0.0000   0.0000   0.0000

          k = 0.1191 0.2382-0.4763 (  8686 PWs)   bands (ev):

   -50.5304 -26.4851 -26.4845 -26.4840 -22.1379  -7.5190  -7.1136  -6.6496
    -5.0896  -4.3056  -3.5297   2.5183   3.2843   3.4331   3.9877   4.2189
     4.4619   5.1706   5.3618   5.9741   6.0990   6.4695   6.5297   6.6737

     occupation numbers 
     1.0000   1.0000   1.0000   1.0000   1.0000   1.0000   1.0000   1.0000
     1.0000   1.0000   1.0000   1.0000   1.0000   1.0000   1.0000   1.0000
     1.0000   1.0000   1.0000   0.9435   0.1558   0.0000   0.0000   0.0000

          k = 0.1191 0.3572 0.3572 (  8669 PWs)   bands (ev):

   -50.5304 -26.4849 -26.4849 -26.4840 -22.1366  -7.4208  -7.3954  -6.6478
    -5.0699  -3.7845  -3.7123   2.3097   3.2752   3.4172   3.9259   4.4166
     4.4383   4.9537   5.4072   5.8682   6.1020   6.3639   6.5153   6.7428

     occupation numbers 
     1.0000   1.0000   1.0000   1.0000   1.0000   1.0000   1.0000   1.0000
     1.0000   1.0000   1.0000   1.0000   1.0000   1.0000   1.0000   1.0000
     1.0000   1.0000   1.0000   0.9999   0.1413   0.0000   0.0000   0.0000

          k = 0.1191 0.3572-0.4763 (  8692 PWs)   bands (ev):

   -50.5304 -26.4851 -26.4849 -26.4840 -22.1356  -7.5080  -7.4036  -6.6456
    -5.0636  -3.7450  -3.5196   2.2084   3.3170   3.3355   3.7681   4.3967
     4.4953   4.8326   5.4455   5.8312   6.1525   6.2637   6.6125   6.8353

     occupation numbers 
     1.0000   1.0000   1.0000   1.0000   1.0000   1.0000   1.0000   1.0000
     1.0000   1.0000   1.0000   1.0000   1.0000   1.0000   1.0000   1.0000
     1.0000   1.0000   1.0000   1.0000   0.0168   0.0000   0.0000   0.0000

          k = 0.1191-0.4763-0.4763 (  8664 PWs)   bands (ev):

   -50.5304 -26.4850 -26.4850 -26.4840 -22.1347  -7.5034  -7.5034  -6.6436
    -5.0580  -3.5153  -3.5153   2.0964   3.3314   3.3314   3.5921   4.5330
     4.5330   4.6055   5.5143   5.7601   6.0912   6.1945   6.7873   6.8605

     occupation numbers 
     1.0000   1.0000   1.0000   1.0000   1.0000   1.0000   1.0000   1.0000
     1.0000   1.0000   1.0000   1.0000   1.0000   1.0000   1.0000   1.0000
     1.0000   1.0000   1.0000   1.0000   0.1977   0.0014   0.0000   0.0000

          k = 0.2382 0.2382 0.2382 (  8658 PWs)   bands (ev):

   -50.5304 -26.4845 -26.4845 -26.4845 -22.1389  -7.1900  -7.0779  -7.0779
    -4.6017  -4.2188  -4.2188   2.6808   3.2659   3.2659   4.4049   4.4049
     4.7063   5.4607   5.6208   5.6208   5.9864   5.9864   6.1186   6.9142

     occupation numbers 
     1.0000   1.0000   1.0000   1.0000   1.0000   1.0000   1.0000   1.0000
     1.0000   1.0000   1.0000   1.0000   1.0000   1.0000   1.0000   1.0000
     1.0000   1.0000   1.0000   1.0000   0.9081   0.9081   0.0779   0.0000

          k = 0.2382 0.2382 0.3572 (  8660 PWs)   bands (ev):

   -50.5304 -26.4849 -26.4845 -26.4844 -22.1366  -7.4121  -7.1382  -7.0711
    -4.4893  -4.2133  -3.7433   2.5584   3.0006   3.1819   4.1778   4.4473
     4.7051   5.3103   5.4238   5.6006   6.0191   6.2137   6.2609   6.8540

     occupation numbers 
     1.0000   1.0000   1.0000   1.0000   1.0000   1.0000   1.0000   1.0000
     1.0000   1.0000   1.0000   1.0000   1.0000   1.0000   1.0000   1.0000
     1.0000   1.0000   1.0000   1.0000   0.7421   0.0003   0.0000   0.0000

          k = 0.2382 0.2382-0.4763 (  8672 PWs)   bands (ev):

   -50.5304 -26.4851 -26.4844 -26.4844 -22.1356  -7.5098  -7.1368  -7.0682
    -4.4743  -4.2109  -3.5231   2.5184   2.9074   3.1464   3.9414   4.4656
     4.8721   5.1289   5.3606   5.5944   6.0443   6.3528   6.5095   6.7444

     occupation numbers 
     1.0000   1.0000   1.0000   1.0000   1.0000   1.0000   1.0000   1.0000
     1.0000   1.0000   1.0000   1.0000   1.0000   1.0000   1.0000   1.0000
     1.0000   1.0000   1.0000   1.0000   0.5497   0.0000   0.0000   0.0000

          k = 0.2382 0.3572 0.3572 (  8664 PWs)   bands (ev):

   -50.5304 -26.4849 -26.4849 -26.4844 -22.1343  -7.4134  -7.3886  -7.0964
    -4.3645  -3.7767  -3.7094   2.4190   2.9079   2.9974   3.8927   4.6562
     4.7218   5.1665   5.4234   5.5911   6.0847   6.1991   6.2594   6.7659

     occupation numbers 
     1.0000   1.0000   1.0000   1.0000   1.0000   1.0000   1.0000   1.0000
     1.0000   1.0000   1.0000   1.0000   1.0000   1.0000   1.0000   1.0000
     1.0000   1.0000   1.0000   1.0000   0.2379   0.0010   0.0000   0.0000

          k = 0.2382 0.3572-0.4763 (  8658 PWs)   bands (ev):

   -50.5304 -26.4850 -26.4848 -26.4844 -22.1333  -7.5006  -7.3972  -7.0945
    -4.3541  -3.7414  -3.5163   2.3477   2.8770   2.9622   3.6988   4.6468
     4.9132   5.0278   5.3836   5.5939   6.1230   6.1940   6.4309   6.7074

     occupation numbers 
     1.0000   1.0000   1.0000   1.0000   1.0000   1.0000   1.0000   1.0000
     1.0000   1.0000   1.0000   1.0000   1.0000   1.0000   1.0000   1.0000
     1.0000   1.0000   1.0000   1.0000   0.0655   0.0014   0.0000   0.0000

          k = 0.2382-0.4763-0.4763 (  8620 PWs)   bands (ev):

   -50.5304 -26.4850 -26.4850 -26.4844 -22.1324  -7.4967  -7.4967  -7.0929
    -4.3451  -3.5135  -3.5135   2.2579   2.9069   2.9069   3.5259   4.6150
     5.0877   5.0877   5.1884   5.6425   6.1132   6.1232   6.6120   6.6849

     occupation numbers 
     1.0000   1.0000   1.0000   1.0000   1.0000   1.0000   1.0000   1.0000
     1.0000   1.0000   1.0000   1.0000   1.0000   1.0000   1.0000   1.0000
     1.0000   1.0000   1.0000   1.0000   0.0955   0.0651   0.0000   0.0000

          k = 0.3572 0.3572 0.3572 (  8684 PWs)   bands (ev):

   -50.5304 -26.4848 -26.4848 -26.4848 -22.1320  -7.4135  -7.3818  -7.3818
    -3.8414  -3.7065  -3.7065   2.4899   2.7208   2.7208   3.6584   4.7329
     4.7329   5.3596   5.3596   5.8770   6.0781   6.0781   6.0807   6.7193

     occupation numbers 
     1.0000   1.0000   1.0000   1.0000   1.0000   1.0000   1.0000   1.0000
     1.0000   1.0000   1.0000   1.0000   1.0000   1.0000   1.0000   1.0000
     1.0000   1.0000   1.0000   0.9998   0.2822   0.2822   0.2643   0.0000

          k = 0.3572 0.3572-0.4763 (  8674 PWs)   bands (ev):

   -50.5304 -26.4850 -26.4848 -26.4848 -22.1311  -7.4931  -7.3996  -7.3790
    -3.7962  -3.7053  -3.5131   2.4723   2.6247   2.7123   3.4942   4.7004
     4.7532   5.4115   5.4567   5.8301   6.0748   6.0966   6.2826   6.5063

     occupation numbers 
     1.0000   1.0000   1.0000   1.0000   1.0000   1.0000   1.0000   1.0000
     1.0000   1.0000   1.0000   1.0000   1.0000   1.0000   1.0000   1.0000
     1.0000   1.0000   1.0000   1.0000   0.3060   0.1684   0.0000   0.0000

          k = 0.3572-0.4763-0.4763 (  8652 PWs)   bands (ev):

   -50.5304 -26.4850 -26.4850 -26.4848 -22.1301  -7.4900  -7.4900  -7.3865
    -3.7506  -3.5117  -3.5117   2.4437   2.6272   2.6272   3.3497   4.6245
     4.7564   5.5931   5.5931   5.8425   6.0346   6.1243   6.3659   6.4033

     occupation numbers 
     1.0000   1.0000   1.0000   1.0000   1.0000   1.0000   1.0000   1.0000
     1.0000   1.0000   1.0000   1.0000   1.0000   1.0000   1.0000   1.0000
     1.0000   1.0000   1.0000   1.0000   0.6284   0.0622   0.0000   0.0000

          k =-0.4763-0.4763-0.4763 (  8552 PWs)   bands (ev):

   -50.5304 -26.4849 -26.4849 -26.4849 -22.1291  -7.4872  -7.4872  -7.4872
    -3.5109  -3.5109  -3.5109   2.5302   2.5302   2.5302   3.2251   4.6285
     4.6285   5.9956   5.9956   5.9956   6.0719   6.0719   6.0719   6.1177

     occupation numbers 
     1.0000   1.0000   1.0000   1.0000   1.0000   1.0000   1.0000   1.0000
     1.0000   1.0000   1.0000   1.0000   1.0000   1.0000   1.0000   1.0000
     1.0000   0.8725   0.8725   0.8725   0.3272   0.3272   0.3272   0.0807

     the Fermi energy is     6.0504 ev

!    total energy              =    -591.31405728 Ry
     estimated scf accuracy    <          7.3E-11 Ry
     smearing contrib. (-TS)   =      -0.00284334 Ry
     internal energy E=F+TS    =    -591.31121395 Ry

     The total energy is F=E-TS. E is the sum of the following terms:
     one-electron contribution =     -62.49062278 Ry
     hartree contribution      =      46.68957867 Ry
     xc contribution           =     -44.59386574 Ry
     ewald contribution        =    -173.75225346 Ry
     one-center paw contrib.   =    -357.16405064 Ry
      -> PAW hartree energy AE =       0.00000000 Ry
      -> PAW hartree energy PS =       0.00000000 Ry
      -> PAW xc energy AE      =       0.00000000 Ry
      -> PAW xc energy PS      =       0.00000000 Ry
      -> total E_H with PAW    =      46.68957867 Ry
      -> total E_XC with PAW   =     -44.59386574 Ry

     convergence has been achieved in  15 iterations

     Forces acting on atoms (cartesian axes, Ry/au):

     atom    1 type  1   force =     0.00000000    0.00000000    0.00000000
     atom    2 type  2   force =     0.00000000    0.00000000    0.00000000
     atom    3 type  3   force =     0.00000000    0.00000000    0.00000000
     atom    4 type  3   force =     0.00000000    0.00000000    0.00000000
     atom    5 type  3   force =     0.00000000    0.00000000    0.00000000
     The non-local contrib.  to forces
     atom    1 type  1   force =     0.00000000    0.00000000    0.00000000
     atom    2 type  2   force =     0.00000000    0.00000000    0.00000000
     atom    3 type  3   force =     0.00000000    0.00000000    0.00000000
     atom    4 type  3   force =     0.00000000    0.00000000    0.00000000
     atom    5 type  3   force =     0.00000000    0.00000000    0.00000000
     The ionic contribution  to forces
     atom    1 type  1   force =     0.00000000    0.00000000    0.00000000
     atom    2 type  2   force =     0.00000000    0.00000000    0.00000000
     atom    3 type  3   force =     0.00000000    0.00000000    0.00000000
     atom    4 type  3   force =     0.00000000    0.00000000    0.00000000
     atom    5 type  3   force =     0.00000000    0.00000000    0.00000000
     The local contribution  to forces
     atom    1 type  1   force =    -0.00000000   -0.00000000    0.00000000
     atom    2 type  2   force =    -0.00000000   -0.00000000   -0.00000000
     atom    3 type  3   force =    -0.00000000   -0.00000000    0.00000000
     atom    4 type  3   force =    -0.00000000   -0.00000000    0.00000000
     atom    5 type  3   force =    -0.00000000   -0.00000000   -0.00000000
     The core correction contribution to forces
     atom    1 type  1   force =    -0.00000000   -0.00000000   -0.00000000
     atom    2 type  2   force =     0.00000000    0.00000000    0.00000000
     atom    3 type  3   force =     0.00000000    0.00000000    0.00000000
     atom    4 type  3   force =    -0.00000000    0.00000000    0.00000000
     atom    5 type  3   force =    -0.00000000   -0.00000000    0.00000000
     The Hubbard contrib.    to forces
     atom    1 type  1   force =     0.00000000    0.00000000    0.00000000
     atom    2 type  2   force =     0.00000000    0.00000000    0.00000000
     atom    3 type  3   force =     0.00000000    0.00000000    0.00000000
     atom    4 type  3   force =     0.00000000    0.00000000    0.00000000
     atom    5 type  3   force =     0.00000000    0.00000000    0.00000000
     The SCF correction term to forces
     atom    1 type  1   force =     0.00000000    0.00000000    0.00000000
     atom    2 type  2   force =     0.00000000   -0.00000000    0.00000000
     atom    3 type  3   force =    -0.00000000   -0.00000000    0.00000000
     atom    4 type  3   force =    -0.00000000   -0.00000000   -0.00000000
     atom    5 type  3   force =     0.00000000    0.00000000    0.00000000

     Total force =     0.000000     Total SCF correction =     0.000000


     Computing stress (Cartesian axis) and pressure

          total   stress  (Ry/bohr**3)                   (kbar)     P=        8.93
   0.00006069   0.00000000   0.00000000            8.93        0.00        0.00
   0.00000000   0.00006069   0.00000000            0.00        8.93        0.00
   0.00000000   0.00000000   0.00006069            0.00        0.00        8.93

     kinetic stress (kbar)  10753.27      0.00      0.00
                                0.00  10753.27      0.00
                                0.00      0.00  10753.27

     local   stress (kbar)  -5061.71      0.00      0.00
                                0.00  -5061.71     -0.00
                                0.00     -0.00  -5061.71

     nonloc. stress (kbar)   4149.57      0.00      0.00
                                0.00   4149.57      0.00
                                0.00      0.00   4149.57

     hartree stress (kbar)   2758.12     -0.00     -0.00
                               -0.00   2758.12      0.00
                               -0.00      0.00   2758.12

     exc-cor stress (kbar)   -635.13      0.00     -0.00
                                0.00   -635.13      0.00
                               -0.00      0.00   -635.13

     corecor stress (kbar)  -1691.03      0.00      0.00
                                0.00  -1691.03      0.00
                                0.00      0.00  -1691.03

     ewald   stress (kbar) -10264.17     -0.00     -0.00
                               -0.00 -10264.17     -0.00
                               -0.00     -0.00 -10264.17

     hubbard stress (kbar)      0.00      0.00      0.00
                                0.00      0.00      0.00
                                0.00      0.00      0.00

     DFT-D   stress (kbar)      0.00      0.00      0.00
                                0.00      0.00      0.00
                                0.00      0.00      0.00

     XDM     stress (kbar)      0.00      0.00      0.00
                                0.00      0.00      0.00
                                0.00      0.00      0.00

     dft-nl  stress (kbar)      0.00      0.00      0.00
                                0.00      0.00      0.00
                                0.00      0.00      0.00

     TS-vdW  stress (kbar)      0.00      0.00      0.00
                                0.00      0.00      0.00
                                0.00      0.00      0.00

     MDB     stress (kbar)      0.00      0.00      0.00
                                0.00      0.00      0.00
                                0.00      0.00      0.00

     3D-RISM stress (kbar)      0.00      0.00      0.00
                                0.00      0.00      0.00
                                0.00      0.00      0.00

     Energy error            =      7.3E-03 Ry
     Gradient error          =      0.0E+00 Ry/Bohr
     Cell gradient error     =      8.9E+00 kbar

     number of scf cycles    =   4
     number of bfgs steps    =   3

     enthalpy           old  =    -591.3067906688 Ry
     enthalpy           new  =    -591.3140572835 Ry

     CASE: enthalpy          _new < enthalpy          _old

     new trust radius        =       0.0445267583 bohr
     new conv_thr            =            1.0E-10 Ry

     new unit-cell volume =    849.45903 a.u.^3 (   125.87684 Ang^3 )
     density =      3.01016 g/cm^3

CELL_PARAMETERS (angstrom)
   5.011663977   0.000000000   0.000000000
   0.000000000   5.011663977   0.000000000
   0.000000000   0.000000000   5.011663977

ATOMIC_POSITIONS (crystal)
K                0.0000000000        0.0000000000        0.0000000000
Nb               0.5000000000        0.5000000000        0.5000000000
S                0.5000000000        0.0000000000        0.0000000000
S                0.0000000000        0.5000000000        0.0000000000
S                0.0000000000        0.0000000000        0.5000000000



     Writing config-only to output data dir ./tmp/knbs3.save/ :
     XML data file
     NEW-OLD atomic charge density approx. for the potential

     total cpu time spent up to now is     1338.2 secs

     Self-consistent Calculation

     iteration #  1     ecut=    80.00 Ry     beta= 0.40
     Davidson diagonalization with overlap

---- Real-time Memory Report at c_bands before calling an iterative solver
           219 MiB given to the printing process from OS
             0 MiB allocation reported by mallinfo(arena+hblkhd)
         46774 MiB available memory on the node where the printing process lives
------------------
     ethr =  1.00E-06,  avg # of iterations =  4.9

     total cpu time spent up to now is     1367.5 secs

     total energy              =    -591.31040023 Ry
     estimated scf accuracy    <       0.00803792 Ry

     iteration #  2     ecut=    80.00 Ry     beta= 0.40
     Davidson diagonalization with overlap

---- Real-time Memory Report at c_bands before calling an iterative solver
           219 MiB given to the printing process from OS
             0 MiB allocation reported by mallinfo(arena+hblkhd)
         46962 MiB available memory on the node where the printing process lives
------------------
     ethr =  2.01E-05,  avg # of iterations =  6.5

     total cpu time spent up to now is     1397.4 secs

     total energy              =    -591.29141067 Ry
     estimated scf accuracy    <       0.86723106 Ry

     iteration #  3     ecut=    80.00 Ry     beta= 0.40
     Davidson diagonalization with overlap

---- Real-time Memory Report at c_bands before calling an iterative solver
           219 MiB given to the printing process from OS
             0 MiB allocation reported by mallinfo(arena+hblkhd)
         46823 MiB available memory on the node where the printing process lives
------------------
     ethr =  2.01E-05,  avg # of iterations =  5.6

     total cpu time spent up to now is     1424.4 secs

     total energy              =    -591.31470648 Ry
     estimated scf accuracy    <       0.00051769 Ry

     iteration #  4     ecut=    80.00 Ry     beta= 0.40
     Davidson diagonalization with overlap

---- Real-time Memory Report at c_bands before calling an iterative solver
           219 MiB given to the printing process from OS
             0 MiB allocation reported by mallinfo(arena+hblkhd)
         46990 MiB available memory on the node where the printing process lives
------------------
     ethr =  1.29E-06,  avg # of iterations =  3.3

     total cpu time spent up to now is     1444.5 secs

     total energy              =    -591.31471837 Ry
     estimated scf accuracy    <       0.00006801 Ry

     iteration #  5     ecut=    80.00 Ry     beta= 0.40
     Davidson diagonalization with overlap

---- Real-time Memory Report at c_bands before calling an iterative solver
           219 MiB given to the printing process from OS
             0 MiB allocation reported by mallinfo(arena+hblkhd)
         47016 MiB available memory on the node where the printing process lives
------------------
     ethr =  1.70E-07,  avg # of iterations =  2.5

     total cpu time spent up to now is     1463.4 secs

     total energy              =    -591.31470549 Ry
     estimated scf accuracy    <       0.00000802 Ry

     iteration #  6     ecut=    80.00 Ry     beta= 0.40
     Davidson diagonalization with overlap

---- Real-time Memory Report at c_bands before calling an iterative solver
           219 MiB given to the printing process from OS
             0 MiB allocation reported by mallinfo(arena+hblkhd)
         46801 MiB available memory on the node where the printing process lives
------------------
     ethr =  2.00E-08,  avg # of iterations =  3.1

     total cpu time spent up to now is     1483.6 secs

     total energy              =    -591.31470556 Ry
     estimated scf accuracy    <       0.00001247 Ry

     iteration #  7     ecut=    80.00 Ry     beta= 0.40
     Davidson diagonalization with overlap

---- Real-time Memory Report at c_bands before calling an iterative solver
           219 MiB given to the printing process from OS
             0 MiB allocation reported by mallinfo(arena+hblkhd)
         46952 MiB available memory on the node where the printing process lives
------------------
     ethr =  2.00E-08,  avg # of iterations =  2.0

     total cpu time spent up to now is     1500.5 secs

     total energy              =    -591.31470617 Ry
     estimated scf accuracy    <       0.00000189 Ry

     iteration #  8     ecut=    80.00 Ry     beta= 0.40
     Davidson diagonalization with overlap

---- Real-time Memory Report at c_bands before calling an iterative solver
           219 MiB given to the printing process from OS
             0 MiB allocation reported by mallinfo(arena+hblkhd)
         46757 MiB available memory on the node where the printing process lives
------------------
     ethr =  4.73E-09,  avg # of iterations =  1.8

     total cpu time spent up to now is     1516.0 secs

     total energy              =    -591.31470618 Ry
     estimated scf accuracy    <       0.00000004 Ry

     iteration #  9     ecut=    80.00 Ry     beta= 0.40
     Davidson diagonalization with overlap

---- Real-time Memory Report at c_bands before calling an iterative solver
           219 MiB given to the printing process from OS
             0 MiB allocation reported by mallinfo(arena+hblkhd)
         46851 MiB available memory on the node where the printing process lives
------------------
     ethr =  8.95E-11,  avg # of iterations =  7.2

     total cpu time spent up to now is     1549.8 secs

     total energy              =    -591.31470624 Ry
     estimated scf accuracy    <       0.00000034 Ry

     iteration # 10     ecut=    80.00 Ry     beta= 0.40
     Davidson diagonalization with overlap

---- Real-time Memory Report at c_bands before calling an iterative solver
           219 MiB given to the printing process from OS
             0 MiB allocation reported by mallinfo(arena+hblkhd)
         46882 MiB available memory on the node where the printing process lives
------------------
     ethr =  8.95E-11,  avg # of iterations =  1.0

     total cpu time spent up to now is     1563.8 secs

     total energy              =    -591.31470623 Ry
     estimated scf accuracy    <       0.00000014 Ry

     iteration # 11     ecut=    80.00 Ry     beta= 0.40
     Davidson diagonalization with overlap

---- Real-time Memory Report at c_bands before calling an iterative solver
           219 MiB given to the printing process from OS
             0 MiB allocation reported by mallinfo(arena+hblkhd)
         46867 MiB available memory on the node where the printing process lives
------------------
     ethr =  8.95E-11,  avg # of iterations =  1.1

     total cpu time spent up to now is     1578.1 secs

     total energy              =    -591.31470623 Ry
     estimated scf accuracy    <       0.00000002 Ry

     iteration # 12     ecut=    80.00 Ry     beta= 0.40
     Davidson diagonalization with overlap

---- Real-time Memory Report at c_bands before calling an iterative solver
           219 MiB given to the printing process from OS
             0 MiB allocation reported by mallinfo(arena+hblkhd)
         46729 MiB available memory on the node where the printing process lives
------------------
     ethr =  4.43E-11,  avg # of iterations =  3.3

     total cpu time spent up to now is     1597.7 secs

     total energy              =    -591.31470623 Ry
     estimated scf accuracy    <          1.0E-10 Ry

     iteration # 13     ecut=    80.00 Ry     beta= 0.40
     Davidson diagonalization with overlap

---- Real-time Memory Report at c_bands before calling an iterative solver
           219 MiB given to the printing process from OS
             0 MiB allocation reported by mallinfo(arena+hblkhd)
         46903 MiB available memory on the node where the printing process lives
------------------
     c_bands:  1 eigenvalues not converged
     ethr =  2.62E-13,  avg # of iterations =  7.6

     total cpu time spent up to now is     1633.0 secs

     total energy              =    -591.31470623 Ry
     estimated scf accuracy    <          2.4E-09 Ry

     iteration # 14     ecut=    80.00 Ry     beta= 0.40
     Davidson diagonalization with overlap

---- Real-time Memory Report at c_bands before calling an iterative solver
           219 MiB given to the printing process from OS
             0 MiB allocation reported by mallinfo(arena+hblkhd)
         46942 MiB available memory on the node where the printing process lives
------------------
     ethr =  2.62E-13,  avg # of iterations =  5.3

     total cpu time spent up to now is     1660.9 secs

     total energy              =    -591.31470623 Ry
     estimated scf accuracy    <          4.0E-10 Ry

     iteration # 15     ecut=    80.00 Ry     beta= 0.40
     Davidson diagonalization with overlap

---- Real-time Memory Report at c_bands before calling an iterative solver
           219 MiB given to the printing process from OS
             0 MiB allocation reported by mallinfo(arena+hblkhd)
         46864 MiB available memory on the node where the printing process lives
------------------
     ethr =  2.62E-13,  avg # of iterations =  1.1

     total cpu time spent up to now is     1675.8 secs

     total energy              =    -591.31470623 Ry
     estimated scf accuracy    <          5.9E-10 Ry

     iteration # 16     ecut=    80.00 Ry     beta= 0.40
     Davidson diagonalization with overlap

---- Real-time Memory Report at c_bands before calling an iterative solver
           219 MiB given to the printing process from OS
             0 MiB allocation reported by mallinfo(arena+hblkhd)
         47032 MiB available memory on the node where the printing process lives
------------------
     ethr =  2.62E-13,  avg # of iterations =  1.0

     total cpu time spent up to now is     1689.3 secs

     total energy              =    -591.31470623 Ry
     estimated scf accuracy    <          1.2E-10 Ry

     iteration # 17     ecut=    80.00 Ry     beta= 0.40
     Davidson diagonalization with overlap

---- Real-time Memory Report at c_bands before calling an iterative solver
           219 MiB given to the printing process from OS
             0 MiB allocation reported by mallinfo(arena+hblkhd)
         46991 MiB available memory on the node where the printing process lives
------------------
     ethr =  2.62E-13,  avg # of iterations =  1.0

     total cpu time spent up to now is     1703.3 secs

     End of self-consistent calculation

          k = 0.0000 0.0000 0.0000 (  8709 PWs)   bands (ev):

   -50.8220 -26.7762 -26.7762 -26.7762 -22.3448  -6.4714  -6.4714  -6.4714
    -6.3151  -5.4910  -5.4910   3.6156   3.6156   3.6156   4.7289   4.7289
     4.7289   5.3953   5.3953   5.5715   5.5715   5.5715   6.2857   6.2857

     occupation numbers 
     1.0000   1.0000   1.0000   1.0000   1.0000   1.0000   1.0000   1.0000
     1.0000   1.0000   1.0000   1.0000   1.0000   1.0000   1.0000   1.0000
     1.0000   1.0000   1.0000   1.0000   1.0000   1.0000   0.0000   0.0000

          k = 0.0000 0.0000 0.1182 (  8629 PWs)   bands (ev):

   -50.8220 -26.7763 -26.7762 -26.7762 -22.3439  -6.8726  -6.4695  -6.4695
    -6.1270  -5.4868  -5.1798   3.4678   3.6076   3.6076   4.4381   4.5519
     4.5519   5.4426   5.5789   5.7016   5.7879   5.7879   5.8189   6.2497

     occupation numbers 
     1.0000   1.0000   1.0000   1.0000   1.0000   1.0000   1.0000   1.0000
     1.0000   1.0000   1.0000   1.0000   1.0000   1.0000   1.0000   1.0000
     1.0000   1.0000   0.9999   0.8883   0.2824   0.2824   0.1110   0.0000

          k = 0.0000 0.0000 0.2363 (  8645 PWs)   bands (ev):

   -50.8220 -26.7767 -26.7761 -26.7761 -22.3418  -7.2989  -6.4651  -6.4651
    -6.0544  -5.4767  -4.5739   3.1989   3.5956   3.5956   4.0431   4.2592
     4.2592   5.0297   5.5627   5.5971   6.1317   6.1485   6.1485   6.2035

     occupation numbers 
     1.0000   1.0000   1.0000   1.0000   1.0000   1.0000   1.0000   1.0000
     1.0000   1.0000   1.0000   1.0000   1.0000   1.0000   1.0000   1.0000
     1.0000   1.0000   1.0000   0.9997   0.0000   0.0000   0.0000   0.0000

          k = 0.0000 0.0000 0.3545 (  8686 PWs)   bands (ev):

   -50.8220 -26.7771 -26.7761 -26.7761 -22.3397  -7.5776  -6.4606  -6.4606
    -6.0222  -5.4665  -4.0480   3.0389   3.6016   3.6016   3.7709   4.0229
     4.0229   4.2522   5.6155   5.6910   6.1015   6.1015   6.4353   6.5202

     occupation numbers 
     1.0000   1.0000   1.0000   1.0000   1.0000   1.0000   1.0000   1.0000
     1.0000   1.0000   1.0000   1.0000   1.0000   1.0000   1.0000   1.0000
     1.0000   1.0000   0.9987   0.9247   0.0000   0.0000   0.0000   0.0000

          k = 0.0000 0.0000-0.4727 (  8722 PWs)   bands (ev):

   -50.8220 -26.7772 -26.7761 -26.7761 -22.3389  -7.6736  -6.4588  -6.4588
    -6.0114  -5.4623  -3.8373   3.0239   3.6163   3.6163   3.6752   3.8967
     3.9241   3.9241   5.6232   5.7472   6.0771   6.0771   6.5429   6.6545

     occupation numbers 
     1.0000   1.0000   1.0000   1.0000   1.0000   1.0000   1.0000   1.0000
     1.0000   1.0000   1.0000   1.0000   1.0000   1.0000   1.0000   1.0000
     1.0000   1.0000   0.9978   0.6060   0.0000   0.0000   0.0000   0.0000

          k = 0.0000 0.1182 0.1182 (  8682 PWs)   bands (ev):

   -50.8220 -26.7763 -26.7763 -26.7762 -22.3430  -6.9222  -6.7905  -6.4677
    -5.9401  -5.2759  -5.1033   3.2688   3.5989   3.6837   4.1236   4.4115
     4.6475   5.5110   5.6300   5.6914   5.7250   5.8643   6.0111   6.0414

     occupation numbers 
     1.0000   1.0000   1.0000   1.0000   1.0000   1.0000   1.0000   1.0000
     1.0000   1.0000   1.0000   1.0000   1.0000   1.0000   1.0000   1.0000
     1.0000   1.0000   0.9966   0.9235   0.7678   0.0152   0.0000   0.0000

          k = 0.0000 0.1182 0.2363 (  8672 PWs)   bands (ev):

   -50.8220 -26.7767 -26.7763 -26.7761 -22.3410  -7.2963  -6.8372  -6.4632
    -5.8623  -5.2038  -4.5660   2.9926   3.5847   3.6917   3.7852   4.1563
     4.5159   5.0228   5.6186   5.7456   5.8681   5.9694   6.1208   6.1914

     occupation numbers 
     1.0000   1.0000   1.0000   1.0000   1.0000   1.0000   1.0000   1.0000
     1.0000   1.0000   1.0000   1.0000   1.0000   1.0000   1.0000   1.0000
     1.0000   1.0000   0.9984   0.6192   0.0124   0.0000   0.0000   0.0000

          k = 0.0000 0.1182 0.3545 (  8700 PWs)   bands (ev):

   -50.8220 -26.7771 -26.7763 -26.7761 -22.3389  -7.5733  -6.8320  -6.4587
    -5.8333  -5.1894  -4.0438   2.8169   3.5602   3.5884   3.6572   3.9403
     4.1930   4.4840   5.7334   5.7637   5.8197   6.0504   6.2794   6.5045

     occupation numbers 
     1.0000   1.0000   1.0000   1.0000   1.0000   1.0000   1.0000   1.0000
     1.0000   1.0000   1.0000   1.0000   1.0000   1.0000   1.0000   1.0000
     1.0000   1.0000   0.7111   0.4712   0.1080   0.0000   0.0000   0.0000

          k = 0.0000 0.1182-0.4727 (  8686 PWs)   bands (ev):

   -50.8220 -26.7772 -26.7762 -26.7761 -22.3380  -7.6691  -6.8290  -6.4568
    -5.8241  -5.1845  -3.8331   2.7755   3.5228   3.5895   3.6033   3.8469
     3.9144   4.3993   5.7702   5.7924   5.7938   6.0230   6.4881   6.4919

     occupation numbers 
     1.0000   1.0000   1.0000   1.0000   1.0000   1.0000   1.0000   1.0000
     1.0000   1.0000   1.0000   1.0000   1.0000   1.0000   1.0000   1.0000
     1.0000   1.0000   0.4178   0.2517   0.2421   0.0000   0.0000   0.0000

          k = 0.0000 0.2363 0.2363 (  8664 PWs)   bands (ev):

   -50.8220 -26.7767 -26.7766 -26.7761 -22.3389  -7.3214  -7.2351  -6.4586
    -5.7904  -4.6677  -4.4853   2.6550   3.5612   3.5633   3.7751   3.9542
     4.7204   4.7665   5.3943   5.6981   6.0107   6.0249   6.0279   6.2591

     occupation numbers 
     1.0000   1.0000   1.0000   1.0000   1.0000   1.0000   1.0000   1.0000
     1.0000   1.0000   1.0000   1.0000   1.0000   1.0000   1.0000   1.0000
     1.0000   1.0000   1.0000   0.9015   0.0000   0.0000   0.0000   0.0000

          k = 0.0000 0.2363 0.3545 (  8671 PWs)   bands (ev):

   -50.8220 -26.7770 -26.7766 -26.7761 -22.3369  -7.5631  -7.2656  -6.4540
    -5.7671  -4.5768  -4.0329   2.4088   3.4748   3.5574   3.7514   3.7756
     4.1873   4.8413   5.2066   5.8005   5.9359   6.0986   6.1819   6.3793

     occupation numbers 
     1.0000   1.0000   1.0000   1.0000   1.0000   1.0000   1.0000   1.0000
     1.0000   1.0000   1.0000   1.0000   1.0000   1.0000   1.0000   1.0000
     1.0000   1.0000   1.0000   0.2010   0.0001   0.0000   0.0000   0.0000

          k = 0.0000 0.2363-0.4727 (  8708 PWs)   bands (ev):

   -50.8220 -26.7772 -26.7766 -26.7761 -22.3360  -7.6583  -7.2631  -6.4521
    -5.7602  -4.5686  -3.8230   2.3255   3.5271   3.5705   3.6255   3.6930
     3.9389   4.8905   5.1466   5.8992   5.9031   6.1091   6.1948   6.3881

     occupation numbers 
     1.0000   1.0000   1.0000   1.0000   1.0000   1.0000   1.0000   1.0000
     1.0000   1.0000   1.0000   1.0000   1.0000   1.0000   1.0000   1.0000
     1.0000   1.0000   1.0000   0.0019   0.0015   0.0000   0.0000   0.0000

          k = 0.0000 0.3545 0.3545 (  8672 PWs)   bands (ev):

   -50.8220 -26.7770 -26.7770 -26.7760 -22.3348  -7.5630  -7.5378  -6.4493
    -5.7484  -4.0647  -3.9957   2.1066   3.4464   3.5329   3.6342   3.8316
     4.0346   4.6624   5.1040   5.7932   5.8353   6.1380   6.3701   6.4027

     occupation numbers 
     1.0000   1.0000   1.0000   1.0000   1.0000   1.0000   1.0000   1.0000
     1.0000   1.0000   1.0000   1.0000   1.0000   1.0000   1.0000   1.0000
     1.0000   1.0000   1.0000   0.2462   0.0591   0.0000   0.0000   0.0000

          k = 0.0000 0.3545-0.4727 (  8664 PWs)   bands (ev):

   -50.8220 -26.7771 -26.7770 -26.7760 -22.3340  -7.6475  -7.5459  -6.4473
    -5.7433  -4.0266  -3.8126   2.0001   3.4444   3.5362   3.5678   3.8044
     3.9259   4.5807   5.1400   5.7973   5.8671   5.9658   6.4511   6.4532

     occupation numbers 
     1.0000   1.0000   1.0000   1.0000   1.0000   1.0000   1.0000   1.0000
     1.0000   1.0000   1.0000   1.0000   1.0000   1.0000   1.0000   1.0000
     1.0000   1.0000   1.0000   0.2200   0.0131   0.0000   0.0000   0.0000

          k = 0.0000-0.4727-0.4727 (  8604 PWs)   bands (ev):

   -50.8220 -26.7771 -26.7771 -26.7760 -22.3331  -7.6430  -7.6430  -6.4453
    -5.7389  -3.8083  -3.8083   1.8851   3.3893   3.5216   3.5216   3.8950
     3.8950   4.3943   5.2060   5.7573   5.7927   5.8831   6.5347   6.6002

     occupation numbers 
     1.0000   1.0000   1.0000   1.0000   1.0000   1.0000   1.0000   1.0000
     1.0000   1.0000   1.0000   1.0000   1.0000   1.0000   1.0000   1.0000
     1.0000   1.0000   1.0000   0.5240   0.2494   0.0053   0.0000   0.0000

          k = 0.1182 0.1182 0.1182 (  8646 PWs)   bands (ev):

   -50.8220 -26.7763 -26.7763 -26.7763 -22.3422  -6.9591  -6.7881  -6.7881
    -5.6589  -5.1001  -5.1001   3.1123   3.6426   3.6426   4.0960   4.0960
     4.8608   5.4865   5.5433   5.5433   5.8007   5.9757   5.9757   6.1397

     occupation numbers 
     1.0000   1.0000   1.0000   1.0000   1.0000   1.0000   1.0000   1.0000
     1.0000   1.0000   1.0000   1.0000   1.0000   1.0000   1.0000   1.0000
     1.0000   1.0000   1.0000   1.0000   0.2000   0.0000   0.0000   0.0000

          k = 0.1182 0.1182 0.2363 (  8652 PWs)   bands (ev):

   -50.8220 -26.7767 -26.7763 -26.7763 -22.3401  -7.2939  -6.8745  -6.7823
    -5.5218  -5.0923  -4.5592   2.8697   3.4750   3.5984   3.8605   4.0678
     4.7508   4.9662   5.6006   5.7729   5.8261   5.8397   5.9280   6.2464

     occupation numbers 
     1.0000   1.0000   1.0000   1.0000   1.0000   1.0000   1.0000   1.0000
     1.0000   1.0000   1.0000   1.0000   1.0000   1.0000   1.0000   1.0000
     1.0000   1.0000   0.9995   0.3956   0.0853   0.0492   0.0002   0.0000

          k = 0.1182 0.1182 0.3545 (  8695 PWs)   bands (ev):

   -50.8220 -26.7770 -26.7763 -26.7762 -22.3381  -7.5693  -6.8711  -6.7764
    -5.4845  -5.0844  -4.0401   2.7191   3.2690   3.4805   3.7971   4.0146
     4.3571   4.5631   5.6856   5.6922   5.8611   5.9381   6.2282   6.3466

     occupation numbers 
     1.0000   1.0000   1.0000   1.0000   1.0000   1.0000   1.0000   1.0000
     1.0000   1.0000   1.0000   1.0000   1.0000   1.0000   1.0000   1.0000
     1.0000   1.0000   0.9394   0.9212   0.0180   0.0001   0.0000   0.0000

          k = 0.1182 0.1182-0.4727 (  8720 PWs)   bands (ev):

   -50.8220 -26.7772 -26.7762 -26.7762 -22.3372  -7.6649  -6.8682  -6.7740
    -5.4744  -5.0811  -3.8295   2.6882   3.1876   3.4035   3.7863   3.8946
     4.2030   4.4870   5.6551   5.7218   5.8426   5.9943   6.4006   6.4360

     occupation numbers 
     1.0000   1.0000   1.0000   1.0000   1.0000   1.0000   1.0000   1.0000
     1.0000   1.0000   1.0000   1.0000   1.0000   1.0000   1.0000   1.0000
     1.0000   1.0000   0.9855   0.7873   0.0433   0.0000   0.0000   0.0000

          k = 0.1182 0.2363 0.2363 (  8660 PWs)   bands (ev):

   -50.8220 -26.7766 -26.7766 -26.7762 -22.3381  -7.3194  -7.2325  -6.8165
    -5.3543  -4.6485  -4.4832   2.6186   3.2667   3.4596   3.8892   4.1033
     4.7044   4.9147   5.3839   5.6749   5.8042   5.8305   5.9085   6.4404

     occupation numbers 
     1.0000   1.0000   1.0000   1.0000   1.0000   1.0000   1.0000   1.0000
     1.0000   1.0000   1.0000   1.0000   1.0000   1.0000   1.0000   1.0000
     1.0000   1.0000   1.0000   0.9619   0.1802   0.0719   0.0010   0.0000

          k = 0.1182 0.2363 0.3545 (  8663 PWs)   bands (ev):

   -50.8220 -26.7770 -26.7766 -26.7762 -22.3360  -7.5596  -7.2640  -6.8119
    -5.3221  -4.5680  -4.0304   2.4192   3.1259   3.3274   3.8613   4.0801
     4.2984   4.9138   5.1818   5.6946   5.7768   5.9965   6.1694   6.3869

     occupation numbers 
     1.0000   1.0000   1.0000   1.0000   1.0000   1.0000   1.0000   1.0000
     1.0000   1.0000   1.0000   1.0000   1.0000   1.0000   1.0000   1.0000
     1.0000   1.0000   1.0000   0.9136   0.3648   0.0000   0.0000   0.0000

          k = 0.1182 0.2363-0.4727 (  8686 PWs)   bands (ev):

   -50.8220 -26.7772 -26.7766 -26.7762 -22.3352  -7.6548  -7.2616  -6.8095
    -5.3143  -4.5610  -3.8205   2.3516   3.1036   3.2394   3.7709   3.9999
     4.2389   4.9246   5.1022   5.6812   5.8076   6.1643   6.2284   6.3641

     occupation numbers 
     1.0000   1.0000   1.0000   1.0000   1.0000   1.0000   1.0000   1.0000
     1.0000   1.0000   1.0000   1.0000   1.0000   1.0000   1.0000   1.0000
     1.0000   1.0000   1.0000   0.9496   0.1620   0.0000   0.0000   0.0000

          k = 0.1182 0.3545 0.3545 (  8669 PWs)   bands (ev):

   -50.8220 -26.7770 -26.7770 -26.7762 -22.3340  -7.5601  -7.5352  -6.8080
    -5.2958  -4.0626  -3.9945   2.1511   3.0904   3.2324   3.7034   4.1969
     4.2069   4.7249   5.1487   5.5783   5.8098   6.0628   6.2114   6.4328

     occupation numbers 
     1.0000   1.0000   1.0000   1.0000   1.0000   1.0000   1.0000   1.0000
     1.0000   1.0000   1.0000   1.0000   1.0000   1.0000   1.0000   1.0000
     1.0000   1.0000   1.0000   0.9999   0.1512   0.0000   0.0000   0.0000

          k = 0.1182 0.3545-0.4727 (  8692 PWs)   bands (ev):

   -50.8220 -26.7771 -26.7769 -26.7762 -22.3331  -7.6446  -7.5434  -6.8060
    -5.2899  -4.0255  -3.8114   2.0536   3.1353   3.1488   3.5508   4.1769
     4.2708   4.6079   5.1841   5.5406   5.8609   5.9629   6.3061   6.5207

     occupation numbers 
     1.0000   1.0000   1.0000   1.0000   1.0000   1.0000   1.0000   1.0000
     1.0000   1.0000   1.0000   1.0000   1.0000   1.0000   1.0000   1.0000
     1.0000   1.0000   1.0000   1.0000   0.0181   0.0000   0.0000   0.0000

          k = 0.1182-0.4727-0.4727 (  8664 PWs)   bands (ev):

   -50.8220 -26.7771 -26.7771 -26.7762 -22.3323  -7.6404  -7.6404  -6.8041
    -5.2846  -3.8075  -3.8075   1.9455   3.1495   3.1495   3.3767   4.3074
     4.3074   4.3980   5.2486   5.4704   5.8020   5.8946   6.4736   6.5436

     occupation numbers 
     1.0000   1.0000   1.0000   1.0000   1.0000   1.0000   1.0000   1.0000
     1.0000   1.0000   1.0000   1.0000   1.0000   1.0000   1.0000   1.0000
     1.0000   1.0000   1.0000   1.0000   0.1921   0.0026   0.0000   0.0000

          k = 0.2363 0.2363 0.2363 (  8658 PWs)   bands (ev):

   -50.8220 -26.7766 -26.7766 -26.7766 -22.3360  -7.3363  -7.2261  -7.2261
    -4.8415  -4.4781  -4.4781   2.5054   3.0861   3.0861   4.1777   4.1777
     4.4366   5.2079   5.3585   5.3585   5.7001   5.7001   5.8289   6.5946

     occupation numbers 
     1.0000   1.0000   1.0000   1.0000   1.0000   1.0000   1.0000   1.0000
     1.0000   1.0000   1.0000   1.0000   1.0000   1.0000   1.0000   1.0000
     1.0000   1.0000   1.0000   1.0000   0.8941   0.8941   0.0765   0.0000

          k = 0.2363 0.2363 0.3545 (  8660 PWs)   bands (ev):

   -50.8220 -26.7770 -26.7766 -26.7766 -22.3340  -7.5515  -7.2860  -7.2197
    -4.7348  -4.4730  -4.0236   2.3898   2.8299   3.0023   3.9405   4.2192
     4.4646   5.0584   5.1705   5.3374   5.7299   5.9198   5.9661   6.5380

     occupation numbers 
     1.0000   1.0000   1.0000   1.0000   1.0000   1.0000   1.0000   1.0000
     1.0000   1.0000   1.0000   1.0000   1.0000   1.0000   1.0000   1.0000
     1.0000   1.0000   1.0000   1.0000   0.7356   0.0005   0.0000   0.0000

          k = 0.2363 0.2363-0.4727 (  8672 PWs)   bands (ev):

   -50.8220 -26.7771 -26.7766 -26.7766 -22.3331  -7.6463  -7.2848  -7.2171
    -4.7208  -4.4709  -3.8145   2.3525   2.7398   2.9653   3.7179   4.2372
     4.6317   4.8785   5.1092   5.3307   5.7534   6.0514   6.2056   6.4358

     occupation numbers 
     1.0000   1.0000   1.0000   1.0000   1.0000   1.0000   1.0000   1.0000
     1.0000   1.0000   1.0000   1.0000   1.0000   1.0000   1.0000   1.0000
     1.0000   1.0000   1.0000   1.0000   0.5557   0.0000   0.0000   0.0000

          k = 0.2363 0.3545 0.3545 (  8664 PWs)   bands (ev):

   -50.8220 -26.7769 -26.7769 -26.7765 -22.3319  -7.5532  -7.5288  -7.2450
    -4.6162  -4.0553  -3.9918   2.2583   2.7376   2.8258   3.6573   4.4338
     4.4837   4.9225   5.1661   5.3278   5.7934   5.9043   5.9647   6.4538

     occupation numbers 
     1.0000   1.0000   1.0000   1.0000   1.0000   1.0000   1.0000   1.0000
     1.0000   1.0000   1.0000   1.0000   1.0000   1.0000   1.0000   1.0000
     1.0000   1.0000   1.0000   1.0000   0.2447   0.0014   0.0000   0.0000

          k = 0.2363 0.3545-0.4727 (  8658 PWs)   bands (ev):

   -50.8220 -26.7771 -26.7769 -26.7765 -22.3311  -7.6377  -7.5374  -7.2433
    -4.6065  -4.0220  -3.8083   2.1905   2.7090   2.7898   3.4733   4.4274
     4.6748   4.7827   5.1276   5.3286   5.8304   5.8969   6.1312   6.3963

     occupation numbers 
     1.0000   1.0000   1.0000   1.0000   1.0000   1.0000   1.0000   1.0000
     1.0000   1.0000   1.0000   1.0000   1.0000   1.0000   1.0000   1.0000
     1.0000   1.0000   1.0000   1.0000   0.0721   0.0022   0.0000   0.0000

          k = 0.2363-0.4727-0.4727 (  8620 PWs)   bands (ev):

   -50.8220 -26.7770 -26.7770 -26.7765 -22.3302  -7.6341  -7.6341  -7.2419
    -4.5980  -3.8058  -3.8058   2.1044   2.7378   2.7378   3.3054   4.4069
     4.8413   4.8413   4.9365   5.3726   5.8218   5.8276   6.3057   6.3749

     occupation numbers 
     1.0000   1.0000   1.0000   1.0000   1.0000   1.0000   1.0000   1.0000
     1.0000   1.0000   1.0000   1.0000   1.0000   1.0000   1.0000   1.0000
     1.0000   1.0000   1.0000   1.0000   0.0999   0.0805   0.0000   0.0000

          k = 0.3545 0.3545 0.3545 (  8684 PWs)   bands (ev):

   -50.8220 -26.7769 -26.7769 -26.7769 -22.3299  -7.5536  -7.5225  -7.5225
    -4.1160  -3.9890  -3.9890   2.3286   2.5577   2.5577   3.4242   4.5113
     4.5113   5.1040   5.1040   5.6078   5.7860   5.7860   5.7897   6.4079

     occupation numbers 
     1.0000   1.0000   1.0000   1.0000   1.0000   1.0000   1.0000   1.0000
     1.0000   1.0000   1.0000   1.0000   1.0000   1.0000   1.0000   1.0000
     1.0000   1.0000   1.0000   0.9992   0.2956   0.2956   0.2696   0.0000

          k = 0.3545 0.3545-0.4727 (  8674 PWs)   bands (ev):

   -50.8220 -26.7770 -26.7769 -26.7769 -22.3290  -7.6307  -7.5401  -7.5198
    -4.0735  -3.9879  -3.8053   2.3134   2.4646   2.5486   3.2681   4.4856
     4.5317   5.1510   5.1967   5.5577   5.7822   5.8033   5.9874   6.2037

     occupation numbers 
     1.0000   1.0000   1.0000   1.0000   1.0000   1.0000   1.0000   1.0000
     1.0000   1.0000   1.0000   1.0000   1.0000   1.0000   1.0000   1.0000
     1.0000   1.0000   1.0000   1.0000   0.3232   0.1852   0.0000   0.0000

          k = 0.3545-0.4727-0.4727 (  8652 PWs)   bands (ev):

   -50.8220 -26.7770 -26.7770 -26.7769 -22.3282  -7.6278  -7.6278  -7.5273
    -4.0305  -3.8040  -3.8040   2.2872   2.4665   2.4665   3.1290   4.4160
     4.5377   5.3264   5.3264   5.5660   5.7431   5.8304   6.0692   6.1052

     occupation numbers 
     1.0000   1.0000   1.0000   1.0000   1.0000   1.0000   1.0000   1.0000
     1.0000   1.0000   1.0000   1.0000   1.0000   1.0000   1.0000   1.0000
     1.0000   1.0000   1.0000   1.0000   0.6386   0.0720   0.0000   0.0000

          k =-0.4727-0.4727-0.4727 (  8552 PWs)   bands (ev):

   -50.8219 -26.7770 -26.7770 -26.7770 -22.3273  -7.6252  -7.6252  -7.6252
    -3.8032  -3.8032  -3.8032   2.3724   2.3724   2.3724   3.0089   4.4197
     4.4197   5.7057   5.7057   5.7057   5.7944   5.7944   5.7944   5.8233

     occupation numbers 
     1.0000   1.0000   1.0000   1.0000   1.0000   1.0000   1.0000   1.0000
     1.0000   1.0000   1.0000   1.0000   1.0000   1.0000   1.0000   1.0000
     1.0000   0.8711   0.8711   0.8711   0.2387   0.2387   0.2387   0.0949

     the Fermi energy is     5.7602 ev

!    total energy              =    -591.31470623 Ry
     estimated scf accuracy    <          3.5E-11 Ry
     smearing contrib. (-TS)   =      -0.00295178 Ry
     internal energy E=F+TS    =    -591.31175445 Ry

     The total energy is F=E-TS. E is the sum of the following terms:
     one-electron contribution =     -64.51001353 Ry
     hartree contribution      =      47.33190108 Ry
     xc contribution           =     -44.55173925 Ry
     ewald contribution        =    -172.41989266 Ry
     one-center paw contrib.   =    -357.16201009 Ry
      -> PAW hartree energy AE =       0.00000000 Ry
      -> PAW hartree energy PS =       0.00000000 Ry
      -> PAW xc energy AE      =       0.00000000 Ry
      -> PAW xc energy PS      =       0.00000000 Ry
      -> total E_H with PAW    =      47.33190108 Ry
      -> total E_XC with PAW   =     -44.55173925 Ry

     convergence has been achieved in  17 iterations

     Forces acting on atoms (cartesian axes, Ry/au):

     atom    1 type  1   force =     0.00000000    0.00000000    0.00000000
     atom    2 type  2   force =     0.00000000    0.00000000    0.00000000
     atom    3 type  3   force =     0.00000000    0.00000000    0.00000000
     atom    4 type  3   force =     0.00000000    0.00000000    0.00000000
     atom    5 type  3   force =     0.00000000    0.00000000    0.00000000
     The non-local contrib.  to forces
     atom    1 type  1   force =     0.00000000    0.00000000    0.00000000
     atom    2 type  2   force =     0.00000000    0.00000000    0.00000000
     atom    3 type  3   force =     0.00000000    0.00000000    0.00000000
     atom    4 type  3   force =     0.00000000    0.00000000    0.00000000
     atom    5 type  3   force =     0.00000000    0.00000000    0.00000000
     The ionic contribution  to forces
     atom    1 type  1   force =     0.00000000    0.00000000    0.00000000
     atom    2 type  2   force =     0.00000000    0.00000000    0.00000000
     atom    3 type  3   force =     0.00000000    0.00000000    0.00000000
     atom    4 type  3   force =     0.00000000    0.00000000    0.00000000
     atom    5 type  3   force =     0.00000000    0.00000000    0.00000000
     The local contribution  to forces
     atom    1 type  1   force =    -0.00000000   -0.00000000    0.00000000
     atom    2 type  2   force =    -0.00000000   -0.00000000   -0.00000000
     atom    3 type  3   force =    -0.00000000   -0.00000000   -0.00000000
     atom    4 type  3   force =     0.00000000   -0.00000000   -0.00000000
     atom    5 type  3   force =    -0.00000000   -0.00000000   -0.00000000
     The core correction contribution to forces
     atom    1 type  1   force =    -0.00000000   -0.00000000   -0.00000000
     atom    2 type  2   force =     0.00000000    0.00000000    0.00000000
     atom    3 type  3   force =     0.00000000   -0.00000000   -0.00000000
     atom    4 type  3   force =    -0.00000000    0.00000000   -0.00000000
     atom    5 type  3   force =     0.00000000   -0.00000000    0.00000000
     The Hubbard contrib.    to forces
     atom    1 type  1   force =     0.00000000    0.00000000    0.00000000
     atom    2 type  2   force =     0.00000000    0.00000000    0.00000000
     atom    3 type  3   force =     0.00000000    0.00000000    0.00000000
     atom    4 type  3   force =     0.00000000    0.00000000    0.00000000
     atom    5 type  3   force =     0.00000000    0.00000000    0.00000000
     The SCF correction term to forces
     atom    1 type  1   force =     0.00000000   -0.00000000    0.00000000
     atom    2 type  2   force =    -0.00000000   -0.00000000    0.00000000
     atom    3 type  3   force =    -0.00000000   -0.00000000   -0.00000000
     atom    4 type  3   force =     0.00000000    0.00000000   -0.00000000
     atom    5 type  3   force =    -0.00000000    0.00000000   -0.00000000

     Total force =     0.000000     Total SCF correction =     0.000000


     Computing stress (Cartesian axis) and pressure

          total   stress  (Ry/bohr**3)                   (kbar)     P=        1.07
   0.00000730   0.00000000   0.00000000            1.07        0.00        0.00
   0.00000000   0.00000730   0.00000000            0.00        1.07        0.00
   0.00000000   0.00000000   0.00000730            0.00        0.00        1.07

     kinetic stress (kbar)  10497.73      0.00      0.00
                                0.00  10497.73      0.00
                                0.00      0.00  10497.73

     local   stress (kbar)  -5058.85     -0.00      0.00
                               -0.00  -5058.85     -0.00
                                0.00     -0.00  -5058.85

     nonloc. stress (kbar)   4053.88      0.00      0.00
                                0.00   4053.88      0.00
                                0.00      0.00   4053.88

     hartree stress (kbar)   2732.23     -0.00     -0.00
                               -0.00   2732.23      0.00
                               -0.00      0.00   2732.23

     exc-cor stress (kbar)   -618.66      0.00     -0.00
                                0.00   -618.66     -0.00
                               -0.00     -0.00   -618.66

     corecor stress (kbar)  -1652.32     -0.00     -0.00
                               -0.00  -1652.32     -0.00
                               -0.00     -0.00  -1652.32

     ewald   stress (kbar)  -9952.94      0.00     -0.00
                                0.00  -9952.94     -0.00
                               -0.00     -0.00  -9952.94

     hubbard stress (kbar)      0.00      0.00      0.00
                                0.00      0.00      0.00
                                0.00      0.00      0.00

     DFT-D   stress (kbar)      0.00      0.00      0.00
                                0.00      0.00      0.00
                                0.00      0.00      0.00

     XDM     stress (kbar)      0.00      0.00      0.00
                                0.00      0.00      0.00
                                0.00      0.00      0.00

     dft-nl  stress (kbar)      0.00      0.00      0.00
                                0.00      0.00      0.00
                                0.00      0.00      0.00

     TS-vdW  stress (kbar)      0.00      0.00      0.00
                                0.00      0.00      0.00
                                0.00      0.00      0.00

     MDB     stress (kbar)      0.00      0.00      0.00
                                0.00      0.00      0.00
                                0.00      0.00      0.00

     3D-RISM stress (kbar)      0.00      0.00      0.00
                                0.00      0.00      0.00
                                0.00      0.00      0.00

     Energy error            =      6.5E-04 Ry
     Gradient error          =      0.0E+00 Ry/Bohr
     Cell gradient error     =      1.1E+00 kbar

     number of scf cycles    =   5
     number of bfgs steps    =   4

     enthalpy           old  =    -591.3140572835 Ry
     enthalpy           new  =    -591.3147062274 Ry

     CASE: enthalpy          _new < enthalpy          _old

     new trust radius        =       0.0062187093 bohr
     new conv_thr            =            1.0E-10 Ry

     new unit-cell volume =    852.18064 a.u.^3 (   126.28014 Ang^3 )
     density =      3.00055 g/cm^3

CELL_PARAMETERS (angstrom)
   5.017010617   0.000000000   0.000000000
   0.000000000   5.017010617   0.000000000
   0.000000000   0.000000000   5.017010617

ATOMIC_POSITIONS (crystal)
K                0.0000000000        0.0000000000        0.0000000000
Nb               0.5000000000        0.5000000000        0.5000000000
S                0.5000000000        0.0000000000        0.0000000000
S                0.0000000000        0.5000000000        0.0000000000
S                0.0000000000        0.0000000000        0.5000000000



     Writing config-only to output data dir ./tmp/knbs3.save/ :
     XML data file
     NEW-OLD atomic charge density approx. for the potential

     total cpu time spent up to now is     1720.6 secs

     Self-consistent Calculation

     iteration #  1     ecut=    80.00 Ry     beta= 0.40
     Davidson diagonalization with overlap

---- Real-time Memory Report at c_bands before calling an iterative solver
           219 MiB given to the printing process from OS
             0 MiB allocation reported by mallinfo(arena+hblkhd)
         46860 MiB available memory on the node where the printing process lives
------------------
     ethr =  1.00E-06,  avg # of iterations =  2.0

     total cpu time spent up to now is     1739.5 secs

     total energy              =    -591.31464018 Ry
     estimated scf accuracy    <       0.00014100 Ry

     iteration #  2     ecut=    80.00 Ry     beta= 0.40
     Davidson diagonalization with overlap

---- Real-time Memory Report at c_bands before calling an iterative solver
           219 MiB given to the printing process from OS
             0 MiB allocation reported by mallinfo(arena+hblkhd)
         46914 MiB available memory on the node where the printing process lives
------------------
     ethr =  3.53E-07,  avg # of iterations =  5.9

     total cpu time spent up to now is     1769.8 secs

     total energy              =    -591.31404643 Ry
     estimated scf accuracy    <       0.02756685 Ry

     iteration #  3     ecut=    80.00 Ry     beta= 0.40
     Davidson diagonalization with overlap

---- Real-time Memory Report at c_bands before calling an iterative solver
           219 MiB given to the printing process from OS
             0 MiB allocation reported by mallinfo(arena+hblkhd)
         46865 MiB available memory on the node where the printing process lives
------------------
     ethr =  3.53E-07,  avg # of iterations =  5.4

     total cpu time spent up to now is     1795.9 secs

     total energy              =    -591.31471666 Ry
     estimated scf accuracy    <       0.00000214 Ry

     iteration #  4     ecut=    80.00 Ry     beta= 0.40
     Davidson diagonalization with overlap

---- Real-time Memory Report at c_bands before calling an iterative solver
           219 MiB given to the printing process from OS
             0 MiB allocation reported by mallinfo(arena+hblkhd)
         46921 MiB available memory on the node where the printing process lives
------------------
     ethr =  5.35E-09,  avg # of iterations =  4.8

     total cpu time spent up to now is     1819.8 secs

     total energy              =    -591.31471673 Ry
     estimated scf accuracy    <       0.00000270 Ry

     iteration #  5     ecut=    80.00 Ry     beta= 0.40
     Davidson diagonalization with overlap

---- Real-time Memory Report at c_bands before calling an iterative solver
           219 MiB given to the printing process from OS
             0 MiB allocation reported by mallinfo(arena+hblkhd)
         46908 MiB available memory on the node where the printing process lives
------------------
     ethr =  5.35E-09,  avg # of iterations =  1.0

     total cpu time spent up to now is     1834.2 secs

     total energy              =    -591.31471652 Ry
     estimated scf accuracy    <       0.00000023 Ry

     iteration #  6     ecut=    80.00 Ry     beta= 0.40
     Davidson diagonalization with overlap

---- Real-time Memory Report at c_bands before calling an iterative solver
           219 MiB given to the printing process from OS
             0 MiB allocation reported by mallinfo(arena+hblkhd)
         47008 MiB available memory on the node where the printing process lives
------------------
     ethr =  5.77E-10,  avg # of iterations =  2.3

     total cpu time spent up to now is     1850.9 secs

     total energy              =    -591.31471651 Ry
     estimated scf accuracy    <       0.00000008 Ry

     iteration #  7     ecut=    80.00 Ry     beta= 0.40
     Davidson diagonalization with overlap

---- Real-time Memory Report at c_bands before calling an iterative solver
           219 MiB given to the printing process from OS
             0 MiB allocation reported by mallinfo(arena+hblkhd)
         47047 MiB available memory on the node where the printing process lives
------------------
     ethr =  2.10E-10,  avg # of iterations =  2.6

     total cpu time spent up to now is     1869.4 secs

     total energy              =    -591.31471652 Ry
     estimated scf accuracy    <          9.8E-10 Ry

     iteration #  8     ecut=    80.00 Ry     beta= 0.40
     Davidson diagonalization with overlap

---- Real-time Memory Report at c_bands before calling an iterative solver
           219 MiB given to the printing process from OS
             0 MiB allocation reported by mallinfo(arena+hblkhd)
         46941 MiB available memory on the node where the printing process lives
------------------
     ethr =  2.46E-12,  avg # of iterations =  6.4

     total cpu time spent up to now is     1900.6 secs

     total energy              =    -591.31471652 Ry
     estimated scf accuracy    <          7.7E-09 Ry

     iteration #  9     ecut=    80.00 Ry     beta= 0.40
     Davidson diagonalization with overlap

---- Real-time Memory Report at c_bands before calling an iterative solver
           219 MiB given to the printing process from OS
             0 MiB allocation reported by mallinfo(arena+hblkhd)
         46794 MiB available memory on the node where the printing process lives
------------------
     ethr =  2.46E-12,  avg # of iterations =  1.4

     total cpu time spent up to now is     1916.0 secs

     total energy              =    -591.31471652 Ry
     estimated scf accuracy    <          7.5E-10 Ry

     iteration # 10     ecut=    80.00 Ry     beta= 0.40
     Davidson diagonalization with overlap

---- Real-time Memory Report at c_bands before calling an iterative solver
           219 MiB given to the printing process from OS
             0 MiB allocation reported by mallinfo(arena+hblkhd)
         46910 MiB available memory on the node where the printing process lives
------------------
     ethr =  1.86E-12,  avg # of iterations =  1.5

     total cpu time spent up to now is     1931.3 secs

     End of self-consistent calculation

          k = 0.0000 0.0000 0.0000 (  8709 PWs)   bands (ev):

   -50.8618 -26.8160 -26.8160 -26.8160 -22.3719  -6.4940  -6.4940  -6.4940
    -6.3415  -5.5217  -5.5217   3.5857   3.5857   3.5857   4.6966   4.6966
     4.6966   5.3583   5.3583   5.5341   5.5341   5.5341   6.2425   6.2425

     occupation numbers 
     1.0000   1.0000   1.0000   1.0000   1.0000   1.0000   1.0000   1.0000
     1.0000   1.0000   1.0000   1.0000   1.0000   1.0000   1.0000   1.0000
     1.0000   1.0000   1.0000   0.9999   0.9999   0.9999   0.0000   0.0000

          k = 0.0000 0.0000 0.1180 (  8629 PWs)   bands (ev):

   -50.8618 -26.8162 -26.8160 -26.8160 -22.3710  -6.8945  -6.4922  -6.4922
    -6.1540  -5.5176  -5.2115   3.4386   3.5780   3.5780   4.4071   4.5206
     4.5206   5.4053   5.5415   5.6631   5.7493   5.7493   5.7777   6.2067

     occupation numbers 
     1.0000   1.0000   1.0000   1.0000   1.0000   1.0000   1.0000   1.0000
     1.0000   1.0000   1.0000   1.0000   1.0000   1.0000   1.0000   1.0000
     1.0000   1.0000   0.9999   0.8837   0.2748   0.2748   0.1174   0.0000

          k = 0.0000 0.0000 0.2361 (  8645 PWs)   bands (ev):

   -50.8618 -26.8165 -26.8160 -26.8160 -22.3690  -7.3190  -6.4878  -6.4878
    -6.0821  -5.5076  -4.6087   3.1708   3.5664   3.5664   4.0140   4.2295
     4.2295   4.9931   5.5244   5.5594   6.0907   6.1059   6.1059   6.1623

     occupation numbers 
     1.0000   1.0000   1.0000   1.0000   1.0000   1.0000   1.0000   1.0000
     1.0000   1.0000   1.0000   1.0000   1.0000   1.0000   1.0000   1.0000
     1.0000   1.0000   1.0000   0.9996   0.0000   0.0000   0.0000   0.0000

          k = 0.0000 0.0000 0.3541 (  8686 PWs)   bands (ev):

   -50.8618 -26.8169 -26.8160 -26.8160 -22.3669  -7.5966  -6.4834  -6.4834
    -6.0503  -5.4976  -4.0861   3.0114   3.5726   3.5726   3.7431   3.9947
     3.9947   4.2206   5.5775   5.6516   6.0584   6.0584   6.3924   6.4773

     occupation numbers 
     1.0000   1.0000   1.0000   1.0000   1.0000   1.0000   1.0000   1.0000
     1.0000   1.0000   1.0000   1.0000   1.0000   1.0000   1.0000   1.0000
     1.0000   1.0000   0.9985   0.9241   0.0000   0.0000   0.0000   0.0000

          k = 0.0000 0.0000-0.4722 (  8722 PWs)   bands (ev):

   -50.8618 -26.8171 -26.8159 -26.8159 -22.3661  -7.6921  -6.4815  -6.4815
    -6.0396  -5.4934  -3.8769   2.9961   3.5873   3.5873   3.6479   3.8678
     3.8966   3.8966   5.5851   5.7073   6.0340   6.0340   6.4993   6.6106

     occupation numbers 
     1.0000   1.0000   1.0000   1.0000   1.0000   1.0000   1.0000   1.0000
     1.0000   1.0000   1.0000   1.0000   1.0000   1.0000   1.0000   1.0000
     1.0000   1.0000   0.9976   0.6086   0.0000   0.0000   0.0000   0.0000

          k = 0.0000 0.1180 0.1180 (  8682 PWs)   bands (ev):

   -50.8618 -26.8162 -26.8162 -26.8160 -22.3702  -6.9440  -6.8124  -6.4903
    -5.9677  -5.3072  -5.1355   3.2406   3.5695   3.6538   4.0942   4.3809
     4.6155   5.4733   5.5917   5.6535   5.6837   5.8252   5.9703   6.0010

     occupation numbers 
     1.0000   1.0000   1.0000   1.0000   1.0000   1.0000   1.0000   1.0000
     1.0000   1.0000   1.0000   1.0000   1.0000   1.0000   1.0000   1.0000
     1.0000   1.0000   0.9963   0.9182   0.7779   0.0148   0.0000   0.0000

          k = 0.0000 0.1180 0.2361 (  8672 PWs)   bands (ev):

   -50.8618 -26.8165 -26.8161 -26.8160 -22.3681  -7.3164  -6.8591  -6.4859
    -5.8908  -5.2355  -4.6009   2.9658   3.5558   3.6623   3.7569   4.1270
     4.4844   4.9861   5.5801   5.7073   5.8282   5.9288   6.0779   6.1506

     occupation numbers 
     1.0000   1.0000   1.0000   1.0000   1.0000   1.0000   1.0000   1.0000
     1.0000   1.0000   1.0000   1.0000   1.0000   1.0000   1.0000   1.0000
     1.0000   1.0000   0.9982   0.6084   0.0126   0.0000   0.0000   0.0000

          k = 0.0000 0.1180 0.3541 (  8700 PWs)   bands (ev):

   -50.8618 -26.8169 -26.8161 -26.8159 -22.3661  -7.5923  -6.8540  -6.4814
    -5.8620  -5.2212  -4.0820   2.7912   3.5331   3.5598   3.6279   3.9123
     4.1620   4.4526   5.6939   5.7251   5.7791   6.0077   6.2375   6.4613

     occupation numbers 
     1.0000   1.0000   1.0000   1.0000   1.0000   1.0000   1.0000   1.0000
     1.0000   1.0000   1.0000   1.0000   1.0000   1.0000   1.0000   1.0000
     1.0000   1.0000   0.7098   0.4622   0.1117   0.0000   0.0000   0.0000

          k = 0.0000 0.1180-0.4722 (  8686 PWs)   bands (ev):

   -50.8618 -26.8170 -26.8161 -26.8159 -22.3652  -7.6877  -6.8511  -6.4796
    -5.8530  -5.2164  -3.8728   2.7500   3.4957   3.5605   3.5746   3.8196
     3.8853   4.3688   5.7315   5.7523   5.7532   5.9803   6.4449   6.4489

     occupation numbers 
     1.0000   1.0000   1.0000   1.0000   1.0000   1.0000   1.0000   1.0000
     1.0000   1.0000   1.0000   1.0000   1.0000   1.0000   1.0000   1.0000
     1.0000   1.0000   0.4099   0.2544   0.2486   0.0000   0.0000   0.0000

          k = 0.0000 0.2361 0.2361 (  8664 PWs)   bands (ev):

   -50.8618 -26.8165 -26.8165 -26.8159 -22.3661  -7.3415  -7.2555  -6.4814
    -5.8195  -4.7019  -4.5207   2.6304   3.5335   3.5350   3.7458   3.9259
     4.6876   4.7301   5.3585   5.6592   5.9714   5.9822   5.9872   6.2176

     occupation numbers 
     1.0000   1.0000   1.0000   1.0000   1.0000   1.0000   1.0000   1.0000
     1.0000   1.0000   1.0000   1.0000   1.0000   1.0000   1.0000   1.0000
     1.0000   1.0000   1.0000   0.8988   0.0000   0.0000   0.0000   0.0000

          k = 0.0000 0.2361 0.3541 (  8671 PWs)   bands (ev):

   -50.8618 -26.8168 -26.8164 -26.8159 -22.3641  -7.5822  -7.2860  -6.4768
    -5.7964  -4.6117  -4.0712   2.3856   3.4469   3.5296   3.7225   3.7482
     4.1555   4.8075   5.1715   5.7609   5.8936   6.0583   6.1402   6.3367

     occupation numbers 
     1.0000   1.0000   1.0000   1.0000   1.0000   1.0000   1.0000   1.0000
     1.0000   1.0000   1.0000   1.0000   1.0000   1.0000   1.0000   1.0000
     1.0000   1.0000   1.0000   0.2006   0.0002   0.0000   0.0000   0.0000

          k = 0.0000 0.2361-0.4722 (  8708 PWs)   bands (ev):

   -50.8618 -26.8170 -26.8164 -26.8159 -22.3632  -7.6771  -7.2835  -6.4749
    -5.7896  -4.6035  -3.8628   2.3028   3.4981   3.5428   3.5975   3.6661
     3.9096   4.8569   5.1113   5.8590   5.8607   6.0687   6.1530   6.3455

     occupation numbers 
     1.0000   1.0000   1.0000   1.0000   1.0000   1.0000   1.0000   1.0000
     1.0000   1.0000   1.0000   1.0000   1.0000   1.0000   1.0000   1.0000
     1.0000   1.0000   1.0000   0.0020   0.0018   0.0000   0.0000   0.0000

          k = 0.0000 0.3541 0.3541 (  8672 PWs)   bands (ev):

   -50.8617 -26.8168 -26.8168 -26.8159 -22.3621  -7.5822  -7.5571  -6.4721
    -5.7779  -4.1028  -4.0343   2.0850   3.4179   3.5059   3.6073   3.8028
     4.0033   4.6316   5.0689   5.7536   5.7931   6.0964   6.3277   6.3607

     occupation numbers 
     1.0000   1.0000   1.0000   1.0000   1.0000   1.0000   1.0000   1.0000
     1.0000   1.0000   1.0000   1.0000   1.0000   1.0000   1.0000   1.0000
     1.0000   1.0000   1.0000   0.2460   0.0655   0.0000   0.0000   0.0000

          k = 0.0000 0.3541-0.4722 (  8664 PWs)   bands (ev):

   -50.8617 -26.8169 -26.8168 -26.8159 -22.3612  -7.6663  -7.5652  -6.4702
    -5.7729  -4.0650  -3.8526   1.9790   3.4153   3.5095   3.5412   3.7757
     3.8966   4.5504   5.1044   5.7551   5.8273   5.9248   6.4087   6.4104

     occupation numbers 
     1.0000   1.0000   1.0000   1.0000   1.0000   1.0000   1.0000   1.0000
     1.0000   1.0000   1.0000   1.0000   1.0000   1.0000   1.0000   1.0000
     1.0000   1.0000   1.0000   0.2360   0.0132   0.0000   0.0000   0.0000

          k = 0.0000-0.4722-0.4722 (  8604 PWs)   bands (ev):

   -50.8617 -26.8169 -26.8169 -26.8159 -22.3604  -7.6619  -7.6619  -6.4683
    -5.7685  -3.8483  -3.8483   1.8646   3.3601   3.4952   3.4952   3.8660
     3.8660   4.3658   5.1698   5.7151   5.7533   5.8424   6.4915   6.5566

     occupation numbers 
     1.0000   1.0000   1.0000   1.0000   1.0000   1.0000   1.0000   1.0000
     1.0000   1.0000   1.0000   1.0000   1.0000   1.0000   1.0000   1.0000
     1.0000   1.0000   1.0000   0.5450   0.2479   0.0056   0.0000   0.0000

          k = 0.1180 0.1180 0.1180 (  8646 PWs)   bands (ev):

   -50.8618 -26.8162 -26.8161 -26.8161 -22.3693  -6.9808  -6.8100  -6.8100
    -5.6873  -5.1323  -5.1323   3.0849   3.6134   3.6134   4.0664   4.0664
     4.8279   5.4468   5.5056   5.5056   5.7605   5.9349   5.9349   6.0990

     occupation numbers 
     1.0000   1.0000   1.0000   1.0000   1.0000   1.0000   1.0000   1.0000
     1.0000   1.0000   1.0000   1.0000   1.0000   1.0000   1.0000   1.0000
     1.0000   1.0000   1.0000   1.0000   0.2030   0.0000   0.0000   0.0000

          k = 0.1180 0.1180 0.2361 (  8652 PWs)   bands (ev):

   -50.8618 -26.8165 -26.8161 -26.8161 -22.3673  -7.3141  -6.8964  -6.8042
    -5.5512  -5.1246  -4.5941   2.8435   3.4482   3.5701   3.8308   4.0379
     4.7185   4.9291   5.5622   5.7339   5.7872   5.7997   5.8870   6.2048

     occupation numbers 
     1.0000   1.0000   1.0000   1.0000   1.0000   1.0000   1.0000   1.0000
     1.0000   1.0000   1.0000   1.0000   1.0000   1.0000   1.0000   1.0000
     1.0000   1.0000   0.9995   0.3905   0.0829   0.0498   0.0003   0.0000

          k = 0.1180 0.1180 0.3541 (  8695 PWs)   bands (ev):

   -50.8618 -26.8169 -26.8161 -26.8161 -22.3653  -7.5883  -6.8931  -6.7984
    -5.5142  -5.1168  -4.0783   2.6939   3.2438   3.4527   3.7674   3.9849
     4.3250   4.5319   5.6464   5.6522   5.8204   5.8984   6.1866   6.3043

     occupation numbers 
     1.0000   1.0000   1.0000   1.0000   1.0000   1.0000   1.0000   1.0000
     1.0000   1.0000   1.0000   1.0000   1.0000   1.0000   1.0000   1.0000
     1.0000   1.0000   0.9384   0.9222   0.0189   0.0001   0.0000   0.0000

          k = 0.1180 0.1180-0.4722 (  8720 PWs)   bands (ev):

   -50.8618 -26.8170 -26.8161 -26.8161 -22.3644  -7.6836  -6.8902  -6.7960
    -5.5042  -5.1136  -3.8692   2.6632   3.1628   3.3757   3.7567   3.8654
     4.1728   4.4563   5.6149   5.6824   5.8019   5.9543   6.3580   6.3931

     occupation numbers 
     1.0000   1.0000   1.0000   1.0000   1.0000   1.0000   1.0000   1.0000
     1.0000   1.0000   1.0000   1.0000   1.0000   1.0000   1.0000   1.0000
     1.0000   1.0000   0.9859   0.7858   0.0454   0.0000   0.0000   0.0000

          k = 0.1180 0.2361 0.2361 (  8660 PWs)   bands (ev):

   -50.8618 -26.8165 -26.8165 -26.8161 -22.3653  -7.3395  -7.2529  -6.8385
    -5.3848  -4.6828  -4.5187   2.5940   3.2409   3.4329   3.8592   4.0728
     4.6676   4.8812   5.3481   5.6363   5.7639   5.7909   5.8688   6.3977

     occupation numbers 
     1.0000   1.0000   1.0000   1.0000   1.0000   1.0000   1.0000   1.0000
     1.0000   1.0000   1.0000   1.0000   1.0000   1.0000   1.0000   1.0000
     1.0000   1.0000   1.0000   0.9600   0.1836   0.0716   0.0010   0.0000

          k = 0.1180 0.2361 0.3541 (  8663 PWs)   bands (ev):

   -50.8617 -26.8168 -26.8164 -26.8161 -22.3632  -7.5788  -7.2843  -6.8339
    -5.3529  -4.6030  -4.0687   2.3959   3.1007   3.3012   3.8313   4.0496
     4.2661   4.8800   5.1466   5.6550   5.7370   5.9562   6.1282   6.3445

     occupation numbers 
     1.0000   1.0000   1.0000   1.0000   1.0000   1.0000   1.0000   1.0000
     1.0000   1.0000   1.0000   1.0000   1.0000   1.0000   1.0000   1.0000
     1.0000   1.0000   1.0000   0.9135   0.3662   0.0000   0.0000   0.0000

          k = 0.1180 0.2361-0.4722 (  8686 PWs)   bands (ev):

   -50.8617 -26.8170 -26.8164 -26.8160 -22.3624  -7.6736  -7.2821  -6.8316
    -5.3452  -4.5960  -3.8603   2.3288   3.0789   3.2129   3.7412   3.9699
     4.2084   4.8909   5.0667   5.6413   5.7678   6.1226   6.1872   6.3218

     occupation numbers 
     1.0000   1.0000   1.0000   1.0000   1.0000   1.0000   1.0000   1.0000
     1.0000   1.0000   1.0000   1.0000   1.0000   1.0000   1.0000   1.0000
     1.0000   1.0000   1.0000   0.9503   0.1629   0.0000   0.0000   0.0000

          k = 0.1180 0.3541 0.3541 (  8669 PWs)   bands (ev):

   -50.8617 -26.8168 -26.8168 -26.8160 -22.3612  -7.5793  -7.5545  -6.8301
    -5.3268  -4.1007  -4.0332   2.1294   3.0651   3.2071   3.6730   4.1668
     4.1753   4.6936   5.1134   5.5387   5.7699   6.0217   6.1699   6.3905

     occupation numbers 
     1.0000   1.0000   1.0000   1.0000   1.0000   1.0000   1.0000   1.0000
     1.0000   1.0000   1.0000   1.0000   1.0000   1.0000   1.0000   1.0000
     1.0000   1.0000   1.0000   0.9999   0.1525   0.0000   0.0000   0.0000

          k = 0.1180 0.3541-0.4722 (  8692 PWs)   bands (ev):

   -50.8617 -26.8169 -26.8168 -26.8160 -22.3604  -7.6635  -7.5627  -6.8282
    -5.3209  -4.0639  -3.8513   2.0324   3.1104   3.1232   3.5212   4.1468
     4.2401   4.5771   5.1483   5.5010   5.8210   5.9218   6.2642   6.4777

     occupation numbers 
     1.0000   1.0000   1.0000   1.0000   1.0000   1.0000   1.0000   1.0000
     1.0000   1.0000   1.0000   1.0000   1.0000   1.0000   1.0000   1.0000
     1.0000   1.0000   1.0000   1.0000   0.0183   0.0000   0.0000   0.0000

          k = 0.1180-0.4722-0.4722 (  8664 PWs)   bands (ev):

   -50.8617 -26.8169 -26.8169 -26.8160 -22.3596  -7.6593  -7.6593  -6.8263
    -5.3157  -3.8476  -3.8476   1.9249   3.1246   3.1246   3.3473   4.2765
     4.2765   4.3695   5.2123   5.4309   5.7625   5.8537   6.4308   6.5004

     occupation numbers 
     1.0000   1.0000   1.0000   1.0000   1.0000   1.0000   1.0000   1.0000
     1.0000   1.0000   1.0000   1.0000   1.0000   1.0000   1.0000   1.0000
     1.0000   1.0000   1.0000   1.0000   0.1914   0.0028   0.0000   0.0000

          k = 0.2361 0.2361 0.2361 (  8658 PWs)   bands (ev):

   -50.8617 -26.8165 -26.8164 -26.8164 -22.3632  -7.3565  -7.2466  -7.2466
    -4.8744  -4.5137  -4.5137   2.4814   3.0615   3.0615   4.1466   4.1466
     4.3999   5.1733   5.3227   5.3227   5.6610   5.6610   5.7893   6.5509

     occupation numbers 
     1.0000   1.0000   1.0000   1.0000   1.0000   1.0000   1.0000   1.0000
     1.0000   1.0000   1.0000   1.0000   1.0000   1.0000   1.0000   1.0000
     1.0000   1.0000   1.0000   1.0000   0.8921   0.8921   0.0763   0.0000

          k = 0.2361 0.2361 0.3541 (  8660 PWs)   bands (ev):

   -50.8617 -26.8168 -26.8164 -26.8164 -22.3612  -7.5707  -7.3063  -7.2402
    -4.7685  -4.5086  -4.0620   2.3668   2.8066   2.9777   3.9080   4.1880
     4.4318   5.0239   5.1358   5.3014   5.6904   5.8797   5.9259   6.4948

     occupation numbers 
     1.0000   1.0000   1.0000   1.0000   1.0000   1.0000   1.0000   1.0000
     1.0000   1.0000   1.0000   1.0000   1.0000   1.0000   1.0000   1.0000
     1.0000   1.0000   1.0000   1.0000   0.7346   0.0005   0.0000   0.0000

          k = 0.2361 0.2361-0.4722 (  8672 PWs)   bands (ev):

   -50.8617 -26.8169 -26.8164 -26.8164 -22.3604  -7.6651  -7.3052  -7.2376
    -4.7546  -4.5065  -3.8544   2.3299   2.7169   2.9404   3.6873   4.2060
     4.5988   4.8444   5.0748   5.2946   5.7137   6.0103   6.1640   6.3937

     occupation numbers 
     1.0000   1.0000   1.0000   1.0000   1.0000   1.0000   1.0000   1.0000
     1.0000   1.0000   1.0000   1.0000   1.0000   1.0000   1.0000   1.0000
     1.0000   1.0000   1.0000   1.0000   0.5564   0.0000   0.0000   0.0000

          k = 0.2361 0.3541 0.3541 (  8664 PWs)   bands (ev):

   -50.8617 -26.8168 -26.8167 -26.8164 -22.3592  -7.5724  -7.5482  -7.2655
    -4.6508  -4.0935  -4.0305   2.2363   2.7143   2.8023   3.6253   4.4033
     4.4511   4.8891   5.1310   5.2918   5.7536   5.8640   5.9245   6.4111

     occupation numbers 
     1.0000   1.0000   1.0000   1.0000   1.0000   1.0000   1.0000   1.0000
     1.0000   1.0000   1.0000   1.0000   1.0000   1.0000   1.0000   1.0000
     1.0000   1.0000   1.0000   1.0000   0.2455   0.0014   0.0000   0.0000

          k = 0.2361 0.3541-0.4722 (  8658 PWs)   bands (ev):

   -50.8617 -26.8169 -26.8167 -26.8164 -22.3584  -7.6566  -7.5568  -7.2639
    -4.6411  -4.0605  -3.8483   2.1690   2.6860   2.7662   3.4426   4.3973
     4.6422   4.7492   5.0926   5.2924   5.7904   5.8563   6.0902   6.3539

     occupation numbers 
     1.0000   1.0000   1.0000   1.0000   1.0000   1.0000   1.0000   1.0000
     1.0000   1.0000   1.0000   1.0000   1.0000   1.0000   1.0000   1.0000
     1.0000   1.0000   1.0000   1.0000   0.0731   0.0024   0.0000   0.0000

          k = 0.2361-0.4722-0.4722 (  8620 PWs)   bands (ev):

   -50.8617 -26.8169 -26.8169 -26.8163 -22.3575  -7.6531  -7.6531  -7.2624
    -4.6327  -3.8458  -3.8458   2.0833   2.7147   2.7147   3.2753   4.3784
     4.8076   4.8076   4.9021   5.3357   5.7820   5.7873   6.2639   6.3326

     occupation numbers 
     1.0000   1.0000   1.0000   1.0000   1.0000   1.0000   1.0000   1.0000
     1.0000   1.0000   1.0000   1.0000   1.0000   1.0000   1.0000   1.0000
     1.0000   1.0000   1.0000   1.0000   0.1005   0.0826   0.0000   0.0000

          k = 0.3541 0.3541 0.3541 (  8684 PWs)   bands (ev):

   -50.8617 -26.8167 -26.8167 -26.8167 -22.3572  -7.5729  -7.5419  -7.5419
    -4.1537  -4.0278  -4.0278   2.3065   2.5354   2.5354   3.3924   4.4809
     4.4809   5.0690   5.0690   5.5710   5.7461   5.7461   5.7500   6.3654

     occupation numbers 
     1.0000   1.0000   1.0000   1.0000   1.0000   1.0000   1.0000   1.0000
     1.0000   1.0000   1.0000   1.0000   1.0000   1.0000   1.0000   1.0000
     1.0000   1.0000   1.0000   0.9991   0.2973   0.2973   0.2702   0.0000

          k = 0.3541 0.3541-0.4722 (  8674 PWs)   bands (ev):

   -50.8617 -26.8169 -26.8167 -26.8167 -22.3564  -7.6497  -7.5594  -7.5392
    -4.1115  -4.0266  -3.8453   2.2917   2.4426   2.5262   3.2373   4.4562
     4.5014   5.1154   5.1611   5.5204   5.7423   5.7632   5.9471   6.1624

     occupation numbers 
     1.0000   1.0000   1.0000   1.0000   1.0000   1.0000   1.0000   1.0000
     1.0000   1.0000   1.0000   1.0000   1.0000   1.0000   1.0000   1.0000
     1.0000   1.0000   1.0000   1.0000   0.3254   0.1874   0.0000   0.0000

          k = 0.3541-0.4722-0.4722 (  8652 PWs)   bands (ev):

   -50.8617 -26.8168 -26.8168 -26.8167 -22.3555  -7.6468  -7.6468  -7.5467
    -4.0689  -3.8440  -3.8440   2.2657   2.4445   2.4445   3.0989   4.3874
     4.5077   5.2899   5.2899   5.5282   5.7033   5.7903   6.0286   6.0645

     occupation numbers 
     1.0000   1.0000   1.0000   1.0000   1.0000   1.0000   1.0000   1.0000
     1.0000   1.0000   1.0000   1.0000   1.0000   1.0000   1.0000   1.0000
     1.0000   1.0000   1.0000   1.0000   0.6397   0.0734   0.0000   0.0000

          k =-0.4722-0.4722-0.4722 (  8552 PWs)   bands (ev):

   -50.8617 -26.8168 -26.8168 -26.8168 -22.3547  -7.6442  -7.6442  -7.6442
    -3.8433  -3.8433  -3.8433   2.3508   2.3508   2.3508   2.9795   4.3911
     4.3911   5.6662   5.6662   5.6662   5.7564   5.7564   5.7564   5.7830

     occupation numbers 
     1.0000   1.0000   1.0000   1.0000   1.0000   1.0000   1.0000   1.0000
     1.0000   1.0000   1.0000   1.0000   1.0000   1.0000   1.0000   1.0000
     1.0000   0.8708   0.8708   0.8708   0.2278   0.2278   0.2278   0.0969

     the Fermi energy is     5.7205 ev

!    total energy              =    -591.31471652 Ry
     estimated scf accuracy    <          5.8E-11 Ry
     smearing contrib. (-TS)   =      -0.00296594 Ry
     internal energy E=F+TS    =    -591.31175058 Ry

     The total energy is F=E-TS. E is the sum of the following terms:
     one-electron contribution =     -64.78903092 Ry
     hartree contribution      =      47.42119361 Ry
     xc contribution           =     -44.54603537 Ry
     ewald contribution        =    -172.23614436 Ry
     one-center paw contrib.   =    -357.16173355 Ry
      -> PAW hartree energy AE =       0.00000000 Ry
      -> PAW hartree energy PS =       0.00000000 Ry
      -> PAW xc energy AE      =       0.00000000 Ry
      -> PAW xc energy PS      =       0.00000000 Ry
      -> total E_H with PAW    =      47.42119361 Ry
      -> total E_XC with PAW   =     -44.54603537 Ry

     convergence has been achieved in  10 iterations

     Forces acting on atoms (cartesian axes, Ry/au):

     atom    1 type  1   force =     0.00000000    0.00000000    0.00000000
     atom    2 type  2   force =     0.00000000    0.00000000    0.00000000
     atom    3 type  3   force =     0.00000000    0.00000000    0.00000000
     atom    4 type  3   force =     0.00000000    0.00000000    0.00000000
     atom    5 type  3   force =     0.00000000    0.00000000    0.00000000
     The non-local contrib.  to forces
     atom    1 type  1   force =     0.00000000    0.00000000    0.00000000
     atom    2 type  2   force =     0.00000000    0.00000000    0.00000000
     atom    3 type  3   force =     0.00000000    0.00000000    0.00000000
     atom    4 type  3   force =     0.00000000    0.00000000    0.00000000
     atom    5 type  3   force =     0.00000000    0.00000000    0.00000000
     The ionic contribution  to forces
     atom    1 type  1   force =     0.00000000    0.00000000    0.00000000
     atom    2 type  2   force =     0.00000000    0.00000000    0.00000000
     atom    3 type  3   force =     0.00000000    0.00000000    0.00000000
     atom    4 type  3   force =     0.00000000    0.00000000    0.00000000
     atom    5 type  3   force =     0.00000000    0.00000000    0.00000000
     The local contribution  to forces
     atom    1 type  1   force =    -0.00000000   -0.00000000    0.00000000
     atom    2 type  2   force =    -0.00000000   -0.00000000   -0.00000000
     atom    3 type  3   force =    -0.00000000   -0.00000000    0.00000000
     atom    4 type  3   force =    -0.00000000   -0.00000000    0.00000000
     atom    5 type  3   force =    -0.00000000   -0.00000000   -0.00000000
     The core correction contribution to forces
     atom    1 type  1   force =    -0.00000000   -0.00000000   -0.00000000
     atom    2 type  2   force =     0.00000000    0.00000000    0.00000000
     atom    3 type  3   force =     0.00000000   -0.00000000   -0.00000000
     atom    4 type  3   force =     0.00000000    0.00000000   -0.00000000
     atom    5 type  3   force =    -0.00000000   -0.00000000    0.00000000
     The Hubbard contrib.    to forces
     atom    1 type  1   force =     0.00000000    0.00000000    0.00000000
     atom    2 type  2   force =     0.00000000    0.00000000    0.00000000
     atom    3 type  3   force =     0.00000000    0.00000000    0.00000000
     atom    4 type  3   force =     0.00000000    0.00000000    0.00000000
     atom    5 type  3   force =     0.00000000    0.00000000    0.00000000
     The SCF correction term to forces
     atom    1 type  1   force =     0.00000000    0.00000000   -0.00000000
     atom    2 type  2   force =     0.00000000    0.00000000    0.00000000
     atom    3 type  3   force =     0.00000000   -0.00000000    0.00000000
     atom    4 type  3   force =     0.00000000    0.00000000    0.00000000
     atom    5 type  3   force =    -0.00000000   -0.00000000   -0.00000000

     Total force =     0.000000     Total SCF correction =     0.000000


     Computing stress (Cartesian axis) and pressure

          total   stress  (Ry/bohr**3)                   (kbar)     P=        0.04
   0.00000030   0.00000000   0.00000000            0.04        0.00        0.00
   0.00000000   0.00000030   0.00000000            0.00        0.04        0.00
   0.00000000   0.00000000   0.00000030            0.00        0.00        0.04

     kinetic stress (kbar)  10462.86      0.00      0.00
                                0.00  10462.86      0.00
                                0.00      0.00  10462.86

     local   stress (kbar)  -5058.23     -0.00      0.00
                               -0.00  -5058.23     -0.00
                                0.00     -0.00  -5058.23

     nonloc. stress (kbar)   4040.80      0.00      0.00
                                0.00   4040.80      0.00
                                0.00      0.00   4040.80

     hartree stress (kbar)   2728.65      0.00     -0.00
                                0.00   2728.65      0.00
                               -0.00      0.00   2728.65

     exc-cor stress (kbar)   -616.42     -0.00      0.00
                               -0.00   -616.42      0.00
                                0.00      0.00   -616.42

     corecor stress (kbar)  -1647.02      0.00      0.00
                                0.00  -1647.02      0.00
                                0.00      0.00  -1647.02

     ewald   stress (kbar)  -9910.58      0.00     -0.00
                                0.00  -9910.58     -0.00
                               -0.00     -0.00  -9910.58

     hubbard stress (kbar)      0.00      0.00      0.00
                                0.00      0.00      0.00
                                0.00      0.00      0.00

     DFT-D   stress (kbar)      0.00      0.00      0.00
                                0.00      0.00      0.00
                                0.00      0.00      0.00

     XDM     stress (kbar)      0.00      0.00      0.00
                                0.00      0.00      0.00
                                0.00      0.00      0.00

     dft-nl  stress (kbar)      0.00      0.00      0.00
                                0.00      0.00      0.00
                                0.00      0.00      0.00

     TS-vdW  stress (kbar)      0.00      0.00      0.00
                                0.00      0.00      0.00
                                0.00      0.00      0.00

     MDB     stress (kbar)      0.00      0.00      0.00
                                0.00      0.00      0.00
                                0.00      0.00      0.00

     3D-RISM stress (kbar)      0.00      0.00      0.00
                                0.00      0.00      0.00
                                0.00      0.00      0.00

     Energy error            =      1.0E-05 Ry
     Gradient error          =      0.0E+00 Ry/Bohr
     Cell gradient error     =      4.4E-02 kbar

     bfgs converged in   6 scf cycles and   5 bfgs steps
     (criteria: energy <  1.0E-04 Ry, force <  1.0E-03 Ry/Bohr, cell <  5.0E-01 kbar)

     End of BFGS Geometry Optimization

     Final enthalpy           =    -591.3147165177 Ry

     File ./tmp/knbs3.bfgs deleted, as requested
Begin final coordinates
     new unit-cell volume =    852.18064 a.u.^3 (   126.28014 Ang^3 )
     density =      3.00055 g/cm^3

CELL_PARAMETERS (angstrom)
   5.017010617   0.000000000   0.000000000
   0.000000000   5.017010617   0.000000000
   0.000000000   0.000000000   5.017010617

ATOMIC_POSITIONS (crystal)
K                0.0000000000        0.0000000000        0.0000000000
Nb               0.5000000000        0.5000000000        0.5000000000
S                0.5000000000        0.0000000000        0.0000000000
S                0.0000000000        0.5000000000        0.0000000000
S                0.0000000000        0.0000000000        0.5000000000
End final coordinates



     Writing config-only to output data dir ./tmp/knbs3.save/ :
     XML data file

     Final scf calculation at the relaxed structure.
     The G-vectors are recalculated for the final unit cell
     Results may differ from those at the preceding step.

     Parallelization info
     --------------------
     sticks:   dense  smooth     PW     G-vecs:    dense   smooth      PW
     Min        2288    1142    328               116492    41100    6266
     Max        2289    1143    329               116497    41101    6267
     Sum        4577    2285    657               232989    82201   12533

     Using Slab Decomposition



     bravais-lattice index     =            0
     lattice parameter (alat)  =       8.9528  a.u.
     unit-cell volume          =     852.1806 (a.u.)^3
     number of atoms/cell      =            5
     number of atomic types    =            3
     number of electrons       =        40.00
     number of Kohn-Sham states=           24
     kinetic-energy cutoff     =      80.0000  Ry
     charge density cutoff     =     640.0000  Ry
     scf convergence threshold =      1.0E-10
     mixing beta               =       0.4000
     number of iterations used =            8  plain     mixing
     press convergence thresh. =      5.0E-01
     Exchange-correlation= PBE
                           (   1   4   3   4   0   0   0)

     celldm(1)=   8.952796  celldm(2)=   0.000000  celldm(3)=   0.000000
     celldm(4)=   0.000000  celldm(5)=   0.000000  celldm(6)=   0.000000

     crystal axes: (cart. coord. in units of alat)
               a(1) = (   1.058974   0.000000   0.000000 )  
               a(2) = (   0.000000   1.058974   0.000000 )  
               a(3) = (   0.000000   0.000000   1.058974 )  

     reciprocal axes: (cart. coord. in units 2 pi/alat)
               b(1) = (  0.944310  0.000000  0.000000 )  
               b(2) = (  0.000000  0.944310  0.000000 )  
               b(3) = (  0.000000  0.000000  0.944310 )  


     PseudoPot. # 1 for K  read from file:
     /home/administrator/Downloads/BURAI/BURAI1.3/pseudopot/K.pbe-spn-rrkjus_psl.1.0.0.UPF
     MD5 check sum: 716c94968b5730b158b89360ae401048
     Pseudo is Ultrasoft + core correction, Zval =  9.0
     Generated using "atomic" code by A. Dal Corso  v.5.1.2
     Using radial grid of 1165 points,  6 beta functions with: 
                l(1) =   0
                l(2) =   0
                l(3) =   1
                l(4) =   1
                l(5) =   2
                l(6) =   2
     Q(r) pseudized with 0 coefficients 


     PseudoPot. # 2 for Nb read from file:
     /home/administrator/Downloads/BURAI/BURAI1.3/pseudopot/Nb.pbe-spn-kjpaw_psl.1.0.0.UPF
     MD5 check sum: b00631c500922d21a0ac96a4ccc82b41
     Pseudo is Projector augmented-wave + core cor, Zval = 13.0
     Generated using "atomic" code by A. Dal Corso  v.5.1.2
     Shape of augmentation charge: PSQ
     Using radial grid of 1227 points,  6 beta functions with: 
                l(1) =   0
                l(2) =   0
                l(3) =   1
                l(4) =   1
                l(5) =   2
                l(6) =   2
     Q(r) pseudized with 0 coefficients 


     PseudoPot. # 3 for S  read from file:
     /home/administrator/Downloads/BURAI/BURAI1.3/pseudopot/S.pbe-n-kjpaw_psl.1.0.0.UPF
     MD5 check sum: cb96b46a5ee63c4f5db34501b74ad364
     Pseudo is Projector augmented-wave + core cor, Zval =  6.0
     Generated using "atomic" code by A. Dal Corso  v.5.1.2
     Shape of augmentation charge: PSQ
     Using radial grid of 1151 points,  6 beta functions with: 
                l(1) =   0
                l(2) =   0
                l(3) =   1
                l(4) =   1
                l(5) =   2
                l(6) =   2
     Q(r) pseudized with 0 coefficients 


     atomic species   valence    mass     pseudopotential
     K                 9.00    39.09830     K ( 1.00)
     Nb               13.00    92.90640     Nb( 1.00)
     S                 6.00    32.06000     S ( 1.00)

     48 Sym. Ops., with inversion, found


                                    s                        frac. trans.

      isym =  1     identity                                     

 cryst.   s( 1) = (     1          0          0      )
                  (     0          1          0      )
                  (     0          0          1      )

 cart.    s( 1) = (  1.0000000  0.0000000  0.0000000 )
                  (  0.0000000  1.0000000  0.0000000 )
                  (  0.0000000  0.0000000  1.0000000 )


      isym =  2     180 deg rotation - cart. axis [0,0,1]        

 cryst.   s( 2) = (    -1          0          0      )
                  (     0         -1          0      )
                  (     0          0          1      )

 cart.    s( 2) = ( -1.0000000  0.0000000  0.0000000 )
                  (  0.0000000 -1.0000000  0.0000000 )
                  (  0.0000000  0.0000000  1.0000000 )


      isym =  3     180 deg rotation - cart. axis [0,1,0]        

 cryst.   s( 3) = (    -1          0          0      )
                  (     0          1          0      )
                  (     0          0         -1      )

 cart.    s( 3) = ( -1.0000000  0.0000000  0.0000000 )
                  (  0.0000000  1.0000000  0.0000000 )
                  (  0.0000000  0.0000000 -1.0000000 )


      isym =  4     180 deg rotation - cart. axis [1,0,0]        

 cryst.   s( 4) = (     1          0          0      )
                  (     0         -1          0      )
                  (     0          0         -1      )

 cart.    s( 4) = (  1.0000000  0.0000000  0.0000000 )
                  (  0.0000000 -1.0000000  0.0000000 )
                  (  0.0000000  0.0000000 -1.0000000 )


      isym =  5     180 deg rotation - cart. axis [1,1,0]        

 cryst.   s( 5) = (     0          1          0      )
                  (     1          0          0      )
                  (     0          0         -1      )

 cart.    s( 5) = (  0.0000000  1.0000000  0.0000000 )
                  (  1.0000000  0.0000000  0.0000000 )
                  (  0.0000000  0.0000000 -1.0000000 )


      isym =  6     180 deg rotation - cart. axis [1,-1,0]       

 cryst.   s( 6) = (     0         -1          0      )
                  (    -1          0          0      )
                  (     0          0         -1      )

 cart.    s( 6) = (  0.0000000 -1.0000000  0.0000000 )
                  ( -1.0000000  0.0000000  0.0000000 )
                  (  0.0000000  0.0000000 -1.0000000 )


      isym =  7      90 deg rotation - cart. axis [0,0,-1]       

 cryst.   s( 7) = (     0         -1          0      )
                  (     1          0          0      )
                  (     0          0          1      )

 cart.    s( 7) = (  0.0000000  1.0000000  0.0000000 )
                  ( -1.0000000  0.0000000  0.0000000 )
                  (  0.0000000  0.0000000  1.0000000 )


      isym =  8      90 deg rotation - cart. axis [0,0,1]        

 cryst.   s( 8) = (     0          1          0      )
                  (    -1          0          0      )
                  (     0          0          1      )

 cart.    s( 8) = (  0.0000000 -1.0000000  0.0000000 )
                  (  1.0000000  0.0000000  0.0000000 )
                  (  0.0000000  0.0000000  1.0000000 )


      isym =  9     180 deg rotation - cart. axis [1,0,1]        

 cryst.   s( 9) = (     0          0          1      )
                  (     0         -1          0      )
                  (     1          0          0      )

 cart.    s( 9) = (  0.0000000  0.0000000  1.0000000 )
                  (  0.0000000 -1.0000000  0.0000000 )
                  (  1.0000000  0.0000000  0.0000000 )


      isym = 10     180 deg rotation - cart. axis [-1,0,1]       

 cryst.   s(10) = (     0          0         -1      )
                  (     0         -1          0      )
                  (    -1          0          0      )

 cart.    s(10) = (  0.0000000  0.0000000 -1.0000000 )
                  (  0.0000000 -1.0000000  0.0000000 )
                  ( -1.0000000  0.0000000  0.0000000 )


      isym = 11      90 deg rotation - cart. axis [0,1,0]        

 cryst.   s(11) = (     0          0         -1      )
                  (     0          1          0      )
                  (     1          0          0      )

 cart.    s(11) = (  0.0000000  0.0000000  1.0000000 )
                  (  0.0000000  1.0000000  0.0000000 )
                  ( -1.0000000  0.0000000  0.0000000 )


      isym = 12      90 deg rotation - cart. axis [0,-1,0]       

 cryst.   s(12) = (     0          0          1      )
                  (     0          1          0      )
                  (    -1          0          0      )

 cart.    s(12) = (  0.0000000  0.0000000 -1.0000000 )
                  (  0.0000000  1.0000000  0.0000000 )
                  (  1.0000000  0.0000000  0.0000000 )


      isym = 13     180 deg rotation - cart. axis [0,1,1]        

 cryst.   s(13) = (    -1          0          0      )
                  (     0          0          1      )
                  (     0          1          0      )

 cart.    s(13) = ( -1.0000000  0.0000000  0.0000000 )
                  (  0.0000000  0.0000000  1.0000000 )
                  (  0.0000000  1.0000000  0.0000000 )


      isym = 14     180 deg rotation - cart. axis [0,1,-1]       

 cryst.   s(14) = (    -1          0          0      )
                  (     0          0         -1      )
                  (     0         -1          0      )

 cart.    s(14) = ( -1.0000000  0.0000000  0.0000000 )
                  (  0.0000000  0.0000000 -1.0000000 )
                  (  0.0000000 -1.0000000  0.0000000 )


      isym = 15      90 deg rotation - cart. axis [-1,0,0]       

 cryst.   s(15) = (     1          0          0      )
                  (     0          0         -1      )
                  (     0          1          0      )

 cart.    s(15) = (  1.0000000  0.0000000  0.0000000 )
                  (  0.0000000  0.0000000  1.0000000 )
                  (  0.0000000 -1.0000000  0.0000000 )


      isym = 16      90 deg rotation - cart. axis [1,0,0]        

 cryst.   s(16) = (     1          0          0      )
                  (     0          0          1      )
                  (     0         -1          0      )

 cart.    s(16) = (  1.0000000  0.0000000  0.0000000 )
                  (  0.0000000  0.0000000 -1.0000000 )
                  (  0.0000000  1.0000000  0.0000000 )


      isym = 17     120 deg rotation - cart. axis [-1,-1,-1]     

 cryst.   s(17) = (     0          0          1      )
                  (     1          0          0      )
                  (     0          1          0      )

 cart.    s(17) = (  0.0000000  1.0000000  0.0000000 )
                  (  0.0000000  0.0000000  1.0000000 )
                  (  1.0000000  0.0000000  0.0000000 )


      isym = 18     120 deg rotation - cart. axis [-1,1,1]       

 cryst.   s(18) = (     0          0         -1      )
                  (    -1          0          0      )
                  (     0          1          0      )

 cart.    s(18) = (  0.0000000 -1.0000000  0.0000000 )
                  (  0.0000000  0.0000000  1.0000000 )
                  ( -1.0000000  0.0000000  0.0000000 )


      isym = 19     120 deg rotation - cart. axis [1,1,-1]       

 cryst.   s(19) = (     0          0         -1      )
                  (     1          0          0      )
                  (     0         -1          0      )

 cart.    s(19) = (  0.0000000  1.0000000  0.0000000 )
                  (  0.0000000  0.0000000 -1.0000000 )
                  ( -1.0000000  0.0000000  0.0000000 )


      isym = 20     120 deg rotation - cart. axis [1,-1,1]       

 cryst.   s(20) = (     0          0          1      )
                  (    -1          0          0      )
                  (     0         -1          0      )

 cart.    s(20) = (  0.0000000 -1.0000000  0.0000000 )
                  (  0.0000000  0.0000000 -1.0000000 )
                  (  1.0000000  0.0000000  0.0000000 )


      isym = 21     120 deg rotation - cart. axis [1,1,1]        

 cryst.   s(21) = (     0          1          0      )
                  (     0          0          1      )
                  (     1          0          0      )

 cart.    s(21) = (  0.0000000  0.0000000  1.0000000 )
                  (  1.0000000  0.0000000  0.0000000 )
                  (  0.0000000  1.0000000  0.0000000 )


      isym = 22     120 deg rotation - cart. axis [-1,1,-1]      

 cryst.   s(22) = (     0         -1          0      )
                  (     0          0         -1      )
                  (     1          0          0      )

 cart.    s(22) = (  0.0000000  0.0000000  1.0000000 )
                  ( -1.0000000  0.0000000  0.0000000 )
                  (  0.0000000 -1.0000000  0.0000000 )


      isym = 23     120 deg rotation - cart. axis [1,-1,-1]      

 cryst.   s(23) = (     0         -1          0      )
                  (     0          0          1      )
                  (    -1          0          0      )

 cart.    s(23) = (  0.0000000  0.0000000 -1.0000000 )
                  ( -1.0000000  0.0000000  0.0000000 )
                  (  0.0000000  1.0000000  0.0000000 )


      isym = 24     120 deg rotation - cart. axis [-1,-1,1]      

 cryst.   s(24) = (     0          1          0      )
                  (     0          0         -1      )
                  (    -1          0          0      )

 cart.    s(24) = (  0.0000000  0.0000000 -1.0000000 )
                  (  1.0000000  0.0000000  0.0000000 )
                  (  0.0000000 -1.0000000  0.0000000 )


      isym = 25     inversion                                    

 cryst.   s(25) = (    -1          0          0      )
                  (     0         -1          0      )
                  (     0          0         -1      )

 cart.    s(25) = ( -1.0000000  0.0000000  0.0000000 )
                  (  0.0000000 -1.0000000  0.0000000 )
                  (  0.0000000  0.0000000 -1.0000000 )


      isym = 26     inv. 180 deg rotation - cart. axis [0,0,1]   

 cryst.   s(26) = (     1          0          0      )
                  (     0          1          0      )
                  (     0          0         -1      )

 cart.    s(26) = (  1.0000000  0.0000000  0.0000000 )
                  (  0.0000000  1.0000000  0.0000000 )
                  (  0.0000000  0.0000000 -1.0000000 )


      isym = 27     inv. 180 deg rotation - cart. axis [0,1,0]   

 cryst.   s(27) = (     1          0          0      )
                  (     0         -1          0      )
                  (     0          0          1      )

 cart.    s(27) = (  1.0000000  0.0000000  0.0000000 )
                  (  0.0000000 -1.0000000  0.0000000 )
                  (  0.0000000  0.0000000  1.0000000 )


      isym = 28     inv. 180 deg rotation - cart. axis [1,0,0]   

 cryst.   s(28) = (    -1          0          0      )
                  (     0          1          0      )
                  (     0          0          1      )

 cart.    s(28) = ( -1.0000000  0.0000000  0.0000000 )
                  (  0.0000000  1.0000000  0.0000000 )
                  (  0.0000000  0.0000000  1.0000000 )


      isym = 29     inv. 180 deg rotation - cart. axis [1,1,0]   

 cryst.   s(29) = (     0         -1          0      )
                  (    -1          0          0      )
                  (     0          0          1      )

 cart.    s(29) = (  0.0000000 -1.0000000  0.0000000 )
                  ( -1.0000000  0.0000000  0.0000000 )
                  (  0.0000000  0.0000000  1.0000000 )


      isym = 30     inv. 180 deg rotation - cart. axis [1,-1,0]  

 cryst.   s(30) = (     0          1          0      )
                  (     1          0          0      )
                  (     0          0          1      )

 cart.    s(30) = (  0.0000000  1.0000000  0.0000000 )
                  (  1.0000000  0.0000000  0.0000000 )
                  (  0.0000000  0.0000000  1.0000000 )


      isym = 31     inv.  90 deg rotation - cart. axis [0,0,-1]  

 cryst.   s(31) = (     0          1          0      )
                  (    -1          0          0      )
                  (     0          0         -1      )

 cart.    s(31) = (  0.0000000 -1.0000000  0.0000000 )
                  (  1.0000000  0.0000000  0.0000000 )
                  (  0.0000000  0.0000000 -1.0000000 )


      isym = 32     inv.  90 deg rotation - cart. axis [0,0,1]   

 cryst.   s(32) = (     0         -1          0      )
                  (     1          0          0      )
                  (     0          0         -1      )

 cart.    s(32) = (  0.0000000  1.0000000  0.0000000 )
                  ( -1.0000000  0.0000000  0.0000000 )
                  (  0.0000000  0.0000000 -1.0000000 )


      isym = 33     inv. 180 deg rotation - cart. axis [1,0,1]   

 cryst.   s(33) = (     0          0         -1      )
                  (     0          1          0      )
                  (    -1          0          0      )

 cart.    s(33) = (  0.0000000  0.0000000 -1.0000000 )
                  (  0.0000000  1.0000000  0.0000000 )
                  ( -1.0000000  0.0000000  0.0000000 )


      isym = 34     inv. 180 deg rotation - cart. axis [-1,0,1]  

 cryst.   s(34) = (     0          0          1      )
                  (     0          1          0      )
                  (     1          0          0      )

 cart.    s(34) = (  0.0000000  0.0000000  1.0000000 )
                  (  0.0000000  1.0000000  0.0000000 )
                  (  1.0000000  0.0000000  0.0000000 )


      isym = 35     inv.  90 deg rotation - cart. axis [0,1,0]   

 cryst.   s(35) = (     0          0          1      )
                  (     0         -1          0      )
                  (    -1          0          0      )

 cart.    s(35) = (  0.0000000  0.0000000 -1.0000000 )
                  (  0.0000000 -1.0000000  0.0000000 )
                  (  1.0000000  0.0000000  0.0000000 )


      isym = 36     inv.  90 deg rotation - cart. axis [0,-1,0]  

 cryst.   s(36) = (     0          0         -1      )
                  (     0         -1          0      )
                  (     1          0          0      )

 cart.    s(36) = (  0.0000000  0.0000000  1.0000000 )
                  (  0.0000000 -1.0000000  0.0000000 )
                  ( -1.0000000  0.0000000  0.0000000 )


      isym = 37     inv. 180 deg rotation - cart. axis [0,1,1]   

 cryst.   s(37) = (     1          0          0      )
                  (     0          0         -1      )
                  (     0         -1          0      )

 cart.    s(37) = (  1.0000000  0.0000000  0.0000000 )
                  (  0.0000000  0.0000000 -1.0000000 )
                  (  0.0000000 -1.0000000  0.0000000 )


      isym = 38     inv. 180 deg rotation - cart. axis [0,1,-1]  

 cryst.   s(38) = (     1          0          0      )
                  (     0          0          1      )
                  (     0          1          0      )

 cart.    s(38) = (  1.0000000  0.0000000  0.0000000 )
                  (  0.0000000  0.0000000  1.0000000 )
                  (  0.0000000  1.0000000  0.0000000 )


      isym = 39     inv.  90 deg rotation - cart. axis [-1,0,0]  

 cryst.   s(39) = (    -1          0          0      )
                  (     0          0          1      )
                  (     0         -1          0      )

 cart.    s(39) = ( -1.0000000  0.0000000  0.0000000 )
                  (  0.0000000  0.0000000 -1.0000000 )
                  (  0.0000000  1.0000000  0.0000000 )


      isym = 40     inv.  90 deg rotation - cart. axis [1,0,0]   

 cryst.   s(40) = (    -1          0          0      )
                  (     0          0         -1      )
                  (     0          1          0      )

 cart.    s(40) = ( -1.0000000  0.0000000  0.0000000 )
                  (  0.0000000  0.0000000  1.0000000 )
                  (  0.0000000 -1.0000000  0.0000000 )


      isym = 41     inv. 120 deg rotation - cart. axis [-1,-1,-1]

 cryst.   s(41) = (     0          0         -1      )
                  (    -1          0          0      )
                  (     0         -1          0      )

 cart.    s(41) = (  0.0000000 -1.0000000  0.0000000 )
                  (  0.0000000  0.0000000 -1.0000000 )
                  ( -1.0000000  0.0000000  0.0000000 )


      isym = 42     inv. 120 deg rotation - cart. axis [-1,1,1]  

 cryst.   s(42) = (     0          0          1      )
                  (     1          0          0      )
                  (     0         -1          0      )

 cart.    s(42) = (  0.0000000  1.0000000  0.0000000 )
                  (  0.0000000  0.0000000 -1.0000000 )
                  (  1.0000000  0.0000000  0.0000000 )


      isym = 43     inv. 120 deg rotation - cart. axis [1,1,-1]  

 cryst.   s(43) = (     0          0          1      )
                  (    -1          0          0      )
                  (     0          1          0      )

 cart.    s(43) = (  0.0000000 -1.0000000  0.0000000 )
                  (  0.0000000  0.0000000  1.0000000 )
                  (  1.0000000  0.0000000  0.0000000 )


      isym = 44     inv. 120 deg rotation - cart. axis [1,-1,1]  

 cryst.   s(44) = (     0          0         -1      )
                  (     1          0          0      )
                  (     0          1          0      )

 cart.    s(44) = (  0.0000000  1.0000000  0.0000000 )
                  (  0.0000000  0.0000000  1.0000000 )
                  ( -1.0000000  0.0000000  0.0000000 )


      isym = 45     inv. 120 deg rotation - cart. axis [1,1,1]   

 cryst.   s(45) = (     0         -1          0      )
                  (     0          0         -1      )
                  (    -1          0          0      )

 cart.    s(45) = (  0.0000000  0.0000000 -1.0000000 )
                  ( -1.0000000  0.0000000  0.0000000 )
                  (  0.0000000 -1.0000000  0.0000000 )


      isym = 46     inv. 120 deg rotation - cart. axis [-1,1,-1] 

 cryst.   s(46) = (     0          1          0      )
                  (     0          0          1      )
                  (    -1          0          0      )

 cart.    s(46) = (  0.0000000  0.0000000 -1.0000000 )
                  (  1.0000000  0.0000000  0.0000000 )
                  (  0.0000000  1.0000000  0.0000000 )


      isym = 47     inv. 120 deg rotation - cart. axis [1,-1,-1] 

 cryst.   s(47) = (     0          1          0      )
                  (     0          0         -1      )
                  (     1          0          0      )

 cart.    s(47) = (  0.0000000  0.0000000  1.0000000 )
                  (  1.0000000  0.0000000  0.0000000 )
                  (  0.0000000 -1.0000000  0.0000000 )


      isym = 48     inv. 120 deg rotation - cart. axis [-1,-1,1] 

 cryst.   s(48) = (     0         -1          0      )
                  (     0          0          1      )
                  (     1          0          0      )

 cart.    s(48) = (  0.0000000  0.0000000  1.0000000 )
                  ( -1.0000000  0.0000000  0.0000000 )
                  (  0.0000000  1.0000000  0.0000000 )


   Cartesian axes

     site n.     atom                  positions (alat units)
         1        K      tau(   1) = (   0.0000000   0.0000000   0.0000000  )
         2        Nb     tau(   2) = (   0.5294869   0.5294869   0.5294869  )
         3        S      tau(   3) = (   0.5294869   0.0000000   0.0000000  )
         4        S      tau(   4) = (   0.0000000   0.5294869   0.0000000  )
         5        S      tau(   5) = (   0.0000000   0.0000000   0.5294869  )

   Crystallographic axes

     site n.     atom                  positions (cryst. coord.)
         1        K      tau(   1) = (  0.0000000  0.0000000  0.0000000  )
         2        Nb     tau(   2) = (  0.5000000  0.5000000  0.5000000  )
         3        S      tau(   3) = (  0.5000000  0.0000000  0.0000000  )
         4        S      tau(   4) = (  0.0000000  0.5000000  0.0000000  )
         5        S      tau(   5) = (  0.0000000  0.0000000  0.5000000  )

     number of k points=    35  Gaussian smearing, width (Ry)=  0.0050
                       cart. coord. in units 2pi/alat
        k(    1) = (   0.0000000   0.0000000   0.0000000), wk =   0.0039062
        k(    2) = (   0.0000000   0.0000000   0.1180388), wk =   0.0234375
        k(    3) = (   0.0000000   0.0000000   0.2360776), wk =   0.0234375
        k(    4) = (   0.0000000   0.0000000   0.3541164), wk =   0.0234375
        k(    5) = (   0.0000000   0.0000000  -0.4721552), wk =   0.0117188
        k(    6) = (   0.0000000   0.1180388   0.1180388), wk =   0.0468750
        k(    7) = (   0.0000000   0.1180388   0.2360776), wk =   0.0937500
        k(    8) = (   0.0000000   0.1180388   0.3541164), wk =   0.0937500
        k(    9) = (   0.0000000   0.1180388  -0.4721552), wk =   0.0468750
        k(   10) = (   0.0000000   0.2360776   0.2360776), wk =   0.0468750
        k(   11) = (   0.0000000   0.2360776   0.3541164), wk =   0.0937500
        k(   12) = (   0.0000000   0.2360776  -0.4721552), wk =   0.0468750
        k(   13) = (   0.0000000   0.3541164   0.3541164), wk =   0.0468750
        k(   14) = (   0.0000000   0.3541164  -0.4721552), wk =   0.0468750
        k(   15) = (   0.0000000  -0.4721552  -0.4721552), wk =   0.0117188
        k(   16) = (   0.1180388   0.1180388   0.1180388), wk =   0.0312500
        k(   17) = (   0.1180388   0.1180388   0.2360776), wk =   0.0937500
        k(   18) = (   0.1180388   0.1180388   0.3541164), wk =   0.0937500
        k(   19) = (   0.1180388   0.1180388  -0.4721552), wk =   0.0468750
        k(   20) = (   0.1180388   0.2360776   0.2360776), wk =   0.0937500
        k(   21) = (   0.1180388   0.2360776   0.3541164), wk =   0.1875000
        k(   22) = (   0.1180388   0.2360776  -0.4721552), wk =   0.0937500
        k(   23) = (   0.1180388   0.3541164   0.3541164), wk =   0.0937500
        k(   24) = (   0.1180388   0.3541164  -0.4721552), wk =   0.0937500
        k(   25) = (   0.1180388  -0.4721552  -0.4721552), wk =   0.0234375
        k(   26) = (   0.2360776   0.2360776   0.2360776), wk =   0.0312500
        k(   27) = (   0.2360776   0.2360776   0.3541164), wk =   0.0937500
        k(   28) = (   0.2360776   0.2360776  -0.4721552), wk =   0.0468750
        k(   29) = (   0.2360776   0.3541164   0.3541164), wk =   0.0937500
        k(   30) = (   0.2360776   0.3541164  -0.4721552), wk =   0.0937500
        k(   31) = (   0.2360776  -0.4721552  -0.4721552), wk =   0.0234375
        k(   32) = (   0.3541164   0.3541164   0.3541164), wk =   0.0312500
        k(   33) = (   0.3541164   0.3541164  -0.4721552), wk =   0.0468750
        k(   34) = (   0.3541164  -0.4721552  -0.4721552), wk =   0.0234375
        k(   35) = (  -0.4721552  -0.4721552  -0.4721552), wk =   0.0039062

                       cryst. coord.
        k(    1) = (   0.0000000   0.0000000   0.0000000), wk =   0.0039062
        k(    2) = (   0.0000000   0.0000000   0.1250000), wk =   0.0234375
        k(    3) = (   0.0000000   0.0000000   0.2500000), wk =   0.0234375
        k(    4) = (   0.0000000   0.0000000   0.3750000), wk =   0.0234375
        k(    5) = (   0.0000000   0.0000000  -0.5000000), wk =   0.0117188
        k(    6) = (   0.0000000   0.1250000   0.1250000), wk =   0.0468750
        k(    7) = (   0.0000000   0.1250000   0.2500000), wk =   0.0937500
        k(    8) = (   0.0000000   0.1250000   0.3750000), wk =   0.0937500
        k(    9) = (   0.0000000   0.1250000  -0.5000000), wk =   0.0468750
        k(   10) = (   0.0000000   0.2500000   0.2500000), wk =   0.0468750
        k(   11) = (   0.0000000   0.2500000   0.3750000), wk =   0.0937500
        k(   12) = (   0.0000000   0.2500000  -0.5000000), wk =   0.0468750
        k(   13) = (   0.0000000   0.3750000   0.3750000), wk =   0.0468750
        k(   14) = (   0.0000000   0.3750000  -0.5000000), wk =   0.0468750
        k(   15) = (   0.0000000  -0.5000000  -0.5000000), wk =   0.0117188
        k(   16) = (   0.1250000   0.1250000   0.1250000), wk =   0.0312500
        k(   17) = (   0.1250000   0.1250000   0.2500000), wk =   0.0937500
        k(   18) = (   0.1250000   0.1250000   0.3750000), wk =   0.0937500
        k(   19) = (   0.1250000   0.1250000  -0.5000000), wk =   0.0468750
        k(   20) = (   0.1250000   0.2500000   0.2500000), wk =   0.0937500
        k(   21) = (   0.1250000   0.2500000   0.3750000), wk =   0.1875000
        k(   22) = (   0.1250000   0.2500000  -0.5000000), wk =   0.0937500
        k(   23) = (   0.1250000   0.3750000   0.3750000), wk =   0.0937500
        k(   24) = (   0.1250000   0.3750000  -0.5000000), wk =   0.0937500
        k(   25) = (   0.1250000  -0.5000000  -0.5000000), wk =   0.0234375
        k(   26) = (   0.2500000   0.2500000   0.2500000), wk =   0.0312500
        k(   27) = (   0.2500000   0.2500000   0.3750000), wk =   0.0937500
        k(   28) = (   0.2500000   0.2500000  -0.5000000), wk =   0.0468750
        k(   29) = (   0.2500000   0.3750000   0.3750000), wk =   0.0937500
        k(   30) = (   0.2500000   0.3750000  -0.5000000), wk =   0.0937500
        k(   31) = (   0.2500000  -0.5000000  -0.5000000), wk =   0.0234375
        k(   32) = (   0.3750000   0.3750000   0.3750000), wk =   0.0312500
        k(   33) = (   0.3750000   0.3750000  -0.5000000), wk =   0.0468750
        k(   34) = (   0.3750000  -0.5000000  -0.5000000), wk =   0.0234375
        k(   35) = (  -0.5000000  -0.5000000  -0.5000000), wk =   0.0039062

     Dense  grid:   232989 G-vectors     FFT dimensions: (  80,  80,  80)

     Smooth grid:    82201 G-vectors     FFT dimensions: (  54,  54,  54)

     Dynamical RAM for                 wfc:       1.89 MB

     Dynamical RAM for     wfc (w. buffer):      18.85 MB

     Dynamical RAM for           str. fact:       5.33 MB

     Dynamical RAM for           local pot:       2.24 MB

     Dynamical RAM for          nlocal pot:       7.07 MB

     Dynamical RAM for                qrad:      12.18 MB

     Dynamical RAM for          rho,v,vnew:      11.19 MB

     Dynamical RAM for               rhoin:       3.73 MB

     Dynamical RAM for            rho*nmix:      28.44 MB

     Dynamical RAM for           G-vectors:       6.98 MB

     Dynamical RAM for          h,s,v(r/c):       0.11 MB

     Dynamical RAM for          <psi|beta>:       0.03 MB

     Dynamical RAM for                 psi:       3.77 MB

     Dynamical RAM for                hpsi:       3.77 MB

     Dynamical RAM for                spsi:       3.77 MB

     Dynamical RAM for      wfcinit/wfcrot:       5.21 MB

     Dynamical RAM for           addusdens:      85.32 MB

     Dynamical RAM for          addusforce:      86.67 MB

     Dynamical RAM for         addusstress:      89.99 MB

     Estimated static dynamical RAM per process >      84.45 MB

     Estimated max dynamical RAM per process >     202.89 MB

     Estimated total dynamical RAM >       1.42 GB

     Initial potential from superposition of free atoms

     starting charge      39.9798, renormalised to      40.0000
     Starting wfcs are   33 randomized atomic wfcs
     Checking if some PAW data can be deallocated... 
       PAW data deallocated on    6 nodes for type:  2
       PAW data deallocated on    4 nodes for type:  3

     total cpu time spent up to now is     1955.5 secs

     Self-consistent Calculation

     iteration #  1     ecut=    80.00 Ry     beta= 0.40
     Davidson diagonalization with overlap

---- Real-time Memory Report at c_bands before calling an iterative solver
           219 MiB given to the printing process from OS
             0 MiB allocation reported by mallinfo(arena+hblkhd)
         47246 MiB available memory on the node where the printing process lives
------------------
     c_bands:  2 eigenvalues not converged
     c_bands:  3 eigenvalues not converged
     ethr =  1.00E-06,  avg # of iterations = 15.1

     total cpu time spent up to now is     2027.3 secs

     total energy              =    -589.63492129 Ry
     estimated scf accuracy    <       3.74646272 Ry

     iteration #  2     ecut=    80.00 Ry     beta= 0.40
     Davidson diagonalization with overlap

---- Real-time Memory Report at c_bands before calling an iterative solver
           242 MiB given to the printing process from OS
             0 MiB allocation reported by mallinfo(arena+hblkhd)
         46564 MiB available memory on the node where the printing process lives
------------------
     ethr =  9.37E-03,  avg # of iterations =  4.9

     total cpu time spent up to now is     2054.3 secs

     total energy              =    -590.01348715 Ry
     estimated scf accuracy    <      28.71026167 Ry

     iteration #  3     ecut=    80.00 Ry     beta= 0.40
     Davidson diagonalization with overlap

---- Real-time Memory Report at c_bands before calling an iterative solver
           244 MiB given to the printing process from OS
             0 MiB allocation reported by mallinfo(arena+hblkhd)
         46560 MiB available memory on the node where the printing process lives
------------------
     ethr =  9.37E-03,  avg # of iterations =  2.2

     total cpu time spent up to now is     2073.2 secs

     total energy              =    -591.15820329 Ry
     estimated scf accuracy    <       0.72303942 Ry

     iteration #  4     ecut=    80.00 Ry     beta= 0.40
     Davidson diagonalization with overlap

---- Real-time Memory Report at c_bands before calling an iterative solver
           245 MiB given to the printing process from OS
             0 MiB allocation reported by mallinfo(arena+hblkhd)
         46471 MiB available memory on the node where the printing process lives
------------------
     ethr =  1.81E-03,  avg # of iterations =  3.3

     total cpu time spent up to now is     2094.2 secs

     total energy              =    -591.26093328 Ry
     estimated scf accuracy    <       0.01314921 Ry

     iteration #  5     ecut=    80.00 Ry     beta= 0.40
     Davidson diagonalization with overlap

---- Real-time Memory Report at c_bands before calling an iterative solver
           246 MiB given to the printing process from OS
             0 MiB allocation reported by mallinfo(arena+hblkhd)
         46422 MiB available memory on the node where the printing process lives
------------------
     ethr =  3.29E-05,  avg # of iterations = 10.3

     total cpu time spent up to now is     2137.8 secs

     total energy              =    -591.23087791 Ry
     estimated scf accuracy    <       1.48632666 Ry

     iteration #  6     ecut=    80.00 Ry     beta= 0.40
     Davidson diagonalization with overlap

---- Real-time Memory Report at c_bands before calling an iterative solver
           247 MiB given to the printing process from OS
             0 MiB allocation reported by mallinfo(arena+hblkhd)
         46584 MiB available memory on the node where the printing process lives
------------------
     ethr =  3.29E-05,  avg # of iterations =  6.8

     total cpu time spent up to now is     2171.8 secs

     total energy              =    -591.29569168 Ry
     estimated scf accuracy    <       0.42098038 Ry

     iteration #  7     ecut=    80.00 Ry     beta= 0.40
     Davidson diagonalization with overlap

---- Real-time Memory Report at c_bands before calling an iterative solver
           249 MiB given to the printing process from OS
             0 MiB allocation reported by mallinfo(arena+hblkhd)
         46649 MiB available memory on the node where the printing process lives
------------------
     ethr =  3.29E-05,  avg # of iterations =  5.1

     total cpu time spent up to now is     2198.5 secs

     total energy              =    -591.32722052 Ry
     estimated scf accuracy    <       0.10542204 Ry

     iteration #  8     ecut=    80.00 Ry     beta= 0.40
     Davidson diagonalization with overlap

---- Real-time Memory Report at c_bands before calling an iterative solver
           250 MiB given to the printing process from OS
             0 MiB allocation reported by mallinfo(arena+hblkhd)
         46684 MiB available memory on the node where the printing process lives
------------------
     ethr =  3.29E-05,  avg # of iterations =  2.9

     total cpu time spent up to now is     2219.4 secs

     total energy              =    -591.32589547 Ry
     estimated scf accuracy    <       0.53497014 Ry

     iteration #  9     ecut=    80.00 Ry     beta= 0.40
     Davidson diagonalization with overlap

---- Real-time Memory Report at c_bands before calling an iterative solver
           251 MiB given to the printing process from OS
             0 MiB allocation reported by mallinfo(arena+hblkhd)
         46689 MiB available memory on the node where the printing process lives
------------------
     ethr =  3.29E-05,  avg # of iterations =  1.0

     total cpu time spent up to now is     2234.4 secs

     total energy              =    -591.30646922 Ry
     estimated scf accuracy    <       0.37292327 Ry

     iteration # 10     ecut=    80.00 Ry     beta= 0.40
     Davidson diagonalization with overlap

---- Real-time Memory Report at c_bands before calling an iterative solver
           252 MiB given to the printing process from OS
             0 MiB allocation reported by mallinfo(arena+hblkhd)
         46536 MiB available memory on the node where the printing process lives
------------------
     ethr =  3.29E-05,  avg # of iterations =  2.5

     total cpu time spent up to now is     2254.7 secs

     total energy              =    -591.31559540 Ry
     estimated scf accuracy    <       0.00266320 Ry

     iteration # 11     ecut=    80.00 Ry     beta= 0.40
     Davidson diagonalization with overlap

---- Real-time Memory Report at c_bands before calling an iterative solver
           252 MiB given to the printing process from OS
             0 MiB allocation reported by mallinfo(arena+hblkhd)
         46520 MiB available memory on the node where the printing process lives
------------------
     ethr =  6.66E-06,  avg # of iterations =  1.8

     total cpu time spent up to now is     2271.3 secs

     total energy              =    -591.31718443 Ry
     estimated scf accuracy    <       0.09084664 Ry

     iteration # 12     ecut=    80.00 Ry     beta= 0.40
     Davidson diagonalization with overlap

---- Real-time Memory Report at c_bands before calling an iterative solver
           252 MiB given to the printing process from OS
             0 MiB allocation reported by mallinfo(arena+hblkhd)
         46556 MiB available memory on the node where the printing process lives
------------------
     ethr =  6.66E-06,  avg # of iterations =  1.1

     total cpu time spent up to now is     2286.7 secs

     total energy              =    -591.31489852 Ry
     estimated scf accuracy    <       0.09165910 Ry

     iteration # 13     ecut=    80.00 Ry     beta= 0.40
     Davidson diagonalization with overlap

---- Real-time Memory Report at c_bands before calling an iterative solver
           252 MiB given to the printing process from OS
             0 MiB allocation reported by mallinfo(arena+hblkhd)
         46664 MiB available memory on the node where the printing process lives
------------------
     ethr =  6.66E-06,  avg # of iterations =  1.0

     total cpu time spent up to now is     2301.9 secs

     total energy              =    -591.31388347 Ry
     estimated scf accuracy    <       0.02645345 Ry

     iteration # 14     ecut=    80.00 Ry     beta= 0.40
     Davidson diagonalization with overlap

---- Real-time Memory Report at c_bands before calling an iterative solver
           252 MiB given to the printing process from OS
             0 MiB allocation reported by mallinfo(arena+hblkhd)
         46562 MiB available memory on the node where the printing process lives
------------------
     ethr =  6.66E-06,  avg # of iterations =  1.5

     total cpu time spent up to now is     2317.8 secs

     total energy              =    -591.31475186 Ry
     estimated scf accuracy    <       0.00031877 Ry

     iteration # 15     ecut=    80.00 Ry     beta= 0.40
     Davidson diagonalization with overlap

---- Real-time Memory Report at c_bands before calling an iterative solver
           252 MiB given to the printing process from OS
             0 MiB allocation reported by mallinfo(arena+hblkhd)
         46581 MiB available memory on the node where the printing process lives
------------------
     ethr =  7.97E-07,  avg # of iterations =  4.8

     total cpu time spent up to now is     2343.3 secs

     total energy              =    -591.31485838 Ry
     estimated scf accuracy    <       0.00298733 Ry

     iteration # 16     ecut=    80.00 Ry     beta= 0.40
     Davidson diagonalization with overlap

---- Real-time Memory Report at c_bands before calling an iterative solver
           252 MiB given to the printing process from OS
             0 MiB allocation reported by mallinfo(arena+hblkhd)
         46557 MiB available memory on the node where the printing process lives
------------------
     ethr =  7.97E-07,  avg # of iterations =  1.0

     total cpu time spent up to now is     2357.9 secs

     total energy              =    -591.31482828 Ry
     estimated scf accuracy    <       0.00267618 Ry

     iteration # 17     ecut=    80.00 Ry     beta= 0.40
     Davidson diagonalization with overlap

---- Real-time Memory Report at c_bands before calling an iterative solver
           252 MiB given to the printing process from OS
             0 MiB allocation reported by mallinfo(arena+hblkhd)
         46602 MiB available memory on the node where the printing process lives
------------------
     ethr =  7.97E-07,  avg # of iterations =  1.0

     total cpu time spent up to now is     2372.8 secs

     total energy              =    -591.31475814 Ry
     estimated scf accuracy    <       0.00166014 Ry

     iteration # 18     ecut=    80.00 Ry     beta= 0.40
     Davidson diagonalization with overlap

---- Real-time Memory Report at c_bands before calling an iterative solver
           252 MiB given to the printing process from OS
             0 MiB allocation reported by mallinfo(arena+hblkhd)
         46556 MiB available memory on the node where the printing process lives
------------------
     ethr =  7.97E-07,  avg # of iterations =  1.0

     total cpu time spent up to now is     2387.8 secs

     total energy              =    -591.31479000 Ry
     estimated scf accuracy    <       0.00003230 Ry

     iteration # 19     ecut=    80.00 Ry     beta= 0.40
     Davidson diagonalization with overlap

---- Real-time Memory Report at c_bands before calling an iterative solver
           252 MiB given to the printing process from OS
             0 MiB allocation reported by mallinfo(arena+hblkhd)
         46670 MiB available memory on the node where the printing process lives
------------------
     ethr =  8.07E-08,  avg # of iterations =  3.7

     total cpu time spent up to now is     2410.2 secs

     total energy              =    -591.31479157 Ry
     estimated scf accuracy    <       0.00001558 Ry

     iteration # 20     ecut=    80.00 Ry     beta= 0.40
     Davidson diagonalization with overlap

---- Real-time Memory Report at c_bands before calling an iterative solver
           252 MiB given to the printing process from OS
             0 MiB allocation reported by mallinfo(arena+hblkhd)
         46440 MiB available memory on the node where the printing process lives
------------------
     ethr =  3.90E-08,  avg # of iterations =  1.5

     total cpu time spent up to now is     2426.5 secs

     total energy              =    -591.31479154 Ry
     estimated scf accuracy    <       0.00000993 Ry

     iteration # 21     ecut=    80.00 Ry     beta= 0.40
     Davidson diagonalization with overlap

---- Real-time Memory Report at c_bands before calling an iterative solver
           252 MiB given to the printing process from OS
             0 MiB allocation reported by mallinfo(arena+hblkhd)
         46507 MiB available memory on the node where the printing process lives
------------------
     ethr =  2.48E-08,  avg # of iterations =  1.9

     total cpu time spent up to now is     2444.1 secs

     total energy              =    -591.31484535 Ry
     estimated scf accuracy    <       0.00000471 Ry

     iteration # 22     ecut=    80.00 Ry     beta= 0.40
     Davidson diagonalization with overlap

---- Real-time Memory Report at c_bands before calling an iterative solver
           252 MiB given to the printing process from OS
             0 MiB allocation reported by mallinfo(arena+hblkhd)
         46507 MiB available memory on the node where the printing process lives
------------------
     ethr =  1.18E-08,  avg # of iterations =  1.8

     total cpu time spent up to now is     2460.3 secs

     total energy              =    -591.31484557 Ry
     estimated scf accuracy    <       0.00000165 Ry

     iteration # 23     ecut=    80.00 Ry     beta= 0.40
     Davidson diagonalization with overlap

---- Real-time Memory Report at c_bands before calling an iterative solver
           252 MiB given to the printing process from OS
             0 MiB allocation reported by mallinfo(arena+hblkhd)
         46579 MiB available memory on the node where the printing process lives
------------------
     ethr =  4.13E-09,  avg # of iterations =  1.7

     total cpu time spent up to now is     2477.0 secs

     total energy              =    -591.31484615 Ry
     estimated scf accuracy    <       0.00000356 Ry

     iteration # 24     ecut=    80.00 Ry     beta= 0.40
     Davidson diagonalization with overlap

---- Real-time Memory Report at c_bands before calling an iterative solver
           252 MiB given to the printing process from OS
             0 MiB allocation reported by mallinfo(arena+hblkhd)
         46476 MiB available memory on the node where the printing process lives
------------------
     ethr =  4.13E-09,  avg # of iterations =  1.3

     total cpu time spent up to now is     2492.9 secs

     total energy              =    -591.31484619 Ry
     estimated scf accuracy    <       0.00000086 Ry

     iteration # 25     ecut=    80.00 Ry     beta= 0.40
     Davidson diagonalization with overlap

---- Real-time Memory Report at c_bands before calling an iterative solver
           252 MiB given to the printing process from OS
             0 MiB allocation reported by mallinfo(arena+hblkhd)
         46391 MiB available memory on the node where the printing process lives
------------------
     ethr =  2.14E-09,  avg # of iterations =  1.0

     total cpu time spent up to now is     2508.0 secs

     total energy              =    -591.31484619 Ry
     estimated scf accuracy    <       0.00000112 Ry

     iteration # 26     ecut=    80.00 Ry     beta= 0.40
     Davidson diagonalization with overlap

---- Real-time Memory Report at c_bands before calling an iterative solver
           252 MiB given to the printing process from OS
             0 MiB allocation reported by mallinfo(arena+hblkhd)
         46565 MiB available memory on the node where the printing process lives
------------------
     ethr =  2.14E-09,  avg # of iterations =  1.0

     total cpu time spent up to now is     2523.2 secs

     total energy              =    -591.31484622 Ry
     estimated scf accuracy    <       0.00000103 Ry

     iteration # 27     ecut=    80.00 Ry     beta= 0.40
     Davidson diagonalization with overlap

---- Real-time Memory Report at c_bands before calling an iterative solver
           252 MiB given to the printing process from OS
             0 MiB allocation reported by mallinfo(arena+hblkhd)
         46524 MiB available memory on the node where the printing process lives
------------------
     ethr =  2.14E-09,  avg # of iterations =  1.0

     total cpu time spent up to now is     2538.0 secs

     total energy              =    -591.31484613 Ry
     estimated scf accuracy    <       0.00000173 Ry

     iteration # 28     ecut=    80.00 Ry     beta= 0.40
     Davidson diagonalization with overlap

---- Real-time Memory Report at c_bands before calling an iterative solver
           252 MiB given to the printing process from OS
             0 MiB allocation reported by mallinfo(arena+hblkhd)
         46465 MiB available memory on the node where the printing process lives
------------------
     ethr =  2.14E-09,  avg # of iterations =  1.3

     total cpu time spent up to now is     2553.7 secs

     total energy              =    -591.31484617 Ry
     estimated scf accuracy    <       0.00000021 Ry

     iteration # 29     ecut=    80.00 Ry     beta= 0.40
     Davidson diagonalization with overlap

---- Real-time Memory Report at c_bands before calling an iterative solver
           252 MiB given to the printing process from OS
             0 MiB allocation reported by mallinfo(arena+hblkhd)
         46653 MiB available memory on the node where the printing process lives
------------------
     ethr =  5.27E-10,  avg # of iterations =  2.0

     total cpu time spent up to now is     2571.5 secs

     total energy              =    -591.31489971 Ry
     estimated scf accuracy    <       0.00000191 Ry

     iteration # 30     ecut=    80.00 Ry     beta= 0.40
     Davidson diagonalization with overlap

---- Real-time Memory Report at c_bands before calling an iterative solver
           252 MiB given to the printing process from OS
             0 MiB allocation reported by mallinfo(arena+hblkhd)
         46646 MiB available memory on the node where the printing process lives
------------------
     ethr =  5.27E-10,  avg # of iterations =  1.3

     total cpu time spent up to now is     2586.5 secs

     total energy              =    -591.31489972 Ry
     estimated scf accuracy    <       0.00000211 Ry

     iteration # 31     ecut=    80.00 Ry     beta= 0.40
     Davidson diagonalization with overlap

---- Real-time Memory Report at c_bands before calling an iterative solver
           252 MiB given to the printing process from OS
             0 MiB allocation reported by mallinfo(arena+hblkhd)
         46560 MiB available memory on the node where the printing process lives
------------------
     ethr =  5.27E-10,  avg # of iterations =  1.0

     total cpu time spent up to now is     2601.8 secs

     total energy              =    -591.31489972 Ry
     estimated scf accuracy    <       0.00000170 Ry

     iteration # 32     ecut=    80.00 Ry     beta= 0.40
     Davidson diagonalization with overlap

---- Real-time Memory Report at c_bands before calling an iterative solver
           252 MiB given to the printing process from OS
             0 MiB allocation reported by mallinfo(arena+hblkhd)
         46478 MiB available memory on the node where the printing process lives
------------------
     ethr =  5.27E-10,  avg # of iterations =  1.0

     total cpu time spent up to now is     2617.6 secs

     total energy              =    -591.31489972 Ry
     estimated scf accuracy    <       0.00000151 Ry

     iteration # 33     ecut=    80.00 Ry     beta= 0.40
     Davidson diagonalization with overlap

---- Real-time Memory Report at c_bands before calling an iterative solver
           252 MiB given to the printing process from OS
             0 MiB allocation reported by mallinfo(arena+hblkhd)
         46497 MiB available memory on the node where the printing process lives
------------------
     ethr =  5.27E-10,  avg # of iterations =  1.0

     total cpu time spent up to now is     2632.7 secs

     total energy              =    -591.31489971 Ry
     estimated scf accuracy    <       0.00000126 Ry

     iteration # 34     ecut=    80.00 Ry     beta= 0.40
     Davidson diagonalization with overlap

---- Real-time Memory Report at c_bands before calling an iterative solver
           253 MiB given to the printing process from OS
             0 MiB allocation reported by mallinfo(arena+hblkhd)
         46674 MiB available memory on the node where the printing process lives
------------------
     ethr =  5.27E-10,  avg # of iterations =  1.0

     total cpu time spent up to now is     2647.5 secs

     total energy              =    -591.31489970 Ry
     estimated scf accuracy    <       0.00000134 Ry

     iteration # 35     ecut=    80.00 Ry     beta= 0.40
     Davidson diagonalization with overlap

---- Real-time Memory Report at c_bands before calling an iterative solver
           253 MiB given to the printing process from OS
             0 MiB allocation reported by mallinfo(arena+hblkhd)
         46684 MiB available memory on the node where the printing process lives
------------------
     ethr =  5.27E-10,  avg # of iterations =  1.0

     total cpu time spent up to now is     2662.6 secs

     total energy              =    -591.31489973 Ry
     estimated scf accuracy    <       0.00000162 Ry

     iteration # 36     ecut=    80.00 Ry     beta= 0.40
     Davidson diagonalization with overlap

---- Real-time Memory Report at c_bands before calling an iterative solver
           253 MiB given to the printing process from OS
             0 MiB allocation reported by mallinfo(arena+hblkhd)
         46806 MiB available memory on the node where the printing process lives
------------------
     ethr =  5.27E-10,  avg # of iterations =  1.0

     total cpu time spent up to now is     2677.4 secs

     total energy              =    -591.31489974 Ry
     estimated scf accuracy    <       0.00000068 Ry

     iteration # 37     ecut=    80.00 Ry     beta= 0.40
     Davidson diagonalization with overlap

---- Real-time Memory Report at c_bands before calling an iterative solver
           253 MiB given to the printing process from OS
             0 MiB allocation reported by mallinfo(arena+hblkhd)
         46450 MiB available memory on the node where the printing process lives
------------------
     ethr =  5.27E-10,  avg # of iterations =  1.0

     total cpu time spent up to now is     2692.3 secs

     total energy              =    -591.31489974 Ry
     estimated scf accuracy    <       0.00000056 Ry

     iteration # 38     ecut=    80.00 Ry     beta= 0.40
     Davidson diagonalization with overlap

---- Real-time Memory Report at c_bands before calling an iterative solver
           253 MiB given to the printing process from OS
             0 MiB allocation reported by mallinfo(arena+hblkhd)
         46486 MiB available memory on the node where the printing process lives
------------------
     ethr =  5.27E-10,  avg # of iterations =  1.9

     total cpu time spent up to now is     2710.6 secs

     total energy              =    -591.31489977 Ry
     estimated scf accuracy    <          3.5E-10 Ry

     iteration # 39     ecut=    80.00 Ry     beta= 0.40
     Davidson diagonalization with overlap

---- Real-time Memory Report at c_bands before calling an iterative solver
           253 MiB given to the printing process from OS
             0 MiB allocation reported by mallinfo(arena+hblkhd)
         46575 MiB available memory on the node where the printing process lives
------------------
     ethr =  8.64E-13,  avg # of iterations =  8.7

     total cpu time spent up to now is     2752.2 secs

     total energy              =    -591.31489977 Ry
     estimated scf accuracy    <          3.5E-09 Ry

     iteration # 40     ecut=    80.00 Ry     beta= 0.40
     Davidson diagonalization with overlap

---- Real-time Memory Report at c_bands before calling an iterative solver
           253 MiB given to the printing process from OS
             0 MiB allocation reported by mallinfo(arena+hblkhd)
         46601 MiB available memory on the node where the printing process lives
------------------
     ethr =  8.64E-13,  avg # of iterations =  4.4

     total cpu time spent up to now is     2776.6 secs

     End of self-consistent calculation

          k = 0.0000 0.0000 0.0000 ( 10395 PWs)   bands (ev):

   -50.8609 -26.8152 -26.8152 -26.8152 -22.3746  -6.4960  -6.4960  -6.4960
    -6.3416  -5.5218  -5.5218   3.5857   3.5857   3.5857   4.6967   4.6967
     4.6967   5.3589   5.3589   5.5348   5.5348   5.5348   6.2421   6.2421

     occupation numbers 
     1.0000   1.0000   1.0000   1.0000   1.0000   1.0000   1.0000   1.0000
     1.0000   1.0000   1.0000   1.0000   1.0000   1.0000   1.0000   1.0000
     1.0000   1.0000   1.0000   0.9999   0.9999   0.9999   0.0000   0.0000

          k = 0.0000 0.0000 0.1180 ( 10275 PWs)   bands (ev):

   -50.8609 -26.8153 -26.8151 -26.8151 -22.3737  -6.8958  -6.4942  -6.4942
    -6.1543  -5.5177  -5.2120   3.4385   3.5779   3.5779   4.4073   4.5208
     4.5208   5.4059   5.5421   5.6636   5.7499   5.7499   5.7773   6.2062

     occupation numbers 
     1.0000   1.0000   1.0000   1.0000   1.0000   1.0000   1.0000   1.0000
     1.0000   1.0000   1.0000   1.0000   1.0000   1.0000   1.0000   1.0000
     1.0000   1.0000   0.9999   0.8845   0.2758   0.2758   0.1220   0.0000

          k = 0.0000 0.0000 0.2361 ( 10303 PWs)   bands (ev):

   -50.8609 -26.8157 -26.8151 -26.8151 -22.3716  -7.3202  -6.4898  -6.4898
    -6.0823  -5.5077  -4.6096   3.1709   3.5664   3.5664   4.0143   4.2297
     4.2297   4.9926   5.5250   5.5600   6.0912   6.1059   6.1059   6.1624

     occupation numbers 
     1.0000   1.0000   1.0000   1.0000   1.0000   1.0000   1.0000   1.0000
     1.0000   1.0000   1.0000   1.0000   1.0000   1.0000   1.0000   1.0000
     1.0000   1.0000   1.0000   0.9996   0.0000   0.0000   0.0000   0.0000

          k = 0.0000 0.0000 0.3541 ( 10327 PWs)   bands (ev):

   -50.8608 -26.8160 -26.8151 -26.8151 -22.3696  -7.5977  -6.4854  -6.4854
    -6.0504  -5.4976  -4.0871   3.0115   3.5727   3.5727   3.7433   3.9948
     3.9948   4.2202   5.5782   5.6523   6.0580   6.0580   6.3929   6.4778

     occupation numbers 
     1.0000   1.0000   1.0000   1.0000   1.0000   1.0000   1.0000   1.0000
     1.0000   1.0000   1.0000   1.0000   1.0000   1.0000   1.0000   1.0000
     1.0000   1.0000   0.9985   0.9243   0.0000   0.0000   0.0000   0.0000

          k = 0.0000 0.0000-0.4722 ( 10274 PWs)   bands (ev):

   -50.8608 -26.8162 -26.8151 -26.8151 -22.3687  -7.6933  -6.4836  -6.4836
    -6.0397  -5.4935  -3.8779   2.9963   3.5874   3.5874   3.6482   3.8673
     3.8967   3.8967   5.5858   5.7079   6.0336   6.0336   6.4998   6.6111

     occupation numbers 
     1.0000   1.0000   1.0000   1.0000   1.0000   1.0000   1.0000   1.0000
     1.0000   1.0000   1.0000   1.0000   1.0000   1.0000   1.0000   1.0000
     1.0000   1.0000   0.9976   0.6089   0.0000   0.0000   0.0000   0.0000

          k = 0.0000 0.1180 0.1180 ( 10295 PWs)   bands (ev):

   -50.8609 -26.8153 -26.8153 -26.8151 -22.3728  -6.9452  -6.8140  -6.4924
    -5.9682  -5.3077  -5.1360   3.2406   3.5695   3.6537   4.0944   4.3811
     4.6157   5.4738   5.5923   5.6542   5.6835   5.8258   5.9699   6.0015

     occupation numbers 
     1.0000   1.0000   1.0000   1.0000   1.0000   1.0000   1.0000   1.0000
     1.0000   1.0000   1.0000   1.0000   1.0000   1.0000   1.0000   1.0000
     1.0000   1.0000   0.9963   0.9185   0.7839   0.0149   0.0000   0.0000

          k = 0.0000 0.1180 0.2361 ( 10307 PWs)   bands (ev):

   -50.8609 -26.8157 -26.8153 -26.8151 -22.3708  -7.3176  -6.8606  -6.4879
    -5.8911  -5.2360  -4.6018   2.9659   3.5558   3.6623   3.7571   4.1272
     4.4846   4.9857   5.5808   5.7079   5.8279   5.9292   6.0775   6.1510

     occupation numbers 
     1.0000   1.0000   1.0000   1.0000   1.0000   1.0000   1.0000   1.0000
     1.0000   1.0000   1.0000   1.0000   1.0000   1.0000   1.0000   1.0000
     1.0000   1.0000   0.9983   0.6093   0.0133   0.0000   0.0000   0.0000

          k = 0.0000 0.1180 0.3541 ( 10300 PWs)   bands (ev):

   -50.8608 -26.8160 -26.8152 -26.8151 -22.3688  -7.5935  -6.8554  -6.4835
    -5.8623  -5.2217  -4.0830   2.7913   3.5333   3.5598   3.6280   3.9125
     4.1617   4.4527   5.6945   5.7257   5.7787   6.0072   6.2380   6.4618

     occupation numbers 
     1.0000   1.0000   1.0000   1.0000   1.0000   1.0000   1.0000   1.0000
     1.0000   1.0000   1.0000   1.0000   1.0000   1.0000   1.0000   1.0000
     1.0000   1.0000   0.7106   0.4630   0.1163   0.0000   0.0000   0.0000

          k = 0.0000 0.1180-0.4722 ( 10296 PWs)   bands (ev):

   -50.8608 -26.8162 -26.8152 -26.8151 -22.3679  -7.6889  -6.8525  -6.4816
    -5.8532  -5.2169  -3.8738   2.7501   3.4959   3.5605   3.5747   3.8197
     3.8849   4.3690   5.7321   5.7527   5.7530   5.9798   6.4454   6.4494

     occupation numbers 
     1.0000   1.0000   1.0000   1.0000   1.0000   1.0000   1.0000   1.0000
     1.0000   1.0000   1.0000   1.0000   1.0000   1.0000   1.0000   1.0000
     1.0000   1.0000   0.4106   0.2566   0.2548   0.0000   0.0000   0.0000

          k = 0.0000 0.2361 0.2361 ( 10339 PWs)   bands (ev):

   -50.8608 -26.8156 -26.8156 -26.8151 -22.3688  -7.3427  -7.2568  -6.4834
    -5.8196  -4.7027  -4.5216   2.6305   3.5336   3.5351   3.7458   3.9261
     4.6877   4.7297   5.3582   5.6598   5.9719   5.9818   5.9878   6.2181

     occupation numbers 
     1.0000   1.0000   1.0000   1.0000   1.0000   1.0000   1.0000   1.0000
     1.0000   1.0000   1.0000   1.0000   1.0000   1.0000   1.0000   1.0000
     1.0000   1.0000   1.0000   0.8994   0.0000   0.0000   0.0000   0.0000

          k = 0.0000 0.2361 0.3541 ( 10297 PWs)   bands (ev):

   -50.8608 -26.8160 -26.8156 -26.8150 -22.3667  -7.5833  -7.2872  -6.4789
    -5.7965  -4.6126  -4.0722   2.3857   3.4470   3.5297   3.7225   3.7484
     4.1552   4.8077   5.1711   5.7615   5.8930   6.0589   6.1408   6.3372

     occupation numbers 
     1.0000   1.0000   1.0000   1.0000   1.0000   1.0000   1.0000   1.0000
     1.0000   1.0000   1.0000   1.0000   1.0000   1.0000   1.0000   1.0000
     1.0000   1.0000   1.0000   0.2012   0.0002   0.0000   0.0000   0.0000

          k = 0.0000 0.2361-0.4722 ( 10304 PWs)   bands (ev):

   -50.8608 -26.8161 -26.8156 -26.8150 -22.3659  -7.6782  -7.2847  -6.4770
    -5.7897  -4.6044  -3.8638   2.3029   3.4980   3.5430   3.5977   3.6662
     3.9093   4.8571   5.1108   5.8596   5.8602   6.0693   6.1536   6.3460

     occupation numbers 
     1.0000   1.0000   1.0000   1.0000   1.0000   1.0000   1.0000   1.0000
     1.0000   1.0000   1.0000   1.0000   1.0000   1.0000   1.0000   1.0000
     1.0000   1.0000   1.0000   0.0020   0.0019   0.0000   0.0000   0.0000

          k = 0.0000 0.3541 0.3541 ( 10293 PWs)   bands (ev):

   -50.8608 -26.8159 -26.8159 -26.8150 -22.3647  -7.5833  -7.5582  -6.4742
    -5.7780  -4.1038  -4.0353   2.0852   3.4178   3.5061   3.6075   3.8029
     4.0032   4.6312   5.0692   5.7542   5.7926   6.0970   6.3282   6.3612

     occupation numbers 
     1.0000   1.0000   1.0000   1.0000   1.0000   1.0000   1.0000   1.0000
     1.0000   1.0000   1.0000   1.0000   1.0000   1.0000   1.0000   1.0000
     1.0000   1.0000   1.0000   0.2466   0.0691   0.0000   0.0000   0.0000

          k = 0.0000 0.3541-0.4722 ( 10322 PWs)   bands (ev):

   -50.8608 -26.8161 -26.8159 -26.8150 -22.3639  -7.6675  -7.5664  -6.4723
    -5.7729  -4.0660  -3.8536   1.9792   3.4150   3.5096   3.5414   3.7758
     3.8965   4.5500   5.1047   5.7545   5.8280   5.9254   6.4092   6.4108

     occupation numbers 
     1.0000   1.0000   1.0000   1.0000   1.0000   1.0000   1.0000   1.0000
     1.0000   1.0000   1.0000   1.0000   1.0000   1.0000   1.0000   1.0000
     1.0000   1.0000   1.0000   0.2445   0.0133   0.0000   0.0000   0.0000

          k = 0.0000-0.4722-0.4722 ( 10280 PWs)   bands (ev):

   -50.8608 -26.8161 -26.8161 -26.8150 -22.3631  -7.6630  -7.6630  -6.4703
    -5.7685  -3.8493  -3.8493   1.8648   3.3597   3.4954   3.4954   3.8661
     3.8661   4.3653   5.1702   5.7539   5.8430   6.4920   6.5568   6.5572

     occupation numbers 
     1.0000   1.0000   1.0000   1.0000   1.0000   1.0000   1.0000   1.0000
     1.0000   1.0000   1.0000   1.0000   1.0000   1.0000   1.0000   1.0000
     1.0000   1.0000   1.0000   0.2484   0.0057   0.0000   0.0000   0.0000

          k = 0.1180 0.1180 0.1180 ( 10317 PWs)   bands (ev):

   -50.8609 -26.8153 -26.8153 -26.8153 -22.3720  -6.9820  -6.8116  -6.8116
    -5.6882  -5.1328  -5.1328   3.0849   3.6134   3.6134   4.0666   4.0666
     4.8280   5.4467   5.5062   5.5062   5.7608   5.9345   5.9345   6.0994

     occupation numbers 
     1.0000   1.0000   1.0000   1.0000   1.0000   1.0000   1.0000   1.0000
     1.0000   1.0000   1.0000   1.0000   1.0000   1.0000   1.0000   1.0000
     1.0000   1.0000   1.0000   1.0000   0.2057   0.0000   0.0000   0.0000

          k = 0.1180 0.1180 0.2361 ( 10330 PWs)   bands (ev):

   -50.8609 -26.8156 -26.8153 -26.8152 -22.3700  -7.3153  -6.8978  -6.8058
    -5.5520  -5.1251  -4.5950   2.8436   3.4483   3.5702   3.8309   4.0380
     4.7186   4.9288   5.5628   5.7336   5.7876   5.8001   5.8867   6.2053

     occupation numbers 
     1.0000   1.0000   1.0000   1.0000   1.0000   1.0000   1.0000   1.0000
     1.0000   1.0000   1.0000   1.0000   1.0000   1.0000   1.0000   1.0000
     1.0000   1.0000   0.9995   0.3984   0.0838   0.0506   0.0003   0.0000

          k = 0.1180 0.1180 0.3541 ( 10294 PWs)   bands (ev):

   -50.8608 -26.8160 -26.8152 -26.8152 -22.3679  -7.5895  -6.8945  -6.8000
    -5.5150  -5.1173  -4.0793   2.6940   3.2439   3.4528   3.7675   3.9847
     4.3249   4.5321   5.6470   5.6518   5.8200   5.8990   6.1872   6.3049

     occupation numbers 
     1.0000   1.0000   1.0000   1.0000   1.0000   1.0000   1.0000   1.0000
     1.0000   1.0000   1.0000   1.0000   1.0000   1.0000   1.0000   1.0000
     1.0000   1.0000   0.9388   0.9255   0.0201   0.0001   0.0000   0.0000

          k = 0.1180 0.1180-0.4722 ( 10282 PWs)   bands (ev):

   -50.8608 -26.8161 -26.8152 -26.8152 -22.3671  -7.6847  -6.8916  -6.7976
    -5.5050  -5.1141  -3.8702   2.6633   3.1630   3.3758   3.7568   3.8650
     4.1730   4.4565   5.6144   5.6831   5.8014   5.9549   6.3585   6.3936

     occupation numbers 
     1.0000   1.0000   1.0000   1.0000   1.0000   1.0000   1.0000   1.0000
     1.0000   1.0000   1.0000   1.0000   1.0000   1.0000   1.0000   1.0000
     1.0000   1.0000   0.9868   0.7862   0.0478   0.0000   0.0000   0.0000

          k = 0.1180 0.2361 0.2361 ( 10327 PWs)   bands (ev):

   -50.8608 -26.8156 -26.8156 -26.8152 -22.3679  -7.3407  -7.2542  -6.8400
    -5.3855  -4.6837  -4.5195   2.5941   3.2410   3.4330   3.8593   4.0729
     4.6672   4.8814   5.3477   5.6368   5.7635   5.7915   5.8694   6.3982

     occupation numbers 
     1.0000   1.0000   1.0000   1.0000   1.0000   1.0000   1.0000   1.0000
     1.0000   1.0000   1.0000   1.0000   1.0000   1.0000   1.0000   1.0000
     1.0000   1.0000   1.0000   0.9604   0.1896   0.0721   0.0010   0.0000

          k = 0.1180 0.2361 0.3541 ( 10301 PWs)   bands (ev):

   -50.8608 -26.8160 -26.8156 -26.8152 -22.3659  -7.5799  -7.2856  -6.8354
    -5.3536  -4.6038  -4.0697   2.3960   3.1008   3.3013   3.8313   4.0495
     4.2661   4.8802   5.1462   5.6547   5.7374   5.9567   6.1287   6.3451

     occupation numbers 
     1.0000   1.0000   1.0000   1.0000   1.0000   1.0000   1.0000   1.0000
     1.0000   1.0000   1.0000   1.0000   1.0000   1.0000   1.0000   1.0000
     1.0000   1.0000   1.0000   0.9168   0.3684   0.0000   0.0000   0.0000

          k = 0.1180 0.2361-0.4722 ( 10294 PWs)   bands (ev):

   -50.8608 -26.8161 -26.8156 -26.8152 -22.3651  -7.6747  -7.2833  -6.8331
    -5.3458  -4.5968  -3.8614   2.3289   3.0790   3.2129   3.7409   3.9699
     4.2086   4.8912   5.0662   5.6407   5.7685   6.1232   6.1878   6.3223

     occupation numbers 
     1.0000   1.0000   1.0000   1.0000   1.0000   1.0000   1.0000   1.0000
     1.0000   1.0000   1.0000   1.0000   1.0000   1.0000   1.0000   1.0000
     1.0000   1.0000   1.0000   0.9529   0.1632   0.0000   0.0000   0.0000

          k = 0.1180 0.3541 0.3541 ( 10311 PWs)   bands (ev):

   -50.8608 -26.8159 -26.8159 -26.8152 -22.3639  -7.5804  -7.5557  -6.8316
    -5.3274  -4.1017  -4.0342   2.1295   3.0652   3.2072   3.6727   4.1668
     4.1754   4.6933   5.1137   5.5383   5.7704   6.0223   6.1704   6.3910

     occupation numbers 
     1.0000   1.0000   1.0000   1.0000   1.0000   1.0000   1.0000   1.0000
     1.0000   1.0000   1.0000   1.0000   1.0000   1.0000   1.0000   1.0000
     1.0000   1.0000   1.0000   0.9999   0.1535   0.0000   0.0000   0.0000

          k = 0.1180 0.3541-0.4722 ( 10288 PWs)   bands (ev):

   -50.8608 -26.8161 -26.8159 -26.8152 -22.3631  -7.6646  -7.5639  -6.8296
    -5.3216  -4.0649  -3.8524   2.0326   3.1105   3.1233   3.5208   4.1468
     4.2403   4.5767   5.1487   5.5005   5.8217   5.9224   6.2647   6.4782

     occupation numbers 
     1.0000   1.0000   1.0000   1.0000   1.0000   1.0000   1.0000   1.0000
     1.0000   1.0000   1.0000   1.0000   1.0000   1.0000   1.0000   1.0000
     1.0000   1.0000   1.0000   1.0000   0.0184   0.0000   0.0000   0.0000

          k = 0.1180-0.4722-0.4722 ( 10296 PWs)   bands (ev):

   -50.8608 -26.8161 -26.8161 -26.8151 -22.3622  -7.6605  -7.6605  -6.8278
    -5.3164  -3.8486  -3.8486   1.9250   3.1248   3.1248   3.3468   4.2767
     4.2767   4.3690   5.2126   5.4304   5.7632   5.8542   6.4313   6.5009

     occupation numbers 
     1.0000   1.0000   1.0000   1.0000   1.0000   1.0000   1.0000   1.0000
     1.0000   1.0000   1.0000   1.0000   1.0000   1.0000   1.0000   1.0000
     1.0000   1.0000   1.0000   1.0000   0.1918   0.0029   0.0000   0.0000

          k = 0.2361 0.2361 0.2361 ( 10267 PWs)   bands (ev):

   -50.8608 -26.8156 -26.8156 -26.8156 -22.3659  -7.3577  -7.2479  -7.2479
    -4.8754  -4.5145  -4.5145   2.4815   3.0616   3.0616   4.1466   4.1466
     4.3994   5.1734   5.3223   5.3223   5.6616   5.6616   5.7899   6.5514

     occupation numbers 
     1.0000   1.0000   1.0000   1.0000   1.0000   1.0000   1.0000   1.0000
     1.0000   1.0000   1.0000   1.0000   1.0000   1.0000   1.0000   1.0000
     1.0000   1.0000   1.0000   1.0000   0.8925   0.8925   0.0767   0.0000

          k = 0.2361 0.2361 0.3541 ( 10284 PWs)   bands (ev):

   -50.8608 -26.8159 -26.8155 -26.8155 -22.3639  -7.5719  -7.3076  -7.2416
    -4.7694  -4.5095  -4.0630   2.3669   2.8067   2.9778   3.9076   4.1881
     4.4318   5.0236   5.1360   5.3010   5.6910   5.8803   5.9264   6.4953

     occupation numbers 
     1.0000   1.0000   1.0000   1.0000   1.0000   1.0000   1.0000   1.0000
     1.0000   1.0000   1.0000   1.0000   1.0000   1.0000   1.0000   1.0000
     1.0000   1.0000   1.0000   1.0000   0.7350   0.0005   0.0000   0.0000

          k = 0.2361 0.2361-0.4722 ( 10278 PWs)   bands (ev):

   -50.8608 -26.8161 -26.8155 -26.8155 -22.3631  -7.6663  -7.3064  -7.2389
    -4.7555  -4.5074  -3.8554   2.3300   2.7170   2.9405   3.6869   4.2060
     4.5991   4.8438   5.0751   5.2943   5.7144   6.0109   6.1646   6.3942

     occupation numbers 
     1.0000   1.0000   1.0000   1.0000   1.0000   1.0000   1.0000   1.0000
     1.0000   1.0000   1.0000   1.0000   1.0000   1.0000   1.0000   1.0000
     1.0000   1.0000   1.0000   1.0000   0.5568   0.0000   0.0000   0.0000

          k = 0.2361 0.3541 0.3541 ( 10310 PWs)   bands (ev):

   -50.8608 -26.8159 -26.8159 -26.8155 -22.3619  -7.5736  -7.5494  -7.2668
    -4.6517  -4.0945  -4.0315   2.2364   2.7144   2.8024   3.6248   4.4030
     4.4512   4.8891   5.1307   5.2921   5.7543   5.8647   5.9250   6.4116

     occupation numbers 
     1.0000   1.0000   1.0000   1.0000   1.0000   1.0000   1.0000   1.0000
     1.0000   1.0000   1.0000   1.0000   1.0000   1.0000   1.0000   1.0000
     1.0000   1.0000   1.0000   1.0000   0.2462   0.0014   0.0000   0.0000

          k = 0.2361 0.3541-0.4722 ( 10272 PWs)   bands (ev):

   -50.8608 -26.8160 -26.8159 -26.8155 -22.3611  -7.6578  -7.5580  -7.2651
    -4.6420  -4.0615  -3.8494   2.1691   2.6861   2.7663   3.4421   4.3970
     4.6420   4.7494   5.0923   5.2927   5.7911   5.8569   6.0907   6.3544

     occupation numbers 
     1.0000   1.0000   1.0000   1.0000   1.0000   1.0000   1.0000   1.0000
     1.0000   1.0000   1.0000   1.0000   1.0000   1.0000   1.0000   1.0000
     1.0000   1.0000   1.0000   1.0000   0.0732   0.0024   0.0000   0.0000

          k = 0.2361-0.4722-0.4722 ( 10276 PWs)   bands (ev):

   -50.8608 -26.8160 -26.8160 -26.8155 -22.3602  -7.6542  -7.6542  -7.2637
    -4.6335  -3.8468  -3.8468   2.0835   2.7148   2.7148   3.2749   4.3779
     4.8078   4.8078   4.9015   5.3361   5.7827   5.7878   6.2643   6.3331

     occupation numbers 
     1.0000   1.0000   1.0000   1.0000   1.0000   1.0000   1.0000   1.0000
     1.0000   1.0000   1.0000   1.0000   1.0000   1.0000   1.0000   1.0000
     1.0000   1.0000   1.0000   1.0000   0.1008   0.0831   0.0000   0.0000

          k = 0.3541 0.3541 0.3541 ( 10249 PWs)   bands (ev):

   -50.8608 -26.8159 -26.8159 -26.8159 -22.3599  -7.5740  -7.5431  -7.5431
    -4.1547  -4.0288  -4.0288   2.3066   2.5355   2.5355   3.3919   4.4805
     4.4805   5.0692   5.0692   5.5712   5.7468   5.7468   5.7506   6.3659

     occupation numbers 
     1.0000   1.0000   1.0000   1.0000   1.0000   1.0000   1.0000   1.0000
     1.0000   1.0000   1.0000   1.0000   1.0000   1.0000   1.0000   1.0000
     1.0000   1.0000   1.0000   0.9991   0.2977   0.2977   0.2709   0.0000

          k = 0.3541 0.3541-0.4722 ( 10242 PWs)   bands (ev):

   -50.8608 -26.8160 -26.8158 -26.8158 -22.3590  -7.6509  -7.5606  -7.5404
    -4.1125  -4.0276  -3.8463   2.2918   2.4427   2.5263   3.2368   4.4557
     4.5010   5.1157   5.1614   5.5207   5.7430   5.7639   5.9476   6.1628

     occupation numbers 
     1.0000   1.0000   1.0000   1.0000   1.0000   1.0000   1.0000   1.0000
     1.0000   1.0000   1.0000   1.0000   1.0000   1.0000   1.0000   1.0000
     1.0000   1.0000   1.0000   1.0000   0.3257   0.1879   0.0000   0.0000

          k = 0.3541-0.4722-0.4722 ( 10256 PWs)   bands (ev):

   -50.8608 -26.8160 -26.8160 -26.8158 -22.3582  -7.6480  -7.6480  -7.5479
    -4.0699  -3.8451  -3.8451   2.2658   2.4446   2.4446   3.0984   4.3869
     4.5072   5.2903   5.2903   5.5286   5.7039   5.7910   6.0291   6.0649

     occupation numbers 
     1.0000   1.0000   1.0000   1.0000   1.0000   1.0000   1.0000   1.0000
     1.0000   1.0000   1.0000   1.0000   1.0000   1.0000   1.0000   1.0000
     1.0000   1.0000   1.0000   1.0000   0.6404   0.0736   0.0000   0.0000

          k =-0.4722-0.4722-0.4722 ( 10144 PWs)   bands (ev):

   -50.8608 -26.8160 -26.8160 -26.8160 -22.3574  -7.6454  -7.6454  -7.6454
    -3.8443  -3.8443  -3.8443   2.3509   2.3509   2.3509   2.9790   4.3906
     4.3906   5.6668   5.6668   5.6668   5.7565   5.7565   5.7565   5.7837

     occupation numbers 
     1.0000   1.0000   1.0000   1.0000   1.0000   1.0000   1.0000   1.0000
     1.0000   1.0000   1.0000   1.0000   1.0000   1.0000   1.0000   1.0000
     1.0000   0.8711   0.8711   0.8711   0.2317   0.2317   0.2317   0.0970

     the Fermi energy is     5.7212 ev

!    total energy              =    -591.31489977 Ry
     estimated scf accuracy    <          8.5E-11 Ry
     smearing contrib. (-TS)   =      -0.00295443 Ry
     internal energy E=F+TS    =    -591.31194535 Ry

     The total energy is F=E-TS. E is the sum of the following terms:
     one-electron contribution =     -64.78871890 Ry
     hartree contribution      =      47.42058313 Ry
     xc contribution           =     -44.54595609 Ry
     ewald contribution        =    -172.23614436 Ry
     one-center paw contrib.   =    -357.16170912 Ry
      -> PAW hartree energy AE =       0.00000000 Ry
      -> PAW hartree energy PS =       0.00000000 Ry
      -> PAW xc energy AE      =       0.00000000 Ry
      -> PAW xc energy PS      =       0.00000000 Ry
      -> total E_H with PAW    =      47.42058313 Ry
      -> total E_XC with PAW   =     -44.54595609 Ry

     convergence has been achieved in  40 iterations

     Forces acting on atoms (cartesian axes, Ry/au):

     atom    1 type  1   force =     0.00000000    0.00000000    0.00000000
     atom    2 type  2   force =     0.00000000    0.00000000    0.00000000
     atom    3 type  3   force =     0.00000000    0.00000000    0.00000000
     atom    4 type  3   force =     0.00000000    0.00000000    0.00000000
     atom    5 type  3   force =     0.00000000    0.00000000    0.00000000
     The non-local contrib.  to forces
     atom    1 type  1   force =     0.00000000    0.00000000    0.00000000
     atom    2 type  2   force =     0.00000000    0.00000000    0.00000000
     atom    3 type  3   force =     0.00000000    0.00000000    0.00000000
     atom    4 type  3   force =     0.00000000    0.00000000    0.00000000
     atom    5 type  3   force =     0.00000000    0.00000000    0.00000000
     The ionic contribution  to forces
     atom    1 type  1   force =     0.00000000    0.00000000    0.00000000
     atom    2 type  2   force =    -0.00000000   -0.00000000   -0.00000000
     atom    3 type  3   force =    -0.00000000    0.00000000    0.00000000
     atom    4 type  3   force =     0.00000000   -0.00000000    0.00000000
     atom    5 type  3   force =     0.00000000    0.00000000   -0.00000000
     The local contribution  to forces
     atom    1 type  1   force =    -0.00000000   -0.00000000   -0.00000000
     atom    2 type  2   force =    -0.00000000   -0.00000000   -0.00000000
     atom    3 type  3   force =    -0.00000000   -0.00000000    0.00000000
     atom    4 type  3   force =     0.00000000   -0.00000000   -0.00000000
     atom    5 type  3   force =    -0.00000000   -0.00000000   -0.00000000
     The core correction contribution to forces
     atom    1 type  1   force =     0.00000000   -0.00000000   -0.00000000
     atom    2 type  2   force =     0.00000000    0.00000000    0.00000000
     atom    3 type  3   force =     0.00000000   -0.00000000   -0.00000000
     atom    4 type  3   force =    -0.00000000    0.00000000   -0.00000000
     atom    5 type  3   force =    -0.00000000   -0.00000000    0.00000000
     The Hubbard contrib.    to forces
     atom    1 type  1   force =     0.00000000    0.00000000    0.00000000
     atom    2 type  2   force =     0.00000000    0.00000000    0.00000000
     atom    3 type  3   force =     0.00000000    0.00000000    0.00000000
     atom    4 type  3   force =     0.00000000    0.00000000    0.00000000
     atom    5 type  3   force =     0.00000000    0.00000000    0.00000000
     The SCF correction term to forces
     atom    1 type  1   force =    -0.00000000   -0.00000000   -0.00000000
     atom    2 type  2   force =    -0.00000000   -0.00000000    0.00000000
     atom    3 type  3   force =     0.00000000    0.00000000   -0.00000000
     atom    4 type  3   force =     0.00000000    0.00000000   -0.00000000
     atom    5 type  3   force =    -0.00000000   -0.00000000    0.00000000

     Total force =     0.000000     Total SCF correction =     0.000000


     Computing stress (Cartesian axis) and pressure

          total   stress  (Ry/bohr**3)                   (kbar)     P=        0.06
   0.00000039   0.00000000   0.00000000            0.06        0.00        0.00
   0.00000000   0.00000039   0.00000000            0.00        0.06        0.00
   0.00000000   0.00000000   0.00000039            0.00        0.00        0.06

     kinetic stress (kbar)  10462.77      0.00      0.00
                                0.00  10462.77      0.00
                                0.00      0.00  10462.77

     local   stress (kbar)  -5058.27     -0.00     -0.00
                               -0.00  -5058.27     -0.00
                               -0.00     -0.00  -5058.27

     nonloc. stress (kbar)   4040.96      0.00      0.00
                                0.00   4040.96      0.00
                                0.00      0.00   4040.96

     hartree stress (kbar)   2728.61     -0.00      0.00
                               -0.00   2728.61      0.00
                                0.00      0.00   2728.61

     exc-cor stress (kbar)   -616.42     -0.00      0.00
                               -0.00   -616.42      0.00
                                0.00      0.00   -616.42

     corecor stress (kbar)  -1647.02     -0.00      0.00
                               -0.00  -1647.02     -0.00
                                0.00     -0.00  -1647.02

     ewald   stress (kbar)  -9910.58      0.00     -0.00
                                0.00  -9910.58     -0.00
                               -0.00     -0.00  -9910.58

     hubbard stress (kbar)      0.00      0.00      0.00
                                0.00      0.00      0.00
                                0.00      0.00      0.00

     DFT-D   stress (kbar)      0.00      0.00      0.00
                                0.00      0.00      0.00
                                0.00      0.00      0.00

     XDM     stress (kbar)      0.00      0.00      0.00
                                0.00      0.00      0.00
                                0.00      0.00      0.00

     dft-nl  stress (kbar)      0.00      0.00      0.00
                                0.00      0.00      0.00
                                0.00      0.00      0.00

     TS-vdW  stress (kbar)      0.00      0.00      0.00
                                0.00      0.00      0.00
                                0.00      0.00      0.00

     MDB     stress (kbar)      0.00      0.00      0.00
                                0.00      0.00      0.00
                                0.00      0.00      0.00

     3D-RISM stress (kbar)      0.00      0.00      0.00
                                0.00      0.00      0.00
                                0.00      0.00      0.00


     Writing all to output data dir ./tmp/knbs3.save/ :
     XML data file, charge density, pseudopotentials, collected wavefunctions

     init_run     :     18.23s CPU     18.43s WALL (       2 calls)
     electrons    :   2680.77s CPU   2654.65s WALL (       7 calls)
     update_pot   :      2.65s CPU      2.51s WALL (       5 calls)
     forces       :     24.57s CPU     23.74s WALL (       7 calls)
     stress       :     96.71s CPU     83.94s WALL (       7 calls)

     Called by init_run:
     wfcinit      :     11.59s CPU     11.37s WALL (       2 calls)
     wfcinit:atom :      0.15s CPU      0.08s WALL (      18 calls)
     wfcinit:wfcr :     10.42s CPU     10.66s WALL (      18 calls)
     potinit      :      1.29s CPU      1.37s WALL (       2 calls)
     hinit0       :      2.53s CPU      2.57s WALL (       2 calls)

     Called by electrons:
     c_bands      :   2090.94s CPU   2066.54s WALL (     126 calls)
     sum_band     :    388.63s CPU    367.09s WALL (     126 calls)
     v_of_rho     :     31.37s CPU     32.68s WALL (     133 calls)
     v_h          :      2.31s CPU      2.49s WALL (     133 calls)
     v_xc         :     31.73s CPU     33.03s WALL (     147 calls)
     newd         :    146.00s CPU    165.99s WALL (     133 calls)
     PAW_pot      :     24.59s CPU     24.47s WALL (     138 calls)
     mix_rho      :      3.01s CPU      3.10s WALL (     126 calls)

     Called by c_bands:
     init_us_2    :     27.82s CPU     21.86s WALL (    2457 calls)
     cegterg      :   1614.00s CPU   1572.38s WALL (    1134 calls)

     Called by sum_band:
     sum_band:wei :      1.57s CPU      1.18s WALL (     126 calls)
     sum_band:loo :    207.38s CPU    181.48s WALL (     126 calls)
     sum_band:buf :      1.02s CPU      0.75s WALL (    1134 calls)
     sum_band:ini :     12.41s CPU      9.02s WALL (    1134 calls)
     sum_band:cal :     56.03s CPU     54.85s WALL (    1179 calls)
     sum_band:bec :      0.12s CPU      0.09s WALL (    1179 calls)
     addusdens    :    142.18s CPU    150.59s WALL (     126 calls)
                                        0.00s GPU  (     126 calls)
     addusd:skk   :      0.16s CPU      0.24s WALL (     378 calls)
                                        0.00s GPU  (     378 calls)

     Called by *egterg:
     cdiaghg      :    135.63s CPU    147.59s WALL (    4655 calls)
     cegterg:over :    206.04s CPU    175.67s WALL (    3566 calls)
     cegterg:upda :     43.06s CPU     41.65s WALL (    3566 calls)
     cegterg:last :     44.36s CPU     36.66s WALL (    2116 calls)
     h_psi        :    913.86s CPU    958.59s WALL (    4718 calls)
     s_psi        :     49.48s CPU     36.70s WALL (    4718 calls)
     g_psi        :      3.64s CPU      2.01s WALL (    3566 calls)

     Called by h_psi:
     h_psi:calbec :    214.20s CPU    249.26s WALL (    4718 calls)
     vloc_psi     :    608.95s CPU    618.50s WALL (    4718 calls)
     add_vuspsi   :     88.35s CPU     89.14s WALL (    4718 calls)

     General routines
     calbec       :    281.38s CPU    312.74s WALL (    6212 calls)
     fft          :     20.30s CPU     21.66s WALL (    1895 calls)
     ffts         :      1.46s CPU      1.25s WALL (     259 calls)
     fftw         :    642.90s CPU    635.44s WALL (  162292 calls)
     interpolate  :      2.53s CPU      2.66s WALL (     133 calls)

     Parallel routines

     PAW routines
     PAW_pot      :     24.59s CPU     24.47s WALL (     138 calls)
     PAW_symme    :      0.35s CPU      0.28s WALL (     264 calls)

     PWSCF        :  47m13.00s CPU  46m33.75s WALL


   This run was terminated on:   8:26:19  30Apr2025            

=------------------------------------------------------------------------------=
   JOB DONE.
=------------------------------------------------------------------------------=
