
     Program PWSCF v.7.3.1 starts on 30Apr2025 at  8:28:18 

     This program is part of the open-source Quantum ESPRESSO suite
     for quantum simulation of materials; please cite
         "P. Giannozzi et al., J. Phys.:Condens. Matter 21 395502 (2009);
         "P. Giannozzi et al., J. Phys.:Condens. Matter 29 465901 (2017);
         "P. Giannozzi et al., J. Chem. Phys. 152 154105 (2020);
          URL http://www.quantum-espresso.org", 
     in publications or presentations arising from this work. More details at
     http://www.quantum-espresso.org/quote

     Parallel version (MPI), running on     8 processors

     MPI processes distributed on     1 nodes
     48370 MiB available memory on the printing compute node when the environment starts

     Waiting for input...
     Reading input from standard input

     Current dimensions of program PWSCF are:
     Max number of different atomic species (ntypx) = 10
     Max number of k-points (npk) = 120000
     Max angular momentum in pseudopotentials (lmaxx) =  4
     file K.pbe-spn-rrkjus_psl.1.0.0.UPF: wavefunction(s)  3S renormalized
     file Nb.pbe-spn-kjpaw_psl.1.0.0.UPF: wavefunction(s)  4S 4P 4D renormalized
     file S.pbe-n-kjpaw_psl.1.0.0.UPF: wavefunction(s)  3S 3P renormalized

     IMPORTANT: XC functional enforced from input :
     Exchange-correlation= PBE
                           (   1   4   3   4   0   0   0)
     Any further DFT definition will be discarded
     Please, verify this is what you really want

     Message from routine setup:
     using ibrav=0 with symmetry is DISCOURAGED, use correct ibrav instead

     K-points division:     npool     =       4
     R & G space division:  proc/nbgrp/npool/nimage =       2
     Subspace diagonalization in iterative solution of the eigenvalue problem:
     a serial algorithm will be used


     Parallelization info
     --------------------
     sticks:   dense  smooth     PW     G-vecs:    dense   smooth      PW
     Min        2288    1142    328               116492    41100    6266
     Max        2289    1143    329               116497    41101    6267
     Sum        4577    2285    657               232989    82201   12533

     Using Slab Decomposition



     bravais-lattice index     =            0
     lattice parameter (alat)  =       9.4808  a.u.
     unit-cell volume          =     852.1806 (a.u.)^3
     number of atoms/cell      =            5
     number of atomic types    =            3
     number of electrons       =        40.00
     number of Kohn-Sham states=           24
     kinetic-energy cutoff     =      80.0000  Ry
     charge density cutoff     =     640.0000  Ry
     scf convergence threshold =      1.0E-12
     mixing beta               =       0.4000
     number of iterations used =            8  plain     mixing
     Exchange-correlation= PBE
                           (   1   4   3   4   0   0   0)

     celldm(1)=   9.480776  celldm(2)=   0.000000  celldm(3)=   0.000000
     celldm(4)=   0.000000  celldm(5)=   0.000000  celldm(6)=   0.000000

     crystal axes: (cart. coord. in units of alat)
               a(1) = (   1.000000   0.000000   0.000000 )  
               a(2) = (   0.000000   1.000000   0.000000 )  
               a(3) = (   0.000000   0.000000   1.000000 )  

     reciprocal axes: (cart. coord. in units 2 pi/alat)
               b(1) = (  1.000000  0.000000  0.000000 )  
               b(2) = (  0.000000  1.000000  0.000000 )  
               b(3) = (  0.000000  0.000000  1.000000 )  


     PseudoPot. # 1 for K  read from file:
     /home/administrator/Downloads/BURAI/BURAI1.3/pseudopot/K.pbe-spn-rrkjus_psl.1.0.0.UPF
     MD5 check sum: 716c94968b5730b158b89360ae401048
     Pseudo is Ultrasoft + core correction, Zval =  9.0
     Generated using "atomic" code by A. Dal Corso  v.5.1.2
     Using radial grid of 1165 points,  6 beta functions with: 
                l(1) =   0
                l(2) =   0
                l(3) =   1
                l(4) =   1
                l(5) =   2
                l(6) =   2
     Q(r) pseudized with 0 coefficients 


     PseudoPot. # 2 for Nb read from file:
     /home/administrator/Downloads/BURAI/BURAI1.3/pseudopot/Nb.pbe-spn-kjpaw_psl.1.0.0.UPF
     MD5 check sum: b00631c500922d21a0ac96a4ccc82b41
     Pseudo is Projector augmented-wave + core cor, Zval = 13.0
     Generated using "atomic" code by A. Dal Corso  v.5.1.2
     Shape of augmentation charge: PSQ
     Using radial grid of 1227 points,  6 beta functions with: 
                l(1) =   0
                l(2) =   0
                l(3) =   1
                l(4) =   1
                l(5) =   2
                l(6) =   2
     Q(r) pseudized with 0 coefficients 


     PseudoPot. # 3 for S  read from file:
     /home/administrator/Downloads/BURAI/BURAI1.3/pseudopot/S.pbe-n-kjpaw_psl.1.0.0.UPF
     MD5 check sum: cb96b46a5ee63c4f5db34501b74ad364
     Pseudo is Projector augmented-wave + core cor, Zval =  6.0
     Generated using "atomic" code by A. Dal Corso  v.5.1.2
     Shape of augmentation charge: PSQ
     Using radial grid of 1151 points,  6 beta functions with: 
                l(1) =   0
                l(2) =   0
                l(3) =   1
                l(4) =   1
                l(5) =   2
                l(6) =   2
     Q(r) pseudized with 0 coefficients 


     atomic species   valence    mass     pseudopotential
     K                 9.00    39.09830     K ( 1.00)
     Nb               13.00    92.90640     Nb( 1.00)
     S                 6.00    32.06000     S ( 1.00)

     48 Sym. Ops., with inversion, found


                                    s                        frac. trans.

      isym =  1     identity                                     

 cryst.   s( 1) = (     1          0          0      )
                  (     0          1          0      )
                  (     0          0          1      )

 cart.    s( 1) = (  1.0000000  0.0000000  0.0000000 )
                  (  0.0000000  1.0000000  0.0000000 )
                  (  0.0000000  0.0000000  1.0000000 )


      isym =  2     180 deg rotation - cart. axis [0,0,1]        

 cryst.   s( 2) = (    -1          0          0      )
                  (     0         -1          0      )
                  (     0          0          1      )

 cart.    s( 2) = ( -1.0000000  0.0000000  0.0000000 )
                  (  0.0000000 -1.0000000  0.0000000 )
                  (  0.0000000  0.0000000  1.0000000 )


      isym =  3     180 deg rotation - cart. axis [0,1,0]        

 cryst.   s( 3) = (    -1          0          0      )
                  (     0          1          0      )
                  (     0          0         -1      )

 cart.    s( 3) = ( -1.0000000  0.0000000  0.0000000 )
                  (  0.0000000  1.0000000  0.0000000 )
                  (  0.0000000  0.0000000 -1.0000000 )


      isym =  4     180 deg rotation - cart. axis [1,0,0]        

 cryst.   s( 4) = (     1          0          0      )
                  (     0         -1          0      )
                  (     0          0         -1      )

 cart.    s( 4) = (  1.0000000  0.0000000  0.0000000 )
                  (  0.0000000 -1.0000000  0.0000000 )
                  (  0.0000000  0.0000000 -1.0000000 )


      isym =  5     180 deg rotation - cart. axis [1,1,0]        

 cryst.   s( 5) = (     0          1          0      )
                  (     1          0          0      )
                  (     0          0         -1      )

 cart.    s( 5) = (  0.0000000  1.0000000  0.0000000 )
                  (  1.0000000  0.0000000  0.0000000 )
                  (  0.0000000  0.0000000 -1.0000000 )


      isym =  6     180 deg rotation - cart. axis [1,-1,0]       

 cryst.   s( 6) = (     0         -1          0      )
                  (    -1          0          0      )
                  (     0          0         -1      )

 cart.    s( 6) = (  0.0000000 -1.0000000  0.0000000 )
                  ( -1.0000000  0.0000000  0.0000000 )
                  (  0.0000000  0.0000000 -1.0000000 )


      isym =  7      90 deg rotation - cart. axis [0,0,-1]       

 cryst.   s( 7) = (     0         -1          0      )
                  (     1          0          0      )
                  (     0          0          1      )

 cart.    s( 7) = (  0.0000000  1.0000000  0.0000000 )
                  ( -1.0000000  0.0000000  0.0000000 )
                  (  0.0000000  0.0000000  1.0000000 )


      isym =  8      90 deg rotation - cart. axis [0,0,1]        

 cryst.   s( 8) = (     0          1          0      )
                  (    -1          0          0      )
                  (     0          0          1      )

 cart.    s( 8) = (  0.0000000 -1.0000000  0.0000000 )
                  (  1.0000000  0.0000000  0.0000000 )
                  (  0.0000000  0.0000000  1.0000000 )


      isym =  9     180 deg rotation - cart. axis [1,0,1]        

 cryst.   s( 9) = (     0          0          1      )
                  (     0         -1          0      )
                  (     1          0          0      )

 cart.    s( 9) = (  0.0000000  0.0000000  1.0000000 )
                  (  0.0000000 -1.0000000  0.0000000 )
                  (  1.0000000  0.0000000  0.0000000 )


      isym = 10     180 deg rotation - cart. axis [-1,0,1]       

 cryst.   s(10) = (     0          0         -1      )
                  (     0         -1          0      )
                  (    -1          0          0      )

 cart.    s(10) = (  0.0000000  0.0000000 -1.0000000 )
                  (  0.0000000 -1.0000000  0.0000000 )
                  ( -1.0000000  0.0000000  0.0000000 )


      isym = 11      90 deg rotation - cart. axis [0,1,0]        

 cryst.   s(11) = (     0          0         -1      )
                  (     0          1          0      )
                  (     1          0          0      )

 cart.    s(11) = (  0.0000000  0.0000000  1.0000000 )
                  (  0.0000000  1.0000000  0.0000000 )
                  ( -1.0000000  0.0000000  0.0000000 )


      isym = 12      90 deg rotation - cart. axis [0,-1,0]       

 cryst.   s(12) = (     0          0          1      )
                  (     0          1          0      )
                  (    -1          0          0      )

 cart.    s(12) = (  0.0000000  0.0000000 -1.0000000 )
                  (  0.0000000  1.0000000  0.0000000 )
                  (  1.0000000  0.0000000  0.0000000 )


      isym = 13     180 deg rotation - cart. axis [0,1,1]        

 cryst.   s(13) = (    -1          0          0      )
                  (     0          0          1      )
                  (     0          1          0      )

 cart.    s(13) = ( -1.0000000  0.0000000  0.0000000 )
                  (  0.0000000  0.0000000  1.0000000 )
                  (  0.0000000  1.0000000  0.0000000 )


      isym = 14     180 deg rotation - cart. axis [0,1,-1]       

 cryst.   s(14) = (    -1          0          0      )
                  (     0          0         -1      )
                  (     0         -1          0      )

 cart.    s(14) = ( -1.0000000  0.0000000  0.0000000 )
                  (  0.0000000  0.0000000 -1.0000000 )
                  (  0.0000000 -1.0000000  0.0000000 )


      isym = 15      90 deg rotation - cart. axis [-1,0,0]       

 cryst.   s(15) = (     1          0          0      )
                  (     0          0         -1      )
                  (     0          1          0      )

 cart.    s(15) = (  1.0000000  0.0000000  0.0000000 )
                  (  0.0000000  0.0000000  1.0000000 )
                  (  0.0000000 -1.0000000  0.0000000 )


      isym = 16      90 deg rotation - cart. axis [1,0,0]        

 cryst.   s(16) = (     1          0          0      )
                  (     0          0          1      )
                  (     0         -1          0      )

 cart.    s(16) = (  1.0000000  0.0000000  0.0000000 )
                  (  0.0000000  0.0000000 -1.0000000 )
                  (  0.0000000  1.0000000  0.0000000 )


      isym = 17     120 deg rotation - cart. axis [-1,-1,-1]     

 cryst.   s(17) = (     0          0          1      )
                  (     1          0          0      )
                  (     0          1          0      )

 cart.    s(17) = (  0.0000000  1.0000000  0.0000000 )
                  (  0.0000000  0.0000000  1.0000000 )
                  (  1.0000000  0.0000000  0.0000000 )


      isym = 18     120 deg rotation - cart. axis [-1,1,1]       

 cryst.   s(18) = (     0          0         -1      )
                  (    -1          0          0      )
                  (     0          1          0      )

 cart.    s(18) = (  0.0000000 -1.0000000  0.0000000 )
                  (  0.0000000  0.0000000  1.0000000 )
                  ( -1.0000000  0.0000000  0.0000000 )


      isym = 19     120 deg rotation - cart. axis [1,1,-1]       

 cryst.   s(19) = (     0          0         -1      )
                  (     1          0          0      )
                  (     0         -1          0      )

 cart.    s(19) = (  0.0000000  1.0000000  0.0000000 )
                  (  0.0000000  0.0000000 -1.0000000 )
                  ( -1.0000000  0.0000000  0.0000000 )


      isym = 20     120 deg rotation - cart. axis [1,-1,1]       

 cryst.   s(20) = (     0          0          1      )
                  (    -1          0          0      )
                  (     0         -1          0      )

 cart.    s(20) = (  0.0000000 -1.0000000  0.0000000 )
                  (  0.0000000  0.0000000 -1.0000000 )
                  (  1.0000000  0.0000000  0.0000000 )


      isym = 21     120 deg rotation - cart. axis [1,1,1]        

 cryst.   s(21) = (     0          1          0      )
                  (     0          0          1      )
                  (     1          0          0      )

 cart.    s(21) = (  0.0000000  0.0000000  1.0000000 )
                  (  1.0000000  0.0000000  0.0000000 )
                  (  0.0000000  1.0000000  0.0000000 )


      isym = 22     120 deg rotation - cart. axis [-1,1,-1]      

 cryst.   s(22) = (     0         -1          0      )
                  (     0          0         -1      )
                  (     1          0          0      )

 cart.    s(22) = (  0.0000000  0.0000000  1.0000000 )
                  ( -1.0000000  0.0000000  0.0000000 )
                  (  0.0000000 -1.0000000  0.0000000 )


      isym = 23     120 deg rotation - cart. axis [1,-1,-1]      

 cryst.   s(23) = (     0         -1          0      )
                  (     0          0          1      )
                  (    -1          0          0      )

 cart.    s(23) = (  0.0000000  0.0000000 -1.0000000 )
                  ( -1.0000000  0.0000000  0.0000000 )
                  (  0.0000000  1.0000000  0.0000000 )


      isym = 24     120 deg rotation - cart. axis [-1,-1,1]      

 cryst.   s(24) = (     0          1          0      )
                  (     0          0         -1      )
                  (    -1          0          0      )

 cart.    s(24) = (  0.0000000  0.0000000 -1.0000000 )
                  (  1.0000000  0.0000000  0.0000000 )
                  (  0.0000000 -1.0000000  0.0000000 )


      isym = 25     inversion                                    

 cryst.   s(25) = (    -1          0          0      )
                  (     0         -1          0      )
                  (     0          0         -1      )

 cart.    s(25) = ( -1.0000000  0.0000000  0.0000000 )
                  (  0.0000000 -1.0000000  0.0000000 )
                  (  0.0000000  0.0000000 -1.0000000 )


      isym = 26     inv. 180 deg rotation - cart. axis [0,0,1]   

 cryst.   s(26) = (     1          0          0      )
                  (     0          1          0      )
                  (     0          0         -1      )

 cart.    s(26) = (  1.0000000  0.0000000  0.0000000 )
                  (  0.0000000  1.0000000  0.0000000 )
                  (  0.0000000  0.0000000 -1.0000000 )


      isym = 27     inv. 180 deg rotation - cart. axis [0,1,0]   

 cryst.   s(27) = (     1          0          0      )
                  (     0         -1          0      )
                  (     0          0          1      )

 cart.    s(27) = (  1.0000000  0.0000000  0.0000000 )
                  (  0.0000000 -1.0000000  0.0000000 )
                  (  0.0000000  0.0000000  1.0000000 )


      isym = 28     inv. 180 deg rotation - cart. axis [1,0,0]   

 cryst.   s(28) = (    -1          0          0      )
                  (     0          1          0      )
                  (     0          0          1      )

 cart.    s(28) = ( -1.0000000  0.0000000  0.0000000 )
                  (  0.0000000  1.0000000  0.0000000 )
                  (  0.0000000  0.0000000  1.0000000 )


      isym = 29     inv. 180 deg rotation - cart. axis [1,1,0]   

 cryst.   s(29) = (     0         -1          0      )
                  (    -1          0          0      )
                  (     0          0          1      )

 cart.    s(29) = (  0.0000000 -1.0000000  0.0000000 )
                  ( -1.0000000  0.0000000  0.0000000 )
                  (  0.0000000  0.0000000  1.0000000 )


      isym = 30     inv. 180 deg rotation - cart. axis [1,-1,0]  

 cryst.   s(30) = (     0          1          0      )
                  (     1          0          0      )
                  (     0          0          1      )

 cart.    s(30) = (  0.0000000  1.0000000  0.0000000 )
                  (  1.0000000  0.0000000  0.0000000 )
                  (  0.0000000  0.0000000  1.0000000 )


      isym = 31     inv.  90 deg rotation - cart. axis [0,0,-1]  

 cryst.   s(31) = (     0          1          0      )
                  (    -1          0          0      )
                  (     0          0         -1      )

 cart.    s(31) = (  0.0000000 -1.0000000  0.0000000 )
                  (  1.0000000  0.0000000  0.0000000 )
                  (  0.0000000  0.0000000 -1.0000000 )


      isym = 32     inv.  90 deg rotation - cart. axis [0,0,1]   

 cryst.   s(32) = (     0         -1          0      )
                  (     1          0          0      )
                  (     0          0         -1      )

 cart.    s(32) = (  0.0000000  1.0000000  0.0000000 )
                  ( -1.0000000  0.0000000  0.0000000 )
                  (  0.0000000  0.0000000 -1.0000000 )


      isym = 33     inv. 180 deg rotation - cart. axis [1,0,1]   

 cryst.   s(33) = (     0          0         -1      )
                  (     0          1          0      )
                  (    -1          0          0      )

 cart.    s(33) = (  0.0000000  0.0000000 -1.0000000 )
                  (  0.0000000  1.0000000  0.0000000 )
                  ( -1.0000000  0.0000000  0.0000000 )


      isym = 34     inv. 180 deg rotation - cart. axis [-1,0,1]  

 cryst.   s(34) = (     0          0          1      )
                  (     0          1          0      )
                  (     1          0          0      )

 cart.    s(34) = (  0.0000000  0.0000000  1.0000000 )
                  (  0.0000000  1.0000000  0.0000000 )
                  (  1.0000000  0.0000000  0.0000000 )


      isym = 35     inv.  90 deg rotation - cart. axis [0,1,0]   

 cryst.   s(35) = (     0          0          1      )
                  (     0         -1          0      )
                  (    -1          0          0      )

 cart.    s(35) = (  0.0000000  0.0000000 -1.0000000 )
                  (  0.0000000 -1.0000000  0.0000000 )
                  (  1.0000000  0.0000000  0.0000000 )


      isym = 36     inv.  90 deg rotation - cart. axis [0,-1,0]  

 cryst.   s(36) = (     0          0         -1      )
                  (     0         -1          0      )
                  (     1          0          0      )

 cart.    s(36) = (  0.0000000  0.0000000  1.0000000 )
                  (  0.0000000 -1.0000000  0.0000000 )
                  ( -1.0000000  0.0000000  0.0000000 )


      isym = 37     inv. 180 deg rotation - cart. axis [0,1,1]   

 cryst.   s(37) = (     1          0          0      )
                  (     0          0         -1      )
                  (     0         -1          0      )

 cart.    s(37) = (  1.0000000  0.0000000  0.0000000 )
                  (  0.0000000  0.0000000 -1.0000000 )
                  (  0.0000000 -1.0000000  0.0000000 )


      isym = 38     inv. 180 deg rotation - cart. axis [0,1,-1]  

 cryst.   s(38) = (     1          0          0      )
                  (     0          0          1      )
                  (     0          1          0      )

 cart.    s(38) = (  1.0000000  0.0000000  0.0000000 )
                  (  0.0000000  0.0000000  1.0000000 )
                  (  0.0000000  1.0000000  0.0000000 )


      isym = 39     inv.  90 deg rotation - cart. axis [-1,0,0]  

 cryst.   s(39) = (    -1          0          0      )
                  (     0          0          1      )
                  (     0         -1          0      )

 cart.    s(39) = ( -1.0000000  0.0000000  0.0000000 )
                  (  0.0000000  0.0000000 -1.0000000 )
                  (  0.0000000  1.0000000  0.0000000 )


      isym = 40     inv.  90 deg rotation - cart. axis [1,0,0]   

 cryst.   s(40) = (    -1          0          0      )
                  (     0          0         -1      )
                  (     0          1          0      )

 cart.    s(40) = ( -1.0000000  0.0000000  0.0000000 )
                  (  0.0000000  0.0000000  1.0000000 )
                  (  0.0000000 -1.0000000  0.0000000 )


      isym = 41     inv. 120 deg rotation - cart. axis [-1,-1,-1]

 cryst.   s(41) = (     0          0         -1      )
                  (    -1          0          0      )
                  (     0         -1          0      )

 cart.    s(41) = (  0.0000000 -1.0000000  0.0000000 )
                  (  0.0000000  0.0000000 -1.0000000 )
                  ( -1.0000000  0.0000000  0.0000000 )


      isym = 42     inv. 120 deg rotation - cart. axis [-1,1,1]  

 cryst.   s(42) = (     0          0          1      )
                  (     1          0          0      )
                  (     0         -1          0      )

 cart.    s(42) = (  0.0000000  1.0000000  0.0000000 )
                  (  0.0000000  0.0000000 -1.0000000 )
                  (  1.0000000  0.0000000  0.0000000 )


      isym = 43     inv. 120 deg rotation - cart. axis [1,1,-1]  

 cryst.   s(43) = (     0          0          1      )
                  (    -1          0          0      )
                  (     0          1          0      )

 cart.    s(43) = (  0.0000000 -1.0000000  0.0000000 )
                  (  0.0000000  0.0000000  1.0000000 )
                  (  1.0000000  0.0000000  0.0000000 )


      isym = 44     inv. 120 deg rotation - cart. axis [1,-1,1]  

 cryst.   s(44) = (     0          0         -1      )
                  (     1          0          0      )
                  (     0          1          0      )

 cart.    s(44) = (  0.0000000  1.0000000  0.0000000 )
                  (  0.0000000  0.0000000  1.0000000 )
                  ( -1.0000000  0.0000000  0.0000000 )


      isym = 45     inv. 120 deg rotation - cart. axis [1,1,1]   

 cryst.   s(45) = (     0         -1          0      )
                  (     0          0         -1      )
                  (    -1          0          0      )

 cart.    s(45) = (  0.0000000  0.0000000 -1.0000000 )
                  ( -1.0000000  0.0000000  0.0000000 )
                  (  0.0000000 -1.0000000  0.0000000 )


      isym = 46     inv. 120 deg rotation - cart. axis [-1,1,-1] 

 cryst.   s(46) = (     0          1          0      )
                  (     0          0          1      )
                  (    -1          0          0      )

 cart.    s(46) = (  0.0000000  0.0000000 -1.0000000 )
                  (  1.0000000  0.0000000  0.0000000 )
                  (  0.0000000  1.0000000  0.0000000 )


      isym = 47     inv. 120 deg rotation - cart. axis [1,-1,-1] 

 cryst.   s(47) = (     0          1          0      )
                  (     0          0         -1      )
                  (     1          0          0      )

 cart.    s(47) = (  0.0000000  0.0000000  1.0000000 )
                  (  1.0000000  0.0000000  0.0000000 )
                  (  0.0000000 -1.0000000  0.0000000 )


      isym = 48     inv. 120 deg rotation - cart. axis [-1,-1,1] 

 cryst.   s(48) = (     0         -1          0      )
                  (     0          0          1      )
                  (     1          0          0      )

 cart.    s(48) = (  0.0000000  0.0000000  1.0000000 )
                  ( -1.0000000  0.0000000  0.0000000 )
                  (  0.0000000  1.0000000  0.0000000 )


   Cartesian axes

     site n.     atom                  positions (alat units)
         1        K      tau(   1) = (   0.0000000   0.0000000   0.0000000  )
         2        Nb     tau(   2) = (   0.5000000   0.5000000   0.5000000  )
         3        S      tau(   3) = (   0.5000000   0.0000000   0.0000000  )
         4        S      tau(   4) = (   0.0000000   0.5000000   0.0000000  )
         5        S      tau(   5) = (   0.0000000   0.0000000   0.5000000  )

   Crystallographic axes

     site n.     atom                  positions (cryst. coord.)
         1        K      tau(   1) = (  0.0000000  0.0000000  0.0000000  )
         2        Nb     tau(   2) = (  0.5000000  0.5000000  0.5000000  )
         3        S      tau(   3) = (  0.5000000  0.0000000  0.0000000  )
         4        S      tau(   4) = (  0.0000000  0.5000000  0.0000000  )
         5        S      tau(   5) = (  0.0000000  0.0000000  0.5000000  )

     number of k points=    35  Gaussian smearing, width (Ry)=  0.0050
                       cart. coord. in units 2pi/alat
        k(    1) = (   0.0000000   0.0000000   0.0000000), wk =   0.0039062
        k(    2) = (   0.0000000   0.0000000   0.1250000), wk =   0.0234375
        k(    3) = (   0.0000000   0.0000000   0.2500000), wk =   0.0234375
        k(    4) = (   0.0000000   0.0000000   0.3750000), wk =   0.0234375
        k(    5) = (   0.0000000   0.0000000  -0.5000000), wk =   0.0117188
        k(    6) = (   0.0000000   0.1250000   0.1250000), wk =   0.0468750
        k(    7) = (   0.0000000   0.1250000   0.2500000), wk =   0.0937500
        k(    8) = (   0.0000000   0.1250000   0.3750000), wk =   0.0937500
        k(    9) = (   0.0000000   0.1250000  -0.5000000), wk =   0.0468750
        k(   10) = (   0.0000000   0.2500000   0.2500000), wk =   0.0468750
        k(   11) = (   0.0000000   0.2500000   0.3750000), wk =   0.0937500
        k(   12) = (   0.0000000   0.2500000  -0.5000000), wk =   0.0468750
        k(   13) = (   0.0000000   0.3750000   0.3750000), wk =   0.0468750
        k(   14) = (   0.0000000   0.3750000  -0.5000000), wk =   0.0468750
        k(   15) = (   0.0000000  -0.5000000  -0.5000000), wk =   0.0117188
        k(   16) = (   0.1250000   0.1250000   0.1250000), wk =   0.0312500
        k(   17) = (   0.1250000   0.1250000   0.2500000), wk =   0.0937500
        k(   18) = (   0.1250000   0.1250000   0.3750000), wk =   0.0937500
        k(   19) = (   0.1250000   0.1250000  -0.5000000), wk =   0.0468750
        k(   20) = (   0.1250000   0.2500000   0.2500000), wk =   0.0937500
        k(   21) = (   0.1250000   0.2500000   0.3750000), wk =   0.1875000
        k(   22) = (   0.1250000   0.2500000  -0.5000000), wk =   0.0937500
        k(   23) = (   0.1250000   0.3750000   0.3750000), wk =   0.0937500
        k(   24) = (   0.1250000   0.3750000  -0.5000000), wk =   0.0937500
        k(   25) = (   0.1250000  -0.5000000  -0.5000000), wk =   0.0234375
        k(   26) = (   0.2500000   0.2500000   0.2500000), wk =   0.0312500
        k(   27) = (   0.2500000   0.2500000   0.3750000), wk =   0.0937500
        k(   28) = (   0.2500000   0.2500000  -0.5000000), wk =   0.0468750
        k(   29) = (   0.2500000   0.3750000   0.3750000), wk =   0.0937500
        k(   30) = (   0.2500000   0.3750000  -0.5000000), wk =   0.0937500
        k(   31) = (   0.2500000  -0.5000000  -0.5000000), wk =   0.0234375
        k(   32) = (   0.3750000   0.3750000   0.3750000), wk =   0.0312500
        k(   33) = (   0.3750000   0.3750000  -0.5000000), wk =   0.0468750
        k(   34) = (   0.3750000  -0.5000000  -0.5000000), wk =   0.0234375
        k(   35) = (  -0.5000000  -0.5000000  -0.5000000), wk =   0.0039062

                       cryst. coord.
        k(    1) = (   0.0000000   0.0000000   0.0000000), wk =   0.0039062
        k(    2) = (   0.0000000   0.0000000   0.1250000), wk =   0.0234375
        k(    3) = (   0.0000000   0.0000000   0.2500000), wk =   0.0234375
        k(    4) = (   0.0000000   0.0000000   0.3750000), wk =   0.0234375
        k(    5) = (   0.0000000   0.0000000  -0.5000000), wk =   0.0117188
        k(    6) = (   0.0000000   0.1250000   0.1250000), wk =   0.0468750
        k(    7) = (   0.0000000   0.1250000   0.2500000), wk =   0.0937500
        k(    8) = (   0.0000000   0.1250000   0.3750000), wk =   0.0937500
        k(    9) = (   0.0000000   0.1250000  -0.5000000), wk =   0.0468750
        k(   10) = (   0.0000000   0.2500000   0.2500000), wk =   0.0468750
        k(   11) = (   0.0000000   0.2500000   0.3750000), wk =   0.0937500
        k(   12) = (   0.0000000   0.2500000  -0.5000000), wk =   0.0468750
        k(   13) = (   0.0000000   0.3750000   0.3750000), wk =   0.0468750
        k(   14) = (   0.0000000   0.3750000  -0.5000000), wk =   0.0468750
        k(   15) = (   0.0000000  -0.5000000  -0.5000000), wk =   0.0117188
        k(   16) = (   0.1250000   0.1250000   0.1250000), wk =   0.0312500
        k(   17) = (   0.1250000   0.1250000   0.2500000), wk =   0.0937500
        k(   18) = (   0.1250000   0.1250000   0.3750000), wk =   0.0937500
        k(   19) = (   0.1250000   0.1250000  -0.5000000), wk =   0.0468750
        k(   20) = (   0.1250000   0.2500000   0.2500000), wk =   0.0937500
        k(   21) = (   0.1250000   0.2500000   0.3750000), wk =   0.1875000
        k(   22) = (   0.1250000   0.2500000  -0.5000000), wk =   0.0937500
        k(   23) = (   0.1250000   0.3750000   0.3750000), wk =   0.0937500
        k(   24) = (   0.1250000   0.3750000  -0.5000000), wk =   0.0937500
        k(   25) = (   0.1250000  -0.5000000  -0.5000000), wk =   0.0234375
        k(   26) = (   0.2500000   0.2500000   0.2500000), wk =   0.0312500
        k(   27) = (   0.2500000   0.2500000   0.3750000), wk =   0.0937500
        k(   28) = (   0.2500000   0.2500000  -0.5000000), wk =   0.0468750
        k(   29) = (   0.2500000   0.3750000   0.3750000), wk =   0.0937500
        k(   30) = (   0.2500000   0.3750000  -0.5000000), wk =   0.0937500
        k(   31) = (   0.2500000  -0.5000000  -0.5000000), wk =   0.0234375
        k(   32) = (   0.3750000   0.3750000   0.3750000), wk =   0.0312500
        k(   33) = (   0.3750000   0.3750000  -0.5000000), wk =   0.0468750
        k(   34) = (   0.3750000  -0.5000000  -0.5000000), wk =   0.0234375
        k(   35) = (  -0.5000000  -0.5000000  -0.5000000), wk =   0.0039062

     Dense  grid:   232989 G-vectors     FFT dimensions: (  80,  80,  80)

     Smooth grid:    82201 G-vectors     FFT dimensions: (  54,  54,  54)

     Dynamical RAM for                 wfc:       1.89 MB

     Dynamical RAM for     wfc (w. buffer):      18.85 MB

     Dynamical RAM for           str. fact:       5.33 MB

     Dynamical RAM for           local pot:       0.00 MB

     Dynamical RAM for          nlocal pot:       7.07 MB

     Dynamical RAM for                qrad:       6.09 MB

     Dynamical RAM for          rho,v,vnew:      11.19 MB

     Dynamical RAM for               rhoin:       3.73 MB

     Dynamical RAM for            rho*nmix:      28.44 MB

     Dynamical RAM for           G-vectors:       6.98 MB

     Dynamical RAM for          h,s,v(r/c):       0.11 MB

     Dynamical RAM for          <psi|beta>:       0.03 MB

     Dynamical RAM for                 psi:       3.77 MB

     Dynamical RAM for                hpsi:       3.77 MB

     Dynamical RAM for                spsi:       3.77 MB

     Dynamical RAM for      wfcinit/wfcrot:       5.21 MB

     Dynamical RAM for           addusdens:      85.32 MB

     Estimated static dynamical RAM per process >      76.12 MB

     Estimated max dynamical RAM per process >     189.89 MB

     Estimated total dynamical RAM >       1.32 GB

     Initial potential from superposition of free atoms

     starting charge      39.9798, renormalised to      40.0000
     Starting wfcs are   33 randomized atomic wfcs
     Checking if some PAW data can be deallocated... 
       PAW data deallocated on    6 nodes for type:  2
       PAW data deallocated on    4 nodes for type:  3

     total cpu time spent up to now is        9.7 secs

     Self-consistent Calculation

     iteration #  1     ecut=    80.00 Ry     beta= 0.40
     Davidson diagonalization with overlap

---- Real-time Memory Report at c_bands before calling an iterative solver
           165 MiB given to the printing process from OS
             0 MiB allocation reported by mallinfo(arena+hblkhd)
         47313 MiB available memory on the node where the printing process lives
------------------
     ethr =  1.00E-02,  avg # of iterations =  2.0

     total cpu time spent up to now is       28.1 secs

     total energy              =    -589.58554639 Ry
     estimated scf accuracy    <       3.77713497 Ry

     iteration #  2     ecut=    80.00 Ry     beta= 0.40
     Davidson diagonalization with overlap

---- Real-time Memory Report at c_bands before calling an iterative solver
           207 MiB given to the printing process from OS
             0 MiB allocation reported by mallinfo(arena+hblkhd)
         46767 MiB available memory on the node where the printing process lives
------------------
     ethr =  9.44E-03,  avg # of iterations =  5.1

     total cpu time spent up to now is       56.0 secs

     total energy              =    -590.06787983 Ry
     estimated scf accuracy    <      28.41348225 Ry

     iteration #  3     ecut=    80.00 Ry     beta= 0.40
     Davidson diagonalization with overlap

---- Real-time Memory Report at c_bands before calling an iterative solver
           209 MiB given to the printing process from OS
             0 MiB allocation reported by mallinfo(arena+hblkhd)
         46598 MiB available memory on the node where the printing process lives
------------------
     ethr =  9.44E-03,  avg # of iterations =  2.1

     total cpu time spent up to now is       75.3 secs

     total energy              =    -591.21053858 Ry
     estimated scf accuracy    <       0.48088951 Ry

     iteration #  4     ecut=    80.00 Ry     beta= 0.40
     Davidson diagonalization with overlap

---- Real-time Memory Report at c_bands before calling an iterative solver
           210 MiB given to the printing process from OS
             0 MiB allocation reported by mallinfo(arena+hblkhd)
         46635 MiB available memory on the node where the printing process lives
------------------
     ethr =  1.20E-03,  avg # of iterations =  3.4

     total cpu time spent up to now is       97.2 secs

     total energy              =    -591.28919920 Ry
     estimated scf accuracy    <       0.02359974 Ry

     iteration #  5     ecut=    80.00 Ry     beta= 0.40
     Davidson diagonalization with overlap

---- Real-time Memory Report at c_bands before calling an iterative solver
           211 MiB given to the printing process from OS
             0 MiB allocation reported by mallinfo(arena+hblkhd)
         46899 MiB available memory on the node where the printing process lives
------------------
     ethr =  5.90E-05,  avg # of iterations =  7.8

     total cpu time spent up to now is      132.4 secs

     total energy              =    -591.26729545 Ry
     estimated scf accuracy    <       0.74916511 Ry

     iteration #  6     ecut=    80.00 Ry     beta= 0.40
     Davidson diagonalization with overlap

---- Real-time Memory Report at c_bands before calling an iterative solver
           212 MiB given to the printing process from OS
             0 MiB allocation reported by mallinfo(arena+hblkhd)
         46773 MiB available memory on the node where the printing process lives
------------------
     ethr =  5.90E-05,  avg # of iterations =  5.7

     total cpu time spent up to now is      160.9 secs

     total energy              =    -591.30247894 Ry
     estimated scf accuracy    <       0.40535563 Ry

     iteration #  7     ecut=    80.00 Ry     beta= 0.40
     Davidson diagonalization with overlap

---- Real-time Memory Report at c_bands before calling an iterative solver
           214 MiB given to the printing process from OS
             0 MiB allocation reported by mallinfo(arena+hblkhd)
         46622 MiB available memory on the node where the printing process lives
------------------
     ethr =  5.90E-05,  avg # of iterations =  3.0

     total cpu time spent up to now is      182.2 secs

     total energy              =    -591.31680023 Ry
     estimated scf accuracy    <       0.00855885 Ry

     iteration #  8     ecut=    80.00 Ry     beta= 0.40
     Davidson diagonalization with overlap

---- Real-time Memory Report at c_bands before calling an iterative solver
           215 MiB given to the printing process from OS
             0 MiB allocation reported by mallinfo(arena+hblkhd)
         46717 MiB available memory on the node where the printing process lives
------------------
     ethr =  2.14E-05,  avg # of iterations =  5.5

     total cpu time spent up to now is      210.6 secs

     total energy              =    -591.31752862 Ry
     estimated scf accuracy    <       0.29396331 Ry

     iteration #  9     ecut=    80.00 Ry     beta= 0.40
     Davidson diagonalization with overlap

---- Real-time Memory Report at c_bands before calling an iterative solver
           216 MiB given to the printing process from OS
             0 MiB allocation reported by mallinfo(arena+hblkhd)
         46668 MiB available memory on the node where the printing process lives
------------------
     ethr =  2.14E-05,  avg # of iterations =  1.0

     total cpu time spent up to now is      226.1 secs

     total energy              =    -591.31004329 Ry
     estimated scf accuracy    <       0.13786084 Ry

     iteration # 10     ecut=    80.00 Ry     beta= 0.40
     Davidson diagonalization with overlap

---- Real-time Memory Report at c_bands before calling an iterative solver
           218 MiB given to the printing process from OS
             0 MiB allocation reported by mallinfo(arena+hblkhd)
         46827 MiB available memory on the node where the printing process lives
------------------
     ethr =  2.14E-05,  avg # of iterations =  3.1

     total cpu time spent up to now is      246.9 secs

     total energy              =    -591.31374887 Ry
     estimated scf accuracy    <       0.00498241 Ry

     iteration # 11     ecut=    80.00 Ry     beta= 0.40
     Davidson diagonalization with overlap

---- Real-time Memory Report at c_bands before calling an iterative solver
           218 MiB given to the printing process from OS
             0 MiB allocation reported by mallinfo(arena+hblkhd)
         46773 MiB available memory on the node where the printing process lives
------------------
     ethr =  1.25E-05,  avg # of iterations =  1.9

     total cpu time spent up to now is      264.4 secs

     total energy              =    -591.31405816 Ry
     estimated scf accuracy    <       0.09024588 Ry

     iteration # 12     ecut=    80.00 Ry     beta= 0.40
     Davidson diagonalization with overlap

---- Real-time Memory Report at c_bands before calling an iterative solver
           218 MiB given to the printing process from OS
             0 MiB allocation reported by mallinfo(arena+hblkhd)
         46722 MiB available memory on the node where the printing process lives
------------------
     ethr =  1.25E-05,  avg # of iterations =  1.3

     total cpu time spent up to now is      280.2 secs

     total energy              =    -591.31500677 Ry
     estimated scf accuracy    <       0.01219689 Ry

     iteration # 13     ecut=    80.00 Ry     beta= 0.40
     Davidson diagonalization with overlap

---- Real-time Memory Report at c_bands before calling an iterative solver
           218 MiB given to the printing process from OS
             0 MiB allocation reported by mallinfo(arena+hblkhd)
         46722 MiB available memory on the node where the printing process lives
------------------
     ethr =  1.25E-05,  avg # of iterations =  1.0

     total cpu time spent up to now is      295.6 secs

     total energy              =    -591.31446183 Ry
     estimated scf accuracy    <       0.01038588 Ry

     iteration # 14     ecut=    80.00 Ry     beta= 0.40
     Davidson diagonalization with overlap

---- Real-time Memory Report at c_bands before calling an iterative solver
           218 MiB given to the printing process from OS
             0 MiB allocation reported by mallinfo(arena+hblkhd)
         46753 MiB available memory on the node where the printing process lives
------------------
     ethr =  1.25E-05,  avg # of iterations =  1.1

     total cpu time spent up to now is      310.6 secs

     total energy              =    -591.31475359 Ry
     estimated scf accuracy    <       0.00001256 Ry

     iteration # 15     ecut=    80.00 Ry     beta= 0.40
     Davidson diagonalization with overlap

---- Real-time Memory Report at c_bands before calling an iterative solver
           218 MiB given to the printing process from OS
             0 MiB allocation reported by mallinfo(arena+hblkhd)
         46659 MiB available memory on the node where the printing process lives
------------------
     ethr =  3.14E-08,  avg # of iterations =  8.1

     total cpu time spent up to now is      347.8 secs

     total energy              =    -591.31490679 Ry
     estimated scf accuracy    <       0.00020382 Ry

     iteration # 16     ecut=    80.00 Ry     beta= 0.40
     Davidson diagonalization with overlap

---- Real-time Memory Report at c_bands before calling an iterative solver
           218 MiB given to the printing process from OS
             0 MiB allocation reported by mallinfo(arena+hblkhd)
         46782 MiB available memory on the node where the printing process lives
------------------
     ethr =  3.14E-08,  avg # of iterations =  1.2

     total cpu time spent up to now is      363.4 secs

     total energy              =    -591.31490675 Ry
     estimated scf accuracy    <       0.00028987 Ry

     iteration # 17     ecut=    80.00 Ry     beta= 0.40
     Davidson diagonalization with overlap

---- Real-time Memory Report at c_bands before calling an iterative solver
           218 MiB given to the printing process from OS
             0 MiB allocation reported by mallinfo(arena+hblkhd)
         46654 MiB available memory on the node where the printing process lives
------------------
     ethr =  3.14E-08,  avg # of iterations =  1.0

     total cpu time spent up to now is      378.2 secs

     total energy              =    -591.31489504 Ry
     estimated scf accuracy    <       0.00027648 Ry

     iteration # 18     ecut=    80.00 Ry     beta= 0.40
     Davidson diagonalization with overlap

---- Real-time Memory Report at c_bands before calling an iterative solver
           218 MiB given to the printing process from OS
             0 MiB allocation reported by mallinfo(arena+hblkhd)
         46725 MiB available memory on the node where the printing process lives
------------------
     ethr =  3.14E-08,  avg # of iterations =  2.3

     total cpu time spent up to now is      397.0 secs

     total energy              =    -591.31489864 Ry
     estimated scf accuracy    <       0.00000988 Ry

     iteration # 19     ecut=    80.00 Ry     beta= 0.40
     Davidson diagonalization with overlap

---- Real-time Memory Report at c_bands before calling an iterative solver
           218 MiB given to the printing process from OS
             0 MiB allocation reported by mallinfo(arena+hblkhd)
         46754 MiB available memory on the node where the printing process lives
------------------
     ethr =  2.47E-08,  avg # of iterations =  4.9

     total cpu time spent up to now is      422.9 secs

     total energy              =    -591.31490313 Ry
     estimated scf accuracy    <       0.00010270 Ry

     iteration # 20     ecut=    80.00 Ry     beta= 0.40
     Davidson diagonalization with overlap

---- Real-time Memory Report at c_bands before calling an iterative solver
           218 MiB given to the printing process from OS
             0 MiB allocation reported by mallinfo(arena+hblkhd)
         46942 MiB available memory on the node where the printing process lives
------------------
     ethr =  2.47E-08,  avg # of iterations =  1.0

     total cpu time spent up to now is      438.3 secs

     total energy              =    -591.31490266 Ry
     estimated scf accuracy    <       0.00010602 Ry

     iteration # 21     ecut=    80.00 Ry     beta= 0.40
     Davidson diagonalization with overlap

---- Real-time Memory Report at c_bands before calling an iterative solver
           218 MiB given to the printing process from OS
             0 MiB allocation reported by mallinfo(arena+hblkhd)
         46796 MiB available memory on the node where the printing process lives
------------------
     ethr =  2.47E-08,  avg # of iterations =  1.0

     total cpu time spent up to now is      453.9 secs

     total energy              =    -591.31490159 Ry
     estimated scf accuracy    <       0.00010335 Ry

     iteration # 22     ecut=    80.00 Ry     beta= 0.40
     Davidson diagonalization with overlap

---- Real-time Memory Report at c_bands before calling an iterative solver
           218 MiB given to the printing process from OS
             0 MiB allocation reported by mallinfo(arena+hblkhd)
         46616 MiB available memory on the node where the printing process lives
------------------
     ethr =  2.47E-08,  avg # of iterations =  1.0

     total cpu time spent up to now is      468.7 secs

     total energy              =    -591.31490032 Ry
     estimated scf accuracy    <       0.00007018 Ry

     iteration # 23     ecut=    80.00 Ry     beta= 0.40
     Davidson diagonalization with overlap

---- Real-time Memory Report at c_bands before calling an iterative solver
           218 MiB given to the printing process from OS
             0 MiB allocation reported by mallinfo(arena+hblkhd)
         46857 MiB available memory on the node where the printing process lives
------------------
     ethr =  2.47E-08,  avg # of iterations =  1.0

     total cpu time spent up to now is      483.6 secs

     total energy              =    -591.31489848 Ry
     estimated scf accuracy    <       0.00003351 Ry

     iteration # 24     ecut=    80.00 Ry     beta= 0.40
     Davidson diagonalization with overlap

---- Real-time Memory Report at c_bands before calling an iterative solver
           218 MiB given to the printing process from OS
             0 MiB allocation reported by mallinfo(arena+hblkhd)
         46616 MiB available memory on the node where the printing process lives
------------------
     ethr =  2.47E-08,  avg # of iterations =  1.6

     total cpu time spent up to now is      500.6 secs

     total energy              =    -591.31489953 Ry
     estimated scf accuracy    <          6.4E-09 Ry

     iteration # 25     ecut=    80.00 Ry     beta= 0.40
     Davidson diagonalization with overlap

---- Real-time Memory Report at c_bands before calling an iterative solver
           218 MiB given to the printing process from OS
             0 MiB allocation reported by mallinfo(arena+hblkhd)
         46601 MiB available memory on the node where the printing process lives
------------------
     ethr =  1.60E-11,  avg # of iterations = 12.5

     total cpu time spent up to now is      552.5 secs

     total energy              =    -591.31489978 Ry
     estimated scf accuracy    <       0.00000061 Ry

     iteration # 26     ecut=    80.00 Ry     beta= 0.40
     Davidson diagonalization with overlap

---- Real-time Memory Report at c_bands before calling an iterative solver
           218 MiB given to the printing process from OS
             0 MiB allocation reported by mallinfo(arena+hblkhd)
         46816 MiB available memory on the node where the printing process lives
------------------
     ethr =  1.60E-11,  avg # of iterations =  2.0

     total cpu time spent up to now is      569.9 secs

     total energy              =    -591.31489979 Ry
     estimated scf accuracy    <       0.00000032 Ry

     iteration # 27     ecut=    80.00 Ry     beta= 0.40
     Davidson diagonalization with overlap

---- Real-time Memory Report at c_bands before calling an iterative solver
           218 MiB given to the printing process from OS
             0 MiB allocation reported by mallinfo(arena+hblkhd)
         46713 MiB available memory on the node where the printing process lives
------------------
     ethr =  1.60E-11,  avg # of iterations =  1.5

     total cpu time spent up to now is      586.7 secs

     total energy              =    -591.31491928 Ry
     estimated scf accuracy    <       0.00000425 Ry

     iteration # 28     ecut=    80.00 Ry     beta= 0.40
     Davidson diagonalization with overlap

---- Real-time Memory Report at c_bands before calling an iterative solver
           218 MiB given to the printing process from OS
             0 MiB allocation reported by mallinfo(arena+hblkhd)
         46835 MiB available memory on the node where the printing process lives
------------------
     ethr =  1.60E-11,  avg # of iterations =  1.0

     total cpu time spent up to now is      602.4 secs

     total energy              =    -591.31491919 Ry
     estimated scf accuracy    <       0.00000477 Ry

     iteration # 29     ecut=    80.00 Ry     beta= 0.40
     Davidson diagonalization with overlap

---- Real-time Memory Report at c_bands before calling an iterative solver
           218 MiB given to the printing process from OS
             0 MiB allocation reported by mallinfo(arena+hblkhd)
         46812 MiB available memory on the node where the printing process lives
------------------
     ethr =  1.60E-11,  avg # of iterations =  2.3

     total cpu time spent up to now is      622.9 secs

     total energy              =    -591.31491914 Ry
     estimated scf accuracy    <       0.00000294 Ry

     iteration # 30     ecut=    80.00 Ry     beta= 0.40
     Davidson diagonalization with overlap

---- Real-time Memory Report at c_bands before calling an iterative solver
           218 MiB given to the printing process from OS
             0 MiB allocation reported by mallinfo(arena+hblkhd)
         46826 MiB available memory on the node where the printing process lives
------------------
     ethr =  1.60E-11,  avg # of iterations =  2.5

     total cpu time spent up to now is      644.1 secs

     total energy              =    -591.31491912 Ry
     estimated scf accuracy    <       0.00000178 Ry

     iteration # 31     ecut=    80.00 Ry     beta= 0.40
     Davidson diagonalization with overlap

---- Real-time Memory Report at c_bands before calling an iterative solver
           218 MiB given to the printing process from OS
             0 MiB allocation reported by mallinfo(arena+hblkhd)
         46822 MiB available memory on the node where the printing process lives
------------------
     ethr =  1.60E-11,  avg # of iterations =  2.0

     total cpu time spent up to now is      663.5 secs

     total energy              =    -591.31491907 Ry
     estimated scf accuracy    <       0.00000139 Ry

     iteration # 32     ecut=    80.00 Ry     beta= 0.40
     Davidson diagonalization with overlap

---- Real-time Memory Report at c_bands before calling an iterative solver
           218 MiB given to the printing process from OS
             0 MiB allocation reported by mallinfo(arena+hblkhd)
         46698 MiB available memory on the node where the printing process lives
------------------
     ethr =  1.60E-11,  avg # of iterations =  3.5

     total cpu time spent up to now is      689.7 secs

     total energy              =    -591.31491908 Ry
     estimated scf accuracy    <       0.00000067 Ry

     iteration # 33     ecut=    80.00 Ry     beta= 0.40
     Davidson diagonalization with overlap

---- Real-time Memory Report at c_bands before calling an iterative solver
           218 MiB given to the printing process from OS
             0 MiB allocation reported by mallinfo(arena+hblkhd)
         46799 MiB available memory on the node where the printing process lives
------------------
     ethr =  1.60E-11,  avg # of iterations =  1.3

     total cpu time spent up to now is      705.0 secs

     total energy              =    -591.31491909 Ry
     estimated scf accuracy    <       0.00000087 Ry

     iteration # 34     ecut=    80.00 Ry     beta= 0.40
     Davidson diagonalization with overlap

---- Real-time Memory Report at c_bands before calling an iterative solver
           218 MiB given to the printing process from OS
             0 MiB allocation reported by mallinfo(arena+hblkhd)
         46814 MiB available memory on the node where the printing process lives
------------------
     ethr =  1.60E-11,  avg # of iterations =  1.0

     total cpu time spent up to now is      720.2 secs

     total energy              =    -591.31491909 Ry
     estimated scf accuracy    <       0.00000088 Ry

     iteration # 35     ecut=    80.00 Ry     beta= 0.40
     Davidson diagonalization with overlap

---- Real-time Memory Report at c_bands before calling an iterative solver
           218 MiB given to the printing process from OS
             0 MiB allocation reported by mallinfo(arena+hblkhd)
         46759 MiB available memory on the node where the printing process lives
------------------
     ethr =  1.60E-11,  avg # of iterations =  1.0

     total cpu time spent up to now is      735.1 secs

     total energy              =    -591.31491903 Ry
     estimated scf accuracy    <       0.00000099 Ry

     iteration # 36     ecut=    80.00 Ry     beta= 0.40
     Davidson diagonalization with overlap

---- Real-time Memory Report at c_bands before calling an iterative solver
           218 MiB given to the printing process from OS
             0 MiB allocation reported by mallinfo(arena+hblkhd)
         46729 MiB available memory on the node where the printing process lives
------------------
     ethr =  1.60E-11,  avg # of iterations =  4.4

     total cpu time spent up to now is      761.4 secs

     total energy              =    -591.31491906 Ry
     estimated scf accuracy    <          2.8E-09 Ry

     iteration # 37     ecut=    80.00 Ry     beta= 0.40
     Davidson diagonalization with overlap

---- Real-time Memory Report at c_bands before calling an iterative solver
           218 MiB given to the printing process from OS
             0 MiB allocation reported by mallinfo(arena+hblkhd)
         46617 MiB available memory on the node where the printing process lives
------------------
     ethr =  6.92E-12,  avg # of iterations =  2.1

     total cpu time spent up to now is      779.0 secs

     total energy              =    -591.31491906 Ry
     estimated scf accuracy    <          1.6E-10 Ry

     iteration # 38     ecut=    80.00 Ry     beta= 0.40
     Davidson diagonalization with overlap

---- Real-time Memory Report at c_bands before calling an iterative solver
           218 MiB given to the printing process from OS
             0 MiB allocation reported by mallinfo(arena+hblkhd)
         46883 MiB available memory on the node where the printing process lives
------------------
     ethr =  4.11E-13,  avg # of iterations =  6.6

     total cpu time spent up to now is      812.8 secs

     total energy              =    -591.31491906 Ry
     estimated scf accuracy    <          1.5E-10 Ry

     iteration # 39     ecut=    80.00 Ry     beta= 0.40
     Davidson diagonalization with overlap

---- Real-time Memory Report at c_bands before calling an iterative solver
           218 MiB given to the printing process from OS
             0 MiB allocation reported by mallinfo(arena+hblkhd)
         46733 MiB available memory on the node where the printing process lives
------------------
     ethr =  3.82E-13,  avg # of iterations =  1.4

     total cpu time spent up to now is      828.8 secs

     total energy              =    -591.31491906 Ry
     estimated scf accuracy    <          4.1E-12 Ry

     iteration # 40     ecut=    80.00 Ry     beta= 0.40
     Davidson diagonalization with overlap

---- Real-time Memory Report at c_bands before calling an iterative solver
           218 MiB given to the printing process from OS
             0 MiB allocation reported by mallinfo(arena+hblkhd)
         46739 MiB available memory on the node where the printing process lives
------------------
     ethr =  1.00E-13,  avg # of iterations =  2.6

     total cpu time spent up to now is      847.6 secs

     total energy              =    -591.31491906 Ry
     estimated scf accuracy    <          2.3E-12 Ry

     iteration # 41     ecut=    80.00 Ry     beta= 0.40
     Davidson diagonalization with overlap

---- Real-time Memory Report at c_bands before calling an iterative solver
           218 MiB given to the printing process from OS
             0 MiB allocation reported by mallinfo(arena+hblkhd)
         46828 MiB available memory on the node where the printing process lives
------------------
     ethr =  1.00E-13,  avg # of iterations =  1.0

     total cpu time spent up to now is      862.4 secs

     End of self-consistent calculation

          k = 0.0000 0.0000 0.0000 ( 10395 PWs)   bands (ev):

   -50.8618 -26.8160 -26.8160 -26.8160 -22.3723  -6.4941  -6.4941  -6.4941
    -6.3415  -5.5217  -5.5217   3.5857   3.5857   3.5857   4.6966   4.6966
     4.6966   5.3582   5.3582   5.5341   5.5341   5.5341   6.2425   6.2425

     occupation numbers 
     1.0000   1.0000   1.0000   1.0000   1.0000   1.0000   1.0000   1.0000
     1.0000   1.0000   1.0000   1.0000   1.0000   1.0000   1.0000   1.0000
     1.0000   1.0000   1.0000   0.9999   0.9999   0.9999   0.0000   0.0000

          k = 0.0000 0.0000 0.1250 ( 10275 PWs)   bands (ev):

   -50.8618 -26.8162 -26.8160 -26.8160 -22.3714  -6.8946  -6.4923  -6.4923
    -6.1540  -5.5176  -5.2116   3.4385   3.5779   3.5779   4.4070   4.5206
     4.5206   5.4052   5.5414   5.6631   5.7493   5.7493   5.7776   6.2066

     occupation numbers 
     1.0000   1.0000   1.0000   1.0000   1.0000   1.0000   1.0000   1.0000
     1.0000   1.0000   1.0000   1.0000   1.0000   1.0000   1.0000   1.0000
     1.0000   1.0000   0.9999   0.8837   0.2748   0.2748   0.1175   0.0000

          k = 0.0000 0.0000 0.2500 ( 10303 PWs)   bands (ev):

   -50.8618 -26.8166 -26.8160 -26.8160 -22.3694  -7.3191  -6.4879  -6.4879
    -6.0822  -5.5077  -4.6088   3.1708   3.5663   3.5663   4.0139   4.2295
     4.2295   4.9930   5.5243   5.5593   6.0906   6.1059   6.1059   6.1623

     occupation numbers 
     1.0000   1.0000   1.0000   1.0000   1.0000   1.0000   1.0000   1.0000
     1.0000   1.0000   1.0000   1.0000   1.0000   1.0000   1.0000   1.0000
     1.0000   1.0000   1.0000   0.9996   0.0000   0.0000   0.0000   0.0000

          k = 0.0000 0.0000 0.3750 ( 10327 PWs)   bands (ev):

   -50.8618 -26.8169 -26.8160 -26.8160 -22.3674  -7.5967  -6.4835  -6.4835
    -6.0503  -5.4976  -4.0862   3.0113   3.5726   3.5726   3.7430   3.9947
     3.9947   4.2206   5.5775   5.6515   6.0584   6.0584   6.3924   6.4772

     occupation numbers 
     1.0000   1.0000   1.0000   1.0000   1.0000   1.0000   1.0000   1.0000
     1.0000   1.0000   1.0000   1.0000   1.0000   1.0000   1.0000   1.0000
     1.0000   1.0000   0.9985   0.9241   0.0000   0.0000   0.0000   0.0000

          k = 0.0000 0.0000-0.5000 ( 10274 PWs)   bands (ev):

   -50.8618 -26.8171 -26.8160 -26.8160 -22.3665  -7.6922  -6.4816  -6.4816
    -6.0397  -5.4934  -3.8769   2.9961   3.5872   3.5872   3.6479   3.8677
     3.8966   3.8966   5.5851   5.7072   6.0340   6.0340   6.4992   6.6106

     occupation numbers 
     1.0000   1.0000   1.0000   1.0000   1.0000   1.0000   1.0000   1.0000
     1.0000   1.0000   1.0000   1.0000   1.0000   1.0000   1.0000   1.0000
     1.0000   1.0000   0.9976   0.6085   0.0000   0.0000   0.0000   0.0000

          k = 0.0000 0.1250 0.1250 ( 10295 PWs)   bands (ev):

   -50.8618 -26.8162 -26.8162 -26.8160 -22.3706  -6.9441  -6.8125  -6.4905
    -5.9678  -5.3073  -5.1355   3.2405   3.5695   3.6538   4.0941   4.3809
     4.6154   5.4732   5.5917   5.6535   5.6837   5.8252   5.9703   6.0009

     occupation numbers 
     1.0000   1.0000   1.0000   1.0000   1.0000   1.0000   1.0000   1.0000
     1.0000   1.0000   1.0000   1.0000   1.0000   1.0000   1.0000   1.0000
     1.0000   1.0000   0.9963   0.9181   0.7779   0.0148   0.0000   0.0000

          k = 0.0000 0.1250 0.2500 ( 10307 PWs)   bands (ev):

   -50.8618 -26.8165 -26.8162 -26.8160 -22.3686  -7.3165  -6.8592  -6.4860
    -5.8908  -5.2355  -4.6010   2.9658   3.5557   3.6623   3.7569   4.1270
     4.4844   4.9860   5.5801   5.7072   5.8281   5.9287   6.0779   6.1505

     occupation numbers 
     1.0000   1.0000   1.0000   1.0000   1.0000   1.0000   1.0000   1.0000
     1.0000   1.0000   1.0000   1.0000   1.0000   1.0000   1.0000   1.0000
     1.0000   1.0000   0.9982   0.6084   0.0126   0.0000   0.0000   0.0000

          k = 0.0000 0.1250 0.3750 ( 10300 PWs)   bands (ev):

   -50.8618 -26.8169 -26.8161 -26.8160 -22.3665  -7.5924  -6.8541  -6.4816
    -5.8621  -5.2212  -4.0820   2.7911   3.5331   3.5597   3.6279   3.9123
     4.1620   4.4526   5.6939   5.7250   5.7791   6.0076   6.2375   6.4612

     occupation numbers 
     1.0000   1.0000   1.0000   1.0000   1.0000   1.0000   1.0000   1.0000
     1.0000   1.0000   1.0000   1.0000   1.0000   1.0000   1.0000   1.0000
     1.0000   1.0000   0.7098   0.4621   0.1117   0.0000   0.0000   0.0000

          k = 0.0000 0.1250-0.5000 ( 10296 PWs)   bands (ev):

   -50.8618 -26.8171 -26.8161 -26.8160 -22.3657  -7.6878  -6.8512  -6.4797
    -5.8530  -5.2165  -3.8729   2.7499   3.4956   3.5605   3.5745   3.8195
     3.8853   4.3687   5.7314   5.7523   5.7531   5.9802   6.4448   6.4488

     occupation numbers 
     1.0000   1.0000   1.0000   1.0000   1.0000   1.0000   1.0000   1.0000
     1.0000   1.0000   1.0000   1.0000   1.0000   1.0000   1.0000   1.0000
     1.0000   1.0000   0.4098   0.2544   0.2486   0.0000   0.0000   0.0000

          k = 0.0000 0.2500 0.2500 ( 10339 PWs)   bands (ev):

   -50.8618 -26.8165 -26.8165 -26.8160 -22.3665  -7.3416  -7.2556  -6.4815
    -5.8195  -4.7020  -4.5208   2.6303   3.5334   3.5350   3.7458   3.9259
     4.6875   4.7300   5.3585   5.6591   5.9714   5.9822   5.9872   6.2175

     occupation numbers 
     1.0000   1.0000   1.0000   1.0000   1.0000   1.0000   1.0000   1.0000
     1.0000   1.0000   1.0000   1.0000   1.0000   1.0000   1.0000   1.0000
     1.0000   1.0000   1.0000   0.8988   0.0000   0.0000   0.0000   0.0000

          k = 0.0000 0.2500 0.3750 ( 10297 PWs)   bands (ev):

   -50.8618 -26.8169 -26.8165 -26.8159 -22.3645  -7.5822  -7.2861  -6.4769
    -5.7965  -4.6118  -4.0713   2.3856   3.4469   3.5296   3.7224   3.7481
     4.1555   4.8075   5.1714   5.7609   5.8935   6.0583   6.1402   6.3366

     occupation numbers 
     1.0000   1.0000   1.0000   1.0000   1.0000   1.0000   1.0000   1.0000
     1.0000   1.0000   1.0000   1.0000   1.0000   1.0000   1.0000   1.0000
     1.0000   1.0000   1.0000   0.2006   0.0002   0.0000   0.0000   0.0000

          k = 0.0000 0.2500-0.5000 ( 10304 PWs)   bands (ev):

   -50.8618 -26.8170 -26.8165 -26.8159 -22.3637  -7.6771  -7.2836  -6.4750
    -5.7896  -4.6036  -3.8629   2.3027   3.4981   3.5428   3.5975   3.6660
     3.9096   4.8568   5.1113   5.8589   5.8607   6.0687   6.1530   6.3455

     occupation numbers 
     1.0000   1.0000   1.0000   1.0000   1.0000   1.0000   1.0000   1.0000
     1.0000   1.0000   1.0000   1.0000   1.0000   1.0000   1.0000   1.0000
     1.0000   1.0000   1.0000   0.0020   0.0018   0.0000   0.0000   0.0000

          k = 0.0000 0.3750 0.3750 ( 10293 PWs)   bands (ev):

   -50.8618 -26.8168 -26.8168 -26.8159 -22.3625  -7.5823  -7.5571  -6.4723
    -5.7780  -4.1029  -4.0344   2.0850   3.4178   3.5059   3.6073   3.8028
     4.0033   4.6316   5.0688   5.7535   5.7931   6.0964   6.3277   6.3606

     occupation numbers 
     1.0000   1.0000   1.0000   1.0000   1.0000   1.0000   1.0000   1.0000
     1.0000   1.0000   1.0000   1.0000   1.0000   1.0000   1.0000   1.0000
     1.0000   1.0000   1.0000   0.2460   0.0656   0.0000   0.0000   0.0000

          k = 0.0000 0.3750-0.5000 ( 10322 PWs)   bands (ev):

   -50.8618 -26.8170 -26.8168 -26.8159 -22.3617  -7.6664  -7.5653  -6.4703
    -5.7729  -4.0651  -3.8527   1.9790   3.4153   3.5094   3.5412   3.7756
     3.8965   4.5504   5.1043   5.7551   5.8273   5.9248   6.4086   6.4103

     occupation numbers 
     1.0000   1.0000   1.0000   1.0000   1.0000   1.0000   1.0000   1.0000
     1.0000   1.0000   1.0000   1.0000   1.0000   1.0000   1.0000   1.0000
     1.0000   1.0000   1.0000   0.2360   0.0132   0.0000   0.0000   0.0000

          k = 0.0000-0.5000-0.5000 ( 10280 PWs)   bands (ev):

   -50.8618 -26.8170 -26.8170 -26.8159 -22.3608  -7.6619  -7.6619  -6.4684
    -5.7685  -3.8484  -3.8484   1.8646   3.3601   3.4952   3.4952   3.8659
     3.8659   4.3658   5.1698   5.7150   5.7532   5.8424   6.4915   6.5566

     occupation numbers 
     1.0000   1.0000   1.0000   1.0000   1.0000   1.0000   1.0000   1.0000
     1.0000   1.0000   1.0000   1.0000   1.0000   1.0000   1.0000   1.0000
     1.0000   1.0000   1.0000   0.5450   0.2479   0.0056   0.0000   0.0000

          k = 0.1250 0.1250 0.1250 ( 10317 PWs)   bands (ev):

   -50.8618 -26.8162 -26.8162 -26.8162 -22.3698  -6.9809  -6.8101  -6.8101
    -5.6874  -5.1323  -5.1323   3.0848   3.6134   3.6134   4.0664   4.0664
     4.8278   5.4468   5.5055   5.5055   5.7604   5.9349   5.9349   6.0989

     occupation numbers 
     1.0000   1.0000   1.0000   1.0000   1.0000   1.0000   1.0000   1.0000
     1.0000   1.0000   1.0000   1.0000   1.0000   1.0000   1.0000   1.0000
     1.0000   1.0000   1.0000   1.0000   0.2030   0.0000   0.0000   0.0000

          k = 0.1250 0.1250 0.2500 ( 10330 PWs)   bands (ev):

   -50.8618 -26.8165 -26.8161 -26.8161 -22.3677  -7.3142  -6.8965  -6.8043
    -5.5512  -5.1246  -4.5942   2.8435   3.4481   3.5701   3.8308   4.0379
     4.7184   4.9291   5.5621   5.7338   5.7871   5.7997   5.8869   6.2047

     occupation numbers 
     1.0000   1.0000   1.0000   1.0000   1.0000   1.0000   1.0000   1.0000
     1.0000   1.0000   1.0000   1.0000   1.0000   1.0000   1.0000   1.0000
     1.0000   1.0000   0.9995   0.3906   0.0829   0.0498   0.0003   0.0000

          k = 0.1250 0.1250 0.3750 ( 10294 PWs)   bands (ev):

   -50.8618 -26.8169 -26.8161 -26.8161 -22.3657  -7.5884  -6.8932  -6.7985
    -5.5143  -5.1169  -4.0784   2.6938   3.2437   3.4526   3.7673   3.9848
     4.3249   4.5318   5.6463   5.6522   5.8204   5.8984   6.1866   6.3042

     occupation numbers 
     1.0000   1.0000   1.0000   1.0000   1.0000   1.0000   1.0000   1.0000
     1.0000   1.0000   1.0000   1.0000   1.0000   1.0000   1.0000   1.0000
     1.0000   1.0000   0.9384   0.9222   0.0189   0.0001   0.0000   0.0000

          k = 0.1250 0.1250-0.5000 ( 10282 PWs)   bands (ev):

   -50.8618 -26.8170 -26.8161 -26.8161 -22.3648  -7.6837  -6.8903  -6.7961
    -5.5043  -5.1136  -3.8693   2.6631   3.1628   3.3757   3.7566   3.8654
     4.1728   4.4562   5.6149   5.6824   5.8018   5.9542   6.3579   6.3930

     occupation numbers 
     1.0000   1.0000   1.0000   1.0000   1.0000   1.0000   1.0000   1.0000
     1.0000   1.0000   1.0000   1.0000   1.0000   1.0000   1.0000   1.0000
     1.0000   1.0000   0.9859   0.7858   0.0454   0.0000   0.0000   0.0000

          k = 0.1250 0.2500 0.2500 ( 10327 PWs)   bands (ev):

   -50.8618 -26.8165 -26.8165 -26.8161 -22.3657  -7.3396  -7.2530  -6.8386
    -5.3848  -4.6829  -4.5187   2.5940   3.2408   3.4329   3.8592   4.0728
     4.6676   4.8811   5.3480   5.6363   5.7638   5.7909   5.8688   6.3977

     occupation numbers 
     1.0000   1.0000   1.0000   1.0000   1.0000   1.0000   1.0000   1.0000
     1.0000   1.0000   1.0000   1.0000   1.0000   1.0000   1.0000   1.0000
     1.0000   1.0000   1.0000   0.9600   0.1836   0.0716   0.0010   0.0000

          k = 0.1250 0.2500 0.3750 ( 10301 PWs)   bands (ev):

   -50.8618 -26.8169 -26.8165 -26.8161 -22.3637  -7.5788  -7.2844  -6.8340
    -5.3529  -4.6031  -4.0688   2.3958   3.1007   3.3011   3.8313   4.0496
     4.2660   4.8800   5.1466   5.6549   5.7369   5.9561   6.1282   6.3445

     occupation numbers 
     1.0000   1.0000   1.0000   1.0000   1.0000   1.0000   1.0000   1.0000
     1.0000   1.0000   1.0000   1.0000   1.0000   1.0000   1.0000   1.0000
     1.0000   1.0000   1.0000   0.9135   0.3662   0.0000   0.0000   0.0000

          k = 0.1250 0.2500-0.5000 ( 10294 PWs)   bands (ev):

   -50.8618 -26.8170 -26.8165 -26.8161 -22.3628  -7.6736  -7.2821  -6.8317
    -5.3452  -4.5961  -3.8604   2.3287   3.0788   3.2128   3.7412   3.9699
     4.2084   4.8909   5.0667   5.6412   5.7678   6.1226   6.1872   6.3218

     occupation numbers 
     1.0000   1.0000   1.0000   1.0000   1.0000   1.0000   1.0000   1.0000
     1.0000   1.0000   1.0000   1.0000   1.0000   1.0000   1.0000   1.0000
     1.0000   1.0000   1.0000   0.9503   0.1629   0.0000   0.0000   0.0000

          k = 0.1250 0.3750 0.3750 ( 10311 PWs)   bands (ev):

   -50.8618 -26.8168 -26.8168 -26.8161 -22.3617  -7.5793  -7.5545  -6.8302
    -5.3268  -4.1008  -4.0333   2.1294   3.0651   3.2070   3.6730   4.1668
     4.1752   4.6935   5.1133   5.5387   5.7698   6.0217   6.1699   6.3904

     occupation numbers 
     1.0000   1.0000   1.0000   1.0000   1.0000   1.0000   1.0000   1.0000
     1.0000   1.0000   1.0000   1.0000   1.0000   1.0000   1.0000   1.0000
     1.0000   1.0000   1.0000   0.9999   0.1525   0.0000   0.0000   0.0000

          k = 0.1250 0.3750-0.5000 ( 10288 PWs)   bands (ev):

   -50.8618 -26.8170 -26.8168 -26.8160 -22.3608  -7.6636  -7.5628  -6.8282
    -5.3210  -4.0640  -3.8514   2.0324   3.1104   3.1232   3.5212   4.1468
     4.2400   4.5771   5.1483   5.5009   5.8210   5.9218   6.2642   6.4777

     occupation numbers 
     1.0000   1.0000   1.0000   1.0000   1.0000   1.0000   1.0000   1.0000
     1.0000   1.0000   1.0000   1.0000   1.0000   1.0000   1.0000   1.0000
     1.0000   1.0000   1.0000   1.0000   0.0183   0.0000   0.0000   0.0000

          k = 0.1250-0.5000-0.5000 ( 10296 PWs)   bands (ev):

   -50.8618 -26.8170 -26.8170 -26.8160 -22.3600  -7.6594  -7.6594  -6.8264
    -5.3158  -3.8476  -3.8476   1.9248   3.1246   3.1246   3.3472   4.2765
     4.2765   4.3695   5.2122   5.4308   5.7625   5.8536   6.4308   6.5003

     occupation numbers 
     1.0000   1.0000   1.0000   1.0000   1.0000   1.0000   1.0000   1.0000
     1.0000   1.0000   1.0000   1.0000   1.0000   1.0000   1.0000   1.0000
     1.0000   1.0000   1.0000   1.0000   0.1914   0.0028   0.0000   0.0000

          k = 0.2500 0.2500 0.2500 ( 10267 PWs)   bands (ev):

   -50.8618 -26.8165 -26.8165 -26.8165 -22.3637  -7.3566  -7.2467  -7.2467
    -4.8745  -4.5137  -4.5137   2.4814   3.0614   3.0614   4.1466   4.1466
     4.3998   5.1732   5.3226   5.3226   5.6609   5.6609   5.7893   6.5509

     occupation numbers 
     1.0000   1.0000   1.0000   1.0000   1.0000   1.0000   1.0000   1.0000
     1.0000   1.0000   1.0000   1.0000   1.0000   1.0000   1.0000   1.0000
     1.0000   1.0000   1.0000   1.0000   0.8921   0.8921   0.0763   0.0000

          k = 0.2500 0.2500 0.3750 ( 10284 PWs)   bands (ev):

   -50.8618 -26.8168 -26.8164 -26.8164 -22.3617  -7.5708  -7.3064  -7.2403
    -4.7686  -4.5087  -4.0621   2.3667   2.8065   2.9776   3.9080   4.1879
     4.4318   5.0239   5.1358   5.3014   5.6903   5.8796   5.9258   6.4948

     occupation numbers 
     1.0000   1.0000   1.0000   1.0000   1.0000   1.0000   1.0000   1.0000
     1.0000   1.0000   1.0000   1.0000   1.0000   1.0000   1.0000   1.0000
     1.0000   1.0000   1.0000   1.0000   0.7346   0.0005   0.0000   0.0000

          k = 0.2500 0.2500-0.5000 ( 10278 PWs)   bands (ev):

   -50.8618 -26.8170 -26.8164 -26.8164 -22.3608  -7.6652  -7.3053  -7.2377
    -4.7547  -4.5066  -3.8544   2.3298   2.7169   2.9404   3.6873   4.2059
     4.5987   4.8443   5.0748   5.2946   5.7137   6.0102   6.1640   6.3936

     occupation numbers 
     1.0000   1.0000   1.0000   1.0000   1.0000   1.0000   1.0000   1.0000
     1.0000   1.0000   1.0000   1.0000   1.0000   1.0000   1.0000   1.0000
     1.0000   1.0000   1.0000   1.0000   0.5564   0.0000   0.0000   0.0000

          k = 0.2500 0.3750 0.3750 ( 10310 PWs)   bands (ev):

   -50.8618 -26.8168 -26.8168 -26.8164 -22.3597  -7.5725  -7.5483  -7.2656
    -4.6509  -4.0936  -4.0306   2.2363   2.7143   2.8023   3.6252   4.4033
     4.4511   4.8891   5.1309   5.2918   5.7536   5.8640   5.9244   6.4111

     occupation numbers 
     1.0000   1.0000   1.0000   1.0000   1.0000   1.0000   1.0000   1.0000
     1.0000   1.0000   1.0000   1.0000   1.0000   1.0000   1.0000   1.0000
     1.0000   1.0000   1.0000   1.0000   0.2455   0.0014   0.0000   0.0000

          k = 0.2500 0.3750-0.5000 ( 10272 PWs)   bands (ev):

   -50.8618 -26.8169 -26.8168 -26.8164 -22.3588  -7.6567  -7.5569  -7.2639
    -4.6412  -4.0605  -3.8484   2.1689   2.6859   2.7662   3.4425   4.3972
     4.6422   4.7491   5.0925   5.2923   5.7904   5.8563   6.0902   6.3538

     occupation numbers 
     1.0000   1.0000   1.0000   1.0000   1.0000   1.0000   1.0000   1.0000
     1.0000   1.0000   1.0000   1.0000   1.0000   1.0000   1.0000   1.0000
     1.0000   1.0000   1.0000   1.0000   0.0731   0.0024   0.0000   0.0000

          k = 0.2500-0.5000-0.5000 ( 10276 PWs)   bands (ev):

   -50.8617 -26.8169 -26.8169 -26.8164 -22.3580  -7.6531  -7.6531  -7.2625
    -4.6327  -3.8459  -3.8459   2.0833   2.7147   2.7147   3.2753   4.3784
     4.8075   4.8075   4.9020   5.3356   5.7820   5.7872   6.2638   6.3325

     occupation numbers 
     1.0000   1.0000   1.0000   1.0000   1.0000   1.0000   1.0000   1.0000
     1.0000   1.0000   1.0000   1.0000   1.0000   1.0000   1.0000   1.0000
     1.0000   1.0000   1.0000   1.0000   0.1006   0.0826   0.0000   0.0000

          k = 0.3750 0.3750 0.3750 ( 10249 PWs)   bands (ev):

   -50.8617 -26.8168 -26.8167 -26.8167 -22.3576  -7.5729  -7.5419  -7.5419
    -4.1538  -4.0278  -4.0278   2.3065   2.5354   2.5354   3.3923   4.4809
     4.4809   5.0690   5.0690   5.5710   5.7461   5.7461   5.7499   6.3654

     occupation numbers 
     1.0000   1.0000   1.0000   1.0000   1.0000   1.0000   1.0000   1.0000
     1.0000   1.0000   1.0000   1.0000   1.0000   1.0000   1.0000   1.0000
     1.0000   1.0000   1.0000   0.9991   0.2973   0.2973   0.2702   0.0000

          k = 0.3750 0.3750-0.5000 ( 10242 PWs)   bands (ev):

   -50.8617 -26.8169 -26.8167 -26.8167 -22.3568  -7.6498  -7.5595  -7.5393
    -4.1115  -4.0267  -3.8454   2.2916   2.4426   2.5262   3.2373   4.4562
     4.5014   5.1154   5.1611   5.5204   5.7423   5.7632   5.9470   6.1623

     occupation numbers 
     1.0000   1.0000   1.0000   1.0000   1.0000   1.0000   1.0000   1.0000
     1.0000   1.0000   1.0000   1.0000   1.0000   1.0000   1.0000   1.0000
     1.0000   1.0000   1.0000   1.0000   0.3254   0.1873   0.0000   0.0000

          k = 0.3750-0.5000-0.5000 ( 10256 PWs)   bands (ev):

   -50.8617 -26.8169 -26.8169 -26.8167 -22.3560  -7.6469  -7.6469  -7.5468
    -4.0690  -3.8441  -3.8441   2.2657   2.4445   2.4445   3.0989   4.3874
     4.5077   5.2899   5.2899   5.5282   5.7033   5.7903   6.0286   6.0645

     occupation numbers 
     1.0000   1.0000   1.0000   1.0000   1.0000   1.0000   1.0000   1.0000
     1.0000   1.0000   1.0000   1.0000   1.0000   1.0000   1.0000   1.0000
     1.0000   1.0000   1.0000   1.0000   0.6397   0.0734   0.0000   0.0000

          k =-0.5000-0.5000-0.5000 ( 10144 PWs)   bands (ev):

   -50.8617 -26.8169 -26.8169 -26.8169 -22.3551  -7.6443  -7.6443  -7.6443
    -3.8433  -3.8433  -3.8433   2.3508   2.3508   2.3508   2.9795   4.3911
     4.3911   5.6661   5.6661   5.6661   5.7564   5.7564   5.7564   5.7830

     occupation numbers 
     1.0000   1.0000   1.0000   1.0000   1.0000   1.0000   1.0000   1.0000
     1.0000   1.0000   1.0000   1.0000   1.0000   1.0000   1.0000   1.0000
     1.0000   0.8707   0.8707   0.8707   0.2279   0.2279   0.2279   0.0969

     the Fermi energy is     5.7205 ev

!    total energy              =    -591.31491906 Ry
     estimated scf accuracy    <          1.3E-13 Ry
     smearing contrib. (-TS)   =      -0.00296597 Ry
     internal energy E=F+TS    =    -591.31195309 Ry

     The total energy is F=E-TS. E is the sum of the following terms:
     one-electron contribution =     -64.78923963 Ry
     hartree contribution      =      47.42113997 Ry
     xc contribution           =     -44.54600980 Ry
     ewald contribution        =    -172.23614436 Ry
     one-center paw contrib.   =    -357.16169927 Ry
      -> PAW hartree energy AE =       0.00000000 Ry
      -> PAW hartree energy PS =       0.00000000 Ry
      -> PAW xc energy AE      =       0.00000000 Ry
      -> PAW xc energy PS      =       0.00000000 Ry
      -> total E_H with PAW    =      47.42113997 Ry
      -> total E_XC with PAW   =     -44.54600980 Ry

     convergence has been achieved in  41 iterations

     Writing all to output data dir ./tmp/knbs3.save/ :
     XML data file, charge density, pseudopotentials, collected wavefunctions

     init_run     :      9.73s CPU      9.24s WALL (       1 calls)
     electrons    :    868.76s CPU    852.79s WALL (       1 calls)

     Called by init_run:
     wfcinit      :      6.12s CPU      5.56s WALL (       1 calls)
     wfcinit:atom :      0.07s CPU      0.04s WALL (       9 calls)
     wfcinit:wfcr :      5.53s CPU      5.21s WALL (       9 calls)
     potinit      :      0.73s CPU      0.79s WALL (       1 calls)
     hinit0       :      1.29s CPU      1.31s WALL (       1 calls)

     Called by electrons:
     c_bands      :    659.56s CPU    646.50s WALL (      41 calls)
     sum_band     :    136.53s CPU    125.42s WALL (      41 calls)
     v_of_rho     :     11.43s CPU     12.67s WALL (      42 calls)
     v_h          :      0.74s CPU      0.96s WALL (      42 calls)
     v_xc         :     10.69s CPU     11.71s WALL (      42 calls)
     newd         :     50.72s CPU     58.08s WALL (      42 calls)
     PAW_pot      :      8.00s CPU      8.00s WALL (      42 calls)
     mix_rho      :      1.14s CPU      1.17s WALL (      41 calls)

     Called by c_bands:
     init_us_2    :      9.42s CPU      7.59s WALL (     747 calls)
     cegterg      :    499.52s CPU    485.02s WALL (     369 calls)

     Called by sum_band:
     sum_band:wei :      0.25s CPU      0.25s WALL (      41 calls)
     sum_band:loo :     72.92s CPU     62.98s WALL (      41 calls)
     sum_band:buf :      0.38s CPU      0.27s WALL (     369 calls)
     sum_band:ini :      4.62s CPU      3.33s WALL (     369 calls)
     sum_band:cal :     19.24s CPU     18.70s WALL (     369 calls)
     sum_band:bec :      0.04s CPU      0.03s WALL (     369 calls)
     addusdens    :     52.73s CPU     53.61s WALL (      41 calls)
                                        0.00s GPU  (      41 calls)
     addusd:skk   :      0.06s CPU      0.24s WALL (     123 calls)
                                        0.00s GPU  (     123 calls)

     Called by *egterg:
     cdiaghg      :     40.77s CPU     46.56s WALL (    1376 calls)
     cegterg:over :     64.18s CPU     52.08s WALL (    1007 calls)
     cegterg:upda :     13.67s CPU     13.31s WALL (    1007 calls)
     cegterg:last :     13.08s CPU     11.16s WALL (     610 calls)
     h_psi        :    281.20s CPU    294.31s WALL (    1385 calls)
     s_psi        :     17.25s CPU     12.57s WALL (    1385 calls)
     g_psi        :      1.19s CPU      0.68s WALL (    1007 calls)

     Called by h_psi:
     h_psi:calbec :     66.44s CPU     76.18s WALL (    1385 calls)
     vloc_psi     :    185.67s CPU    189.99s WALL (    1385 calls)
     add_vuspsi   :     28.28s CPU     27.58s WALL (    1385 calls)

     General routines
     calbec       :     85.65s CPU     94.86s WALL (    1754 calls)
     fft          :      7.37s CPU      8.06s WALL (     544 calls)
     ffts         :      0.54s CPU      0.46s WALL (      83 calls)
     fftw         :    197.26s CPU    195.16s WALL (   50392 calls)
     interpolate  :      1.04s CPU      1.09s WALL (      42 calls)

     Parallel routines

     PAW routines
     PAW_pot      :      8.00s CPU      8.00s WALL (      42 calls)
     PAW_symme    :      0.14s CPU      0.11s WALL (      83 calls)

     PWSCF        :  14m39.04s CPU  14m22.65s WALL


   This run was terminated on:   8:42:41  30Apr2025            

=------------------------------------------------------------------------------=
   JOB DONE.
=------------------------------------------------------------------------------=
