
     Program PWSCF v.7.3.1 starts on 14May2025 at  8:58:40 

     This program is part of the open-source Quantum ESPRESSO suite
     for quantum simulation of materials; please cite
         "P. Giannozzi et al., J. Phys.:Condens. Matter 21 395502 (2009);
         "P. Giannozzi et al., J. Phys.:Condens. Matter 29 465901 (2017);
         "P. Giannozzi et al., J. Chem. Phys. 152 154105 (2020);
          URL http://www.quantum-espresso.org", 
     in publications or presentations arising from this work. More details at
     http://www.quantum-espresso.org/quote

     Parallel version (MPI), running on     8 processors

     MPI processes distributed on     1 nodes
     59109 MiB available memory on the printing compute node when the environment starts

     Waiting for input...
     Reading input from standard input

     Current dimensions of program PWSCF are:
     Max number of different atomic species (ntypx) = 10
     Max number of k-points (npk) = 120000
     Max angular momentum in pseudopotentials (lmaxx) =  4
     file Cs.pbe-spn-rrkjus_psl.1.0.0.UPF: wavefunction(s)  5S 6S renormalized
     file Hg.pbe-n-rrkjus_psl.1.0.0.UPF: wavefunction(s)  6S renormalized
     file I.pbe-n-kjpaw_psl.1.0.0.UPF: wavefunction(s)  5S renormalized

     IMPORTANT: XC functional enforced from input :
     Exchange-correlation= PBE
                           (   1   4   3   4   0   0   0)
     Any further DFT definition will be discarded
     Please, verify this is what you really want

     Message from routine setup:
     using ibrav=0 with symmetry is DISCOURAGED, use correct ibrav instead

     K-points division:     npool     =       4
     R & G space division:  proc/nbgrp/npool/nimage =       2
     Subspace diagonalization in iterative solution of the eigenvalue problem:
     a serial algorithm will be used


     Parallelization info
     --------------------
     sticks:   dense  smooth     PW     G-vecs:    dense   smooth      PW
     Min        3580    1788    494               228147    80713   11791
     Max        3581    1789    495               228148    80714   11792
     Sum        7161    3577    989               456295   161427   23583

     Using Slab Decomposition



     bravais-lattice index     =            0
     lattice parameter (alat)  =      10.6097  a.u.
     unit-cell volume          =    1194.2991 (a.u.)^3
     number of atoms/cell      =            5
     number of atomic types    =            3
     number of electrons       =        42.00
     number of Kohn-Sham states=           25
     kinetic-energy cutoff     =     100.0000  Ry
     charge density cutoff     =     800.0000  Ry
     scf convergence threshold =      1.0E-12
     mixing beta               =       0.3000
     number of iterations used =            8  plain     mixing
     energy convergence thresh.=      1.0E-07
     force convergence thresh. =      1.0E-05
     press convergence thresh. =      1.0E-01
     Exchange-correlation= PBE
                           (   1   4   3   4   0   0   0)
     nstep                     =           50


     celldm(1)=  10.609731  celldm(2)=   0.000000  celldm(3)=   0.000000
     celldm(4)=   0.000000  celldm(5)=   0.000000  celldm(6)=   0.000000

     crystal axes: (cart. coord. in units of alat)
               a(1) = (   1.000000   0.000000   0.000000 )  
               a(2) = (   0.000000   1.000000   0.000000 )  
               a(3) = (   0.000000   0.000000   1.000000 )  

     reciprocal axes: (cart. coord. in units 2 pi/alat)
               b(1) = (  1.000000  0.000000  0.000000 )  
               b(2) = (  0.000000  1.000000  0.000000 )  
               b(3) = (  0.000000  0.000000  1.000000 )  


     PseudoPot. # 1 for Cs read from file:
     /home/administrator/Downloads/BURAI/BURAI1.3/pseudopot/Cs.pbe-spn-rrkjus_psl.1.0.0.UPF
     MD5 check sum: 0e4a2db85f86c9a13762b1b689b65a6d
     Pseudo is Ultrasoft + core correction, Zval =  9.0
     Generated using "atomic" code by A. Dal Corso  v.5.1.2
     Using radial grid of 1251 points,  9 beta functions with: 
                l(1) =   0
                l(2) =   0
                l(3) =   0
                l(4) =   1
                l(5) =   1
                l(6) =   2
                l(7) =   2
                l(8) =   3
                l(9) =   3
     Q(r) pseudized with 0 coefficients 


     PseudoPot. # 2 for Hg read from file:
     /home/administrator/Downloads/BURAI/BURAI1.3/pseudopot/Hg.pbe-n-rrkjus_psl.1.0.0.UPF
     MD5 check sum: f04d2c262d1abdd3305243a1878853ce
     Pseudo is Ultrasoft + core correction, Zval = 12.0
     Generated using "atomic" code by A. Dal Corso  v.5.1.2
     Using radial grid of 1279 points,  6 beta functions with: 
                l(1) =   0
                l(2) =   0
                l(3) =   1
                l(4) =   1
                l(5) =   2
                l(6) =   2
     Q(r) pseudized with 0 coefficients 


     PseudoPot. # 3 for I  read from file:
     /home/administrator/Downloads/BURAI/BURAI1.3/pseudopot/I.pbe-n-kjpaw_psl.1.0.0.UPF
     MD5 check sum: e1b2a55c91904a364f23c37cb15bc296
     Pseudo is Projector augmented-wave + core cor, Zval =  7.0
     Generated using "atomic" code by A. Dal Corso  v.5.1.2
     Shape of augmentation charge: PSQ
     Using radial grid of 1247 points,  6 beta functions with: 
                l(1) =   0
                l(2) =   0
                l(3) =   1
                l(4) =   1
                l(5) =   2
                l(6) =   2
     Q(r) pseudized with 0 coefficients 


     atomic species   valence    mass     pseudopotential
     Cs                9.00   132.90550     Cs( 1.00)
     Hg               12.00   200.59200     Hg( 1.00)
     I                 7.00   126.90450     I ( 1.00)

     48 Sym. Ops., with inversion, found



   Cartesian axes

     site n.     atom                  positions (alat units)
         1        Cs     tau(   1) = (   0.0000000   0.0000000   0.0000000  )
         2        Hg     tau(   2) = (   0.5000000   0.5000000   0.5000000  )
         3        I      tau(   3) = (   0.5000000   0.5000000   0.0000000  )
         4        I      tau(   4) = (   0.5000000   0.0000000   0.5000000  )
         5        I      tau(   5) = (   0.0000000   0.5000000   0.5000000  )

     number of k points=    35  Gaussian smearing, width (Ry)=  0.0050
                       cart. coord. in units 2pi/alat
        k(    1) = (   0.0000000   0.0000000   0.0000000), wk =   0.0039062
        k(    2) = (   0.0000000   0.0000000   0.1250000), wk =   0.0234375
        k(    3) = (   0.0000000   0.0000000   0.2500000), wk =   0.0234375
        k(    4) = (   0.0000000   0.0000000   0.3750000), wk =   0.0234375
        k(    5) = (   0.0000000   0.0000000  -0.5000000), wk =   0.0117188
        k(    6) = (   0.0000000   0.1250000   0.1250000), wk =   0.0468750
        k(    7) = (   0.0000000   0.1250000   0.2500000), wk =   0.0937500
        k(    8) = (   0.0000000   0.1250000   0.3750000), wk =   0.0937500
        k(    9) = (   0.0000000   0.1250000  -0.5000000), wk =   0.0468750
        k(   10) = (   0.0000000   0.2500000   0.2500000), wk =   0.0468750
        k(   11) = (   0.0000000   0.2500000   0.3750000), wk =   0.0937500
        k(   12) = (   0.0000000   0.2500000  -0.5000000), wk =   0.0468750
        k(   13) = (   0.0000000   0.3750000   0.3750000), wk =   0.0468750
        k(   14) = (   0.0000000   0.3750000  -0.5000000), wk =   0.0468750
        k(   15) = (   0.0000000  -0.5000000  -0.5000000), wk =   0.0117188
        k(   16) = (   0.1250000   0.1250000   0.1250000), wk =   0.0312500
        k(   17) = (   0.1250000   0.1250000   0.2500000), wk =   0.0937500
        k(   18) = (   0.1250000   0.1250000   0.3750000), wk =   0.0937500
        k(   19) = (   0.1250000   0.1250000  -0.5000000), wk =   0.0468750
        k(   20) = (   0.1250000   0.2500000   0.2500000), wk =   0.0937500
        k(   21) = (   0.1250000   0.2500000   0.3750000), wk =   0.1875000
        k(   22) = (   0.1250000   0.2500000  -0.5000000), wk =   0.0937500
        k(   23) = (   0.1250000   0.3750000   0.3750000), wk =   0.0937500
        k(   24) = (   0.1250000   0.3750000  -0.5000000), wk =   0.0937500
        k(   25) = (   0.1250000  -0.5000000  -0.5000000), wk =   0.0234375
        k(   26) = (   0.2500000   0.2500000   0.2500000), wk =   0.0312500
        k(   27) = (   0.2500000   0.2500000   0.3750000), wk =   0.0937500
        k(   28) = (   0.2500000   0.2500000  -0.5000000), wk =   0.0468750
        k(   29) = (   0.2500000   0.3750000   0.3750000), wk =   0.0937500
        k(   30) = (   0.2500000   0.3750000  -0.5000000), wk =   0.0937500
        k(   31) = (   0.2500000  -0.5000000  -0.5000000), wk =   0.0234375
        k(   32) = (   0.3750000   0.3750000   0.3750000), wk =   0.0312500
        k(   33) = (   0.3750000   0.3750000  -0.5000000), wk =   0.0468750
        k(   34) = (   0.3750000  -0.5000000  -0.5000000), wk =   0.0234375
        k(   35) = (  -0.5000000  -0.5000000  -0.5000000), wk =   0.0039062

     Dense  grid:   456295 G-vectors     FFT dimensions: (  96,  96,  96)

     Smooth grid:   161427 G-vectors     FFT dimensions: (  72,  72,  72)

     Estimated max dynamical RAM per process >     770.04 MB

     Estimated total dynamical RAM >       5.69 GB

     Initial potential from superposition of free atoms

     starting charge      41.9590, renormalised to      42.0000
     Starting wfcs are   26 randomized atomic wfcs
     Checking if some PAW data can be deallocated... 

     total cpu time spent up to now is       12.2 secs

     Self-consistent Calculation

     iteration #  1     ecut=   100.00 Ry     beta= 0.30
     Davidson diagonalization with overlap
     ethr =  1.00E-02,  avg # of iterations =  7.5

     Threshold (ethr) on eigenvalues was too large:
     Diagonalizing with lowered threshold

     Davidson diagonalization with overlap
     ethr =  3.76E-04,  avg # of iterations =  6.5

     total cpu time spent up to now is       52.3 secs

     total energy              =   -1291.00267691 Ry
     estimated scf accuracy    <       0.15256114 Ry

     iteration #  2     ecut=   100.00 Ry     beta= 0.30
     Davidson diagonalization with overlap
     ethr =  3.63E-04,  avg # of iterations =  2.3

     total cpu time spent up to now is       70.8 secs

     total energy              =   -1291.01109778 Ry
     estimated scf accuracy    <       0.02135706 Ry

     iteration #  3     ecut=   100.00 Ry     beta= 0.30
     Davidson diagonalization with overlap
     c_bands:  1 eigenvalues not converged
     ethr =  5.09E-05,  avg # of iterations = 11.0

     total cpu time spent up to now is      100.0 secs

     total energy              =   -1291.02287976 Ry
     estimated scf accuracy    <       0.00193234 Ry

     iteration #  4     ecut=   100.00 Ry     beta= 0.30
     Davidson diagonalization with overlap
     c_bands:  1 eigenvalues not converged
     c_bands:  1 eigenvalues not converged
     ethr =  4.60E-06,  avg # of iterations = 13.1

     total cpu time spent up to now is      133.1 secs

     total energy              =   -1291.02576080 Ry
     estimated scf accuracy    <       0.00030484 Ry

     iteration #  5     ecut=   100.00 Ry     beta= 0.30
     Davidson diagonalization with overlap
     ethr =  7.26E-07,  avg # of iterations =  9.5

     total cpu time spent up to now is      159.3 secs

     total energy              =   -1291.02595852 Ry
     estimated scf accuracy    <       0.00004904 Ry

     iteration #  6     ecut=   100.00 Ry     beta= 0.30
     Davidson diagonalization with overlap
     ethr =  1.17E-07,  avg # of iterations =  7.4

     total cpu time spent up to now is      184.3 secs

     total energy              =   -1291.02597695 Ry
     estimated scf accuracy    <       0.00005365 Ry

     iteration #  7     ecut=   100.00 Ry     beta= 0.30
     Davidson diagonalization with overlap
     ethr =  1.17E-07,  avg # of iterations =  2.2

     total cpu time spent up to now is      202.9 secs

     total energy              =   -1291.02599483 Ry
     estimated scf accuracy    <       0.00000122 Ry

     iteration #  8     ecut=   100.00 Ry     beta= 0.30
     Davidson diagonalization with overlap
     ethr =  2.90E-09,  avg # of iterations = 11.7

     total cpu time spent up to now is      241.0 secs

     total energy              =   -1291.02599889 Ry
     estimated scf accuracy    <       0.00000178 Ry

     iteration #  9     ecut=   100.00 Ry     beta= 0.30
     Davidson diagonalization with overlap
     ethr =  2.90E-09,  avg # of iterations =  1.7

     total cpu time spent up to now is      257.7 secs

     total energy              =   -1291.02599820 Ry
     estimated scf accuracy    <       0.00000166 Ry

     iteration # 10     ecut=   100.00 Ry     beta= 0.30
     Davidson diagonalization with overlap
     ethr =  2.90E-09,  avg # of iterations =  2.4

     total cpu time spent up to now is      276.2 secs

     total energy              =   -1291.02599871 Ry
     estimated scf accuracy    <       0.00000002 Ry

     iteration # 11     ecut=   100.00 Ry     beta= 0.30
     Davidson diagonalization with overlap
     c_bands:  1 eigenvalues not converged
     ethr =  4.51E-11,  avg # of iterations = 15.0

     total cpu time spent up to now is      325.5 secs

     total energy              =   -1291.02599893 Ry
     estimated scf accuracy    <       0.00000006 Ry

     iteration # 12     ecut=   100.00 Ry     beta= 0.30
     Davidson diagonalization with overlap
     ethr =  4.51E-11,  avg # of iterations =  2.6

     total cpu time spent up to now is      344.0 secs

     total energy              =   -1291.02599889 Ry
     estimated scf accuracy    <       0.00000012 Ry

     iteration # 13     ecut=   100.00 Ry     beta= 0.30
     Davidson diagonalization with overlap
     ethr =  4.51E-11,  avg # of iterations =  4.3

     total cpu time spent up to now is      365.4 secs

     total energy              =   -1291.02599893 Ry
     estimated scf accuracy    <          1.2E-09 Ry

     iteration # 14     ecut=   100.00 Ry     beta= 0.30
     Davidson diagonalization with overlap
     ethr =  2.77E-12,  avg # of iterations = 11.9

     total cpu time spent up to now is      398.1 secs

     total energy              =   -1291.02599894 Ry
     estimated scf accuracy    <          2.0E-09 Ry

     iteration # 15     ecut=   100.00 Ry     beta= 0.30
     Davidson diagonalization with overlap
     ethr =  2.77E-12,  avg # of iterations =  1.3

     total cpu time spent up to now is      414.2 secs

     total energy              =   -1291.02599895 Ry
     estimated scf accuracy    <          1.9E-09 Ry

     iteration # 16     ecut=   100.00 Ry     beta= 0.30
     Davidson diagonalization with overlap
     ethr =  2.77E-12,  avg # of iterations =  1.4

     total cpu time spent up to now is      430.7 secs

     total energy              =   -1291.02599895 Ry
     estimated scf accuracy    <          1.1E-09 Ry

     iteration # 17     ecut=   100.00 Ry     beta= 0.30
     Davidson diagonalization with overlap
     ethr =  2.55E-12,  avg # of iterations =  1.0

     total cpu time spent up to now is      446.7 secs

     total energy              =   -1291.02599895 Ry
     estimated scf accuracy    <          1.2E-09 Ry

     iteration # 18     ecut=   100.00 Ry     beta= 0.30
     Davidson diagonalization with overlap
     ethr =  2.55E-12,  avg # of iterations =  1.0

     total cpu time spent up to now is      462.8 secs

     total energy              =   -1291.02599895 Ry
     estimated scf accuracy    <          5.9E-10 Ry

     iteration # 19     ecut=   100.00 Ry     beta= 0.30
     Davidson diagonalization with overlap
     ethr =  1.40E-12,  avg # of iterations =  1.0

     total cpu time spent up to now is      478.8 secs

     total energy              =   -1291.02599895 Ry
     estimated scf accuracy    <          7.5E-10 Ry

     iteration # 20     ecut=   100.00 Ry     beta= 0.30
     Davidson diagonalization with overlap
     ethr =  1.40E-12,  avg # of iterations =  2.1

     total cpu time spent up to now is      496.4 secs

     total energy              =   -1291.02599895 Ry
     estimated scf accuracy    <          1.1E-10 Ry

     iteration # 21     ecut=   100.00 Ry     beta= 0.30
     Davidson diagonalization with overlap
     ethr =  2.63E-13,  avg # of iterations =  7.3

     total cpu time spent up to now is      520.7 secs

     total energy              =   -1291.02599895 Ry
     estimated scf accuracy    <          2.5E-11 Ry

     iteration # 22     ecut=   100.00 Ry     beta= 0.30
     Davidson diagonalization with overlap
     ethr =  1.00E-13,  avg # of iterations =  1.9

     total cpu time spent up to now is      537.8 secs

     total energy              =   -1291.02599895 Ry
     estimated scf accuracy    <          2.6E-11 Ry

     iteration # 23     ecut=   100.00 Ry     beta= 0.30
     Davidson diagonalization with overlap
     ethr =  1.00E-13,  avg # of iterations =  1.0

     total cpu time spent up to now is      554.1 secs

     total energy              =   -1291.02599895 Ry
     estimated scf accuracy    <          1.8E-11 Ry

     iteration # 24     ecut=   100.00 Ry     beta= 0.30
     Davidson diagonalization with overlap
     ethr =  1.00E-13,  avg # of iterations =  1.1

     total cpu time spent up to now is      570.6 secs

     total energy              =   -1291.02599895 Ry
     estimated scf accuracy    <          6.1E-12 Ry

     iteration # 25     ecut=   100.00 Ry     beta= 0.30
     Davidson diagonalization with overlap
     ethr =  1.00E-13,  avg # of iterations =  2.0

     total cpu time spent up to now is      587.8 secs

     End of self-consistent calculation

          k = 0.0000 0.0000 0.0000 ( 20197 PWs)   bands (ev):

   -14.8892  -7.1606  -6.1953  -6.1953  -1.7987  -1.7987  -1.7987  -0.8759
    -0.8759  -0.8759  -0.4148  -0.4148   1.9083   1.9083   1.9083   3.9926
     4.4396   4.4396   4.4396   4.9887   4.9887   4.9887   9.7925   9.8002
     9.8002

          k = 0.0000 0.0000 0.1250 ( 20138 PWs)   bands (ev):

   -14.8888  -7.1285  -6.2047  -6.1939  -1.7949  -1.7949  -1.7878  -0.8838
    -0.8838  -0.8758  -0.6405  -0.4143   1.9231   1.9304   1.9304   4.0060
     4.3803   4.4169   4.4169   4.9453   4.9453   5.2896   9.9320  10.0118
    10.0451

          k = 0.0000 0.0000 0.2500 ( 20162 PWs)   bands (ev):

   -14.8876  -7.0462  -6.2291  -6.1904  -1.7858  -1.7858  -1.7635  -1.1064
    -0.9021  -0.9021  -0.8754  -0.4133   1.9726   1.9831   1.9831   3.8380
     4.2465   4.3740   4.3740   4.8327   4.8327   6.2583  10.3097  10.5748
    10.6712

          k = 0.0000 0.0000 0.3750 ( 20138 PWs)   bands (ev):

   -14.8865  -6.9554  -6.2573  -6.1869  -1.7767  -1.7767  -1.7537  -1.4898
    -0.9196  -0.9196  -0.8751  -0.4123   2.0348   2.0348   2.0396   3.6058
     4.1239   4.3567   4.3567   4.7004   4.7004   7.5607  10.7991  11.1822
    11.2715

          k = 0.0000 0.0000-0.5000 ( 20138 PWs)   bands (ev):

   -14.8861  -6.9145  -6.2707  -6.1855  -1.7788  -1.7730  -1.7730  -1.6062
    -0.9266  -0.9266  -0.8749  -0.4118   2.0557   2.0557   2.0737   3.5030
     4.0758   4.3637   4.3637   4.6330   4.6330   8.4123  10.6088  11.1554
    11.3819

          k = 0.0000 0.1250 0.1250 ( 20136 PWs)   bands (ev):

   -14.8883  -7.0955  -6.2083  -6.1977  -1.8003  -1.7908  -1.7715  -0.8927
    -0.8868  -0.8814  -0.7150  -0.5462   1.5380   1.9560   2.4125   3.9337
     4.2579   4.3928   4.4719   4.8997   5.0705   5.4667  10.1064  10.1127
    10.2577

          k = 0.0000 0.1250 0.2500 ( 20150 PWs)   bands (ev):

   -14.8872  -7.0108  -6.2302  -6.1959  -1.7965  -1.7808  -1.7505  -1.1169
    -0.9138  -0.9044  -0.8843  -0.5944   1.3760   2.0176   2.7628   3.7309
     4.1147   4.3464   4.4916   4.7815   5.0296   6.3517  10.4336  10.5971
    10.8113

          k = 0.0000 0.1250 0.3750 ( 20140 PWs)   bands (ev):

   -14.8862  -6.9167  -6.2584  -6.1924  -1.7872  -1.7709  -1.7460  -1.4964
    -0.9346  -0.9225  -0.8858  -0.6004   1.3441   2.0792   2.9493   3.5245
     4.0129   4.3256   4.5373   4.6422   4.8758   7.6174  10.9205  11.1999
    11.3477

          k = 0.0000 0.1250-0.5000 ( 20168 PWs)   bands (ev):

   -14.8857  -6.8740  -6.2722  -6.1909  -1.7799  -1.7722  -1.7668  -1.6185
    -0.9432  -0.9299  -0.8864  -0.6016   1.3449   2.1046   3.0079   3.4389
     3.9766   4.3325   4.5702   4.6114   4.7515   8.4594  10.7212  11.3043
    11.4947

          k = 0.0000 0.2500 0.2500 ( 20220 PWs)   bands (ev):

   -14.8862  -6.9189  -6.2391  -6.2061  -1.8034  -1.7687  -1.7386  -1.2075
    -0.9600  -0.9315  -0.9130  -0.9021   1.0968   2.1032   3.3921   3.5184
     4.0034   4.2890   4.6218   4.6495   5.3441   6.8183  10.6774  10.9402
    11.2059

          k = 0.0000 0.2500 0.3750 ( 20185 PWs)   bands (ev):

   -14.8852  -6.8144  -6.2617  -6.2101  -1.7984  -1.7565  -1.7424  -1.5131
    -1.0470  -0.9702  -0.9301  -0.9109   1.0078   2.1924   3.3436   3.6763
     3.9684   4.2548   4.4946   4.8182   5.3630   7.8405  11.1119  11.3860
    11.7031

          k = 0.0000 0.2500-0.5000 ( 20168 PWs)   bands (ev):

   -14.8848  -6.7655  -6.2759  -6.2107  -1.7829  -1.7691  -1.7514  -1.6478
    -1.0552  -0.9838  -0.9379  -0.9135   0.9896   2.2307   3.2779   3.7287
     3.9722   4.2593   4.4116   4.9923   5.2478   8.6321  10.8578  11.6239
    11.7775

          k = 0.0000 0.3750 0.3750 ( 20184 PWs)   bands (ev):

   -14.8843  -6.6928  -6.2690  -6.2376  -1.7982  -1.7500  -1.7418  -1.5699
    -1.4154  -1.0093  -0.9392  -0.9336   0.8857   2.3166   3.1926   3.9656
     3.9890   4.1961   4.3279   5.1548   5.8459   8.4253  11.3255  11.5067
    11.6645

          k = 0.0000 0.3750-0.5000 ( 20148 PWs)   bands (ev):

   -14.8839  -6.6319  -6.2796  -6.2501  -1.7827  -1.7641  -1.7356  -1.6812
    -1.4738  -1.0256  -0.9464  -0.9395   0.8557   2.3724   3.1368   3.9993
     4.0298   4.1888   4.2384   5.3115   5.9991   9.0602  10.7221  11.5149
    11.6376

          k = 0.0000-0.5000-0.5000 ( 20160 PWs)   bands (ev):

   -14.8835  -6.5599  -6.2811  -6.2811  -1.7615  -1.7615  -1.7327  -1.7289
    -1.6204  -1.0433  -0.9501  -0.9501   0.8216   2.4378   3.0842   4.0592
     4.0592   4.1603   4.1603   5.4395   6.3396   9.6246  10.6307  10.6307
    11.5262

          k = 0.1250 0.1250 0.1250 ( 20131 PWs)   bands (ev):

   -14.8879  -7.0618  -6.2064  -6.2064  -1.7995  -1.7995  -1.7528  -0.8941
    -0.8941  -0.8917  -0.7163  -0.7163   1.1580   2.4410   2.4410   3.8434
     4.2338   4.2338   4.5665   5.0422   5.0422   5.6243  10.2170  10.2170
    10.4052

          k = 0.1250 0.1250 0.2500 ( 20157 PWs)   bands (ev):

   -14.8868  -6.9750  -6.2297  -6.2016  -1.7976  -1.7975  -1.7315  -1.1262
    -0.9189  -0.9112  -0.8946  -0.7197   0.9059   2.5109   2.9156   3.6501
     4.0413   4.2300   4.6169   4.9599   5.0290   6.4303  10.5222  10.6002
    10.8149

          k = 0.1250 0.1250 0.3750 ( 20152 PWs)   bands (ev):

   -14.8858  -6.8778  -6.2584  -6.1969  -1.7957  -1.7849  -1.7291  -1.5027
    -0.9448  -0.9274  -0.8959  -0.7233   0.8331   2.5821   3.1585   3.4763
     3.9053   4.3305   4.6429   4.8311   4.8458   7.6635  10.9616  11.1984
    11.2203

          k = 0.1250 0.1250-0.5000 ( 20172 PWs)   bands (ev):

   -14.8853  -6.8334  -6.2728  -6.1949  -1.7950  -1.7826  -1.7449  -1.6305
    -0.9556  -0.9339  -0.8964  -0.7248   0.8221   2.6120   3.2242   3.4076
     3.8572   4.4928   4.6316   4.6735   4.7708   8.5001  10.7627  11.4178
    11.5123

          k = 0.1250 0.2500 0.2500 ( 20142 PWs)   bands (ev):

   -14.8858  -6.8818  -6.2359  -6.2115  -1.8097  -1.7990  -1.7158  -1.2121
    -1.0082  -0.9433  -0.9186  -0.9133   0.5413   2.7587   3.4281   3.4834
     3.9360   4.1604   4.7440   4.8874   5.3288   6.8637  10.7301  10.8598
    10.9778

          k = 0.1250 0.2500 0.3750 ( 20152 PWs)   bands (ev):

   -14.8849  -6.7753  -6.2592  -6.2121  -1.8108  -1.7942  -1.7208  -1.5189
    -1.0821  -0.9738  -0.9347  -0.9186   0.4160   2.8799   3.3486   3.6730
     3.8404   4.3230   4.7404   4.8732   5.3470   7.8660  11.1310  11.2061
    11.3693

          k = 0.1250 0.2500-0.5000 ( 20180 PWs)   bands (ev):

   -14.8844  -6.7252  -6.2742  -6.2112  -1.8079  -1.7908  -1.7349  -1.6579
    -1.0896  -0.9867  -0.9415  -0.9200   0.3894   2.9285   3.2994   3.7033
     3.8000   4.5150   4.5949   5.0016   5.2300   8.6618  10.8316  11.4404
    11.5705

          k = 0.1250 0.3750 0.3750 ( 20188 PWs)   bands (ev):

   -14.8839  -6.6532  -6.2646  -6.2362  -1.8120  -1.7979  -1.7325  -1.5768
    -1.4241  -1.0043  -0.9423  -0.9384   0.2643   3.0543   3.2324   3.8166
     3.8426   4.4164   4.6180   5.1690   5.8415   8.4406  11.2595  11.4198
    11.4961

          k = 0.1250 0.3750-0.5000 ( 20164 PWs)   bands (ev):

   -14.8836  -6.5918  -6.2756  -6.2463  -1.8012  -1.7978  -1.7452  -1.6879
    -1.4811  -1.0167  -0.9489  -0.9428   0.2293   3.1317   3.1891   3.8150
     3.8401   4.5002   4.5220   5.3170   5.9962   9.0889  10.6748  11.3751
    11.4436

          k = 0.1250-0.5000-0.5000 ( 20184 PWs)   bands (ev):

   -14.8832  -6.5191  -6.2762  -6.2762  -1.7865  -1.7865  -1.7618  -1.7325
    -1.6227  -1.0286  -0.9520  -0.9520   0.1916   3.1470   3.2307   3.8253
     3.8253   4.4961   4.4961   5.4450   6.3435   9.6841  10.5645  10.5645
    11.3523

          k = 0.2500 0.2500 0.2500 ( 20134 PWs)   bands (ev):

   -14.8849  -6.7847  -6.2281  -6.2281  -1.8254  -1.8254  -1.7090  -1.2227
    -1.2227  -0.9590  -0.9315  -0.9315  -0.0188   3.4046   3.5184   3.5184
     3.9831   3.9831   4.9022   5.2839   5.2839   7.1591  10.8187  10.9251
    10.9251

          k = 0.2500 0.2500 0.3750 ( 20190 PWs)   bands (ev):

   -14.8840  -6.6724  -6.2538  -6.2203  -1.8419  -1.8259  -1.7295  -1.5343
    -1.2327  -0.9825  -0.9440  -0.9354  -0.2455   3.3460   3.6152   3.6652
     3.8627   4.4765   5.0128   5.2117   5.3598   8.0108  10.8870  11.2167
    11.2908

          k = 0.2500 0.2500-0.5000 ( 20162 PWs)   bands (ev):

   -14.8836  -6.6182  -6.2700  -6.2170  -1.8490  -1.8141  -1.7494  -1.6779
    -1.2367  -0.9925  -0.9490  -0.9356  -0.2955   3.3285   3.6592   3.6615
     3.8193   4.8335   5.0817   5.1453   5.1979   8.7904  10.7263  11.0681
    11.2697

          k = 0.2500 0.3750 0.3750 ( 20179 PWs)   bands (ev):

   -14.8831  -6.5502  -6.2538  -6.2352  -1.8556  -1.8481  -1.7664  -1.5901
    -1.4680  -0.9925  -0.9500  -0.9493  -0.5361   3.3267   3.6285   3.6687
     4.2347   4.7419   5.1580   5.2101   5.8220   8.5176  10.7755  11.1501
    11.2941

          k = 0.2500 0.3750-0.5000 ( 20160 PWs)   bands (ev):

   -14.8828  -6.4876  -6.2659  -6.2388  -1.8627  -1.8400  -1.7933  -1.6983
    -1.5111  -0.9970  -0.9550  -0.9509  -0.5989   3.3162   3.6403   3.6531
     4.3361   4.9217   5.0410   5.3318   5.9829   9.1764  10.4563  10.8595
    11.0156

          k = 0.2500-0.5000-0.5000 ( 20196 PWs)   bands (ev):

   -14.8824  -6.4144  -6.2642  -6.2642  -1.8455  -1.8455  -1.8347  -1.7321
    -1.6338  -0.9986  -0.9571  -0.9571  -0.6630   3.3026   3.6513   3.6513
     4.5527   4.9325   4.9325   5.4586   6.3529   9.8445  10.3067  10.3067
    10.7933

          k = 0.3750 0.3750 0.3750 ( 20162 PWs)   bands (ev):

   -14.8823  -6.4295  -6.2429  -6.2429  -1.8870  -1.8870  -1.8228  -1.5997
    -1.5997  -1.0044  -0.9774  -0.9579  -0.9579   3.4106   3.5867   3.5867
     4.9932   4.9932   5.2935   5.7742   5.7742   8.8319  10.4960  10.7894
    10.7894

          k = 0.3750 0.3750-0.5000 ( 20172 PWs)   bands (ev):

   -14.8820  -6.3663  -6.2561  -6.2383  -1.9037  -1.8853  -1.8576  -1.7075
    -1.6028  -1.1090  -0.9800  -0.9612  -0.9593   3.4357   3.5612   3.5834
     5.0683   5.2575   5.3746   5.7302   6.0380   9.3871  10.1043  10.4535
    10.6573

          k = 0.3750-0.5000-0.5000 ( 20168 PWs)   bands (ev):

   -14.8817  -6.2987  -6.2520  -6.2520  -1.9031  -1.9031  -1.9007  -1.7316
    -1.6750  -1.2341  -0.9743  -0.9629  -0.9629   3.4645   3.5610   3.5610
     5.3164   5.3164   5.4723   5.7879   6.3624   9.9061   9.9344   9.9344
    10.3082

          k =-0.5000-0.5000-0.5000 ( 20336 PWs)   bands (ev):

   -14.8813  -6.2469  -6.2469  -6.2469  -1.9265  -1.9265  -1.9265  -1.7314
    -1.7314  -1.3991  -0.9655  -0.9655  -0.9655   3.5338   3.5338   3.5338
     5.4780   5.4780   5.4780   6.3664   6.3664   9.7557   9.7557   9.7557
    10.1276

     the Fermi energy is     6.0823 ev

!    total energy              =   -1291.02599895 Ry
     estimated scf accuracy    <          5.6E-13 Ry
     smearing contrib. (-TS)   =      -0.00010057 Ry
     internal energy E=F+TS    =   -1291.02589838 Ry

     The total energy is F=E-TS. E is the sum of the following terms:
     one-electron contribution =     -36.55888592 Ry
     hartree contribution      =      43.34917799 Ry
     xc contribution           =    -101.08336957 Ry
     ewald contribution        =    -157.26102646 Ry
     one-center paw contrib.   =   -1039.47179442 Ry

     convergence has been achieved in  25 iterations

     Forces acting on atoms (cartesian axes, Ry/au):

     atom    1 type  1   force =     0.00000000    0.00000000    0.00000000
     atom    2 type  2   force =     0.00000000    0.00000000    0.00000000
     atom    3 type  3   force =     0.00000000    0.00000000    0.00000000
     atom    4 type  3   force =     0.00000000    0.00000000    0.00000000
     atom    5 type  3   force =     0.00000000    0.00000000    0.00000000

     Total force =     0.000000     Total SCF correction =     0.000000


     Computing stress (Cartesian axis) and pressure

          total   stress  (Ry/bohr**3)                   (kbar)     P=       81.42
   0.00055348   0.00000000   0.00000000           81.42        0.00        0.00
   0.00000000   0.00055348   0.00000000            0.00       81.42        0.00
   0.00000000   0.00000000   0.00055348            0.00        0.00       81.42


     BFGS Geometry Optimization
     Energy error            =      0.0E+00 Ry
     Gradient error          =      0.0E+00 Ry/Bohr
     Cell gradient error     =      8.1E+01 kbar

     number of scf cycles    =   1
     number of bfgs steps    =   0

     enthalpy           new  =   -1291.0259989495 Ry

     new trust radius        =       0.0956367046 bohr
     new conv_thr            =            1.0E-12 Ry

     new unit-cell volume =   1244.56438 a.u.^3 (   184.42541 Ang^3 )
     density =      6.43065 g/cm^3

CELL_PARAMETERS (angstrom)
   5.692113985   0.000000000   0.000000000
   0.000000000   5.692113985   0.000000000
   0.000000000   0.000000000   5.692113985

ATOMIC_POSITIONS (crystal)
Cs               0.0000000000        0.0000000000        0.0000000000
Hg               0.5000000000        0.5000000000        0.5000000000
I                0.5000000000        0.5000000000        0.0000000000
I                0.5000000000        0.0000000000        0.5000000000
I                0.0000000000        0.5000000000        0.5000000000



     Writing config-only to output data dir ./tmp/CsHgI3.save/ :
     XML data file
     NEW-OLD atomic charge density approx. for the potential

     total cpu time spent up to now is      627.0 secs

     Self-consistent Calculation

     iteration #  1     ecut=   100.00 Ry     beta= 0.30
     Davidson diagonalization with overlap
     ethr =  1.00E-06,  avg # of iterations = 13.7

     total cpu time spent up to now is      672.8 secs

     total energy              =   -1291.04994792 Ry
     estimated scf accuracy    <       0.00008895 Ry

     iteration #  2     ecut=   100.00 Ry     beta= 0.30
     Davidson diagonalization with overlap
     ethr =  2.12E-07,  avg # of iterations =  8.6

     total cpu time spent up to now is      697.5 secs

     total energy              =   -1291.05003731 Ry
     estimated scf accuracy    <       0.00002296 Ry

     iteration #  3     ecut=   100.00 Ry     beta= 0.30
     Davidson diagonalization with overlap
     ethr =  5.47E-08,  avg # of iterations =  5.4

     total cpu time spent up to now is      718.3 secs

     total energy              =   -1291.05004992 Ry
     estimated scf accuracy    <       0.00000790 Ry

     iteration #  4     ecut=   100.00 Ry     beta= 0.30
     Davidson diagonalization with overlap
     ethr =  1.88E-08,  avg # of iterations =  4.7

     total cpu time spent up to now is      739.4 secs

     total energy              =   -1291.05008090 Ry
     estimated scf accuracy    <       0.00000150 Ry

     iteration #  5     ecut=   100.00 Ry     beta= 0.30
     Davidson diagonalization with overlap
     ethr =  3.57E-09,  avg # of iterations =  5.9

     total cpu time spent up to now is      761.7 secs

     total energy              =   -1291.05009942 Ry
     estimated scf accuracy    <       0.00000009 Ry

     iteration #  6     ecut=   100.00 Ry     beta= 0.30
     Davidson diagonalization with overlap
     ethr =  2.11E-10,  avg # of iterations = 10.0

     total cpu time spent up to now is      791.2 secs

     total energy              =   -1291.05010779 Ry
     estimated scf accuracy    <       0.00000003 Ry

     iteration #  7     ecut=   100.00 Ry     beta= 0.30
     Davidson diagonalization with overlap
     ethr =  6.28E-11,  avg # of iterations =  5.9

     total cpu time spent up to now is      813.1 secs

     total energy              =   -1291.05011182 Ry
     estimated scf accuracy    <          3.6E-09 Ry

     iteration #  8     ecut=   100.00 Ry     beta= 0.30
     Davidson diagonalization with overlap
     ethr =  8.66E-12,  avg # of iterations =  7.0

     total cpu time spent up to now is      837.2 secs

     total energy              =   -1291.05011379 Ry
     estimated scf accuracy    <          8.0E-10 Ry

     iteration #  9     ecut=   100.00 Ry     beta= 0.30
     Davidson diagonalization with overlap
     ethr =  1.92E-12,  avg # of iterations =  6.5

     total cpu time spent up to now is      860.9 secs

     total energy              =   -1291.05011476 Ry
     estimated scf accuracy    <          1.1E-10 Ry

     iteration # 10     ecut=   100.00 Ry     beta= 0.30
     Davidson diagonalization with overlap
     ethr =  2.66E-13,  avg # of iterations =  8.5

     total cpu time spent up to now is      888.9 secs

     total energy              =   -1291.05011523 Ry
     estimated scf accuracy    <          3.5E-10 Ry

     iteration # 11     ecut=   100.00 Ry     beta= 0.30
     Davidson diagonalization with overlap
     ethr =  2.66E-13,  avg # of iterations =  5.3

     total cpu time spent up to now is      911.7 secs

     total energy              =   -1291.05011546 Ry
     estimated scf accuracy    <          2.2E-11 Ry

     iteration # 12     ecut=   100.00 Ry     beta= 0.30
     Davidson diagonalization with overlap
     ethr =  1.00E-13,  avg # of iterations =  2.4

     total cpu time spent up to now is      929.4 secs

     total energy              =   -1291.05011557 Ry
     estimated scf accuracy    <          8.2E-12 Ry

     iteration # 13     ecut=   100.00 Ry     beta= 0.30
     Davidson diagonalization with overlap
     ethr =  1.00E-13,  avg # of iterations =  2.0

     total cpu time spent up to now is      946.3 secs

     End of self-consistent calculation

          k = 0.0000 0.0000 0.0000 ( 20197 PWs)   bands (ev):

   -15.3856  -7.4392  -6.5587  -6.5587  -2.2688  -2.2688  -2.2688  -1.2271
    -1.2271  -1.2271  -0.8369  -0.8369   1.6109   1.6109   1.6109   3.4762
     4.0261   4.0261   4.0261   4.5174   4.5174   4.5174   9.2293   9.4089
     9.4089

          k = 0.0000 0.0000 0.1233 ( 20138 PWs)   bands (ev):

   -15.3853  -7.4094  -6.5681  -6.5575  -2.2655  -2.2655  -2.2591  -1.2344
    -1.2344  -1.2269  -1.0314  -0.8366   1.5860   1.6335   1.6335   3.5212
     3.9734   4.0043   4.0043   4.4776   4.4776   4.7987   9.4606   9.5401
     9.6072

          k = 0.0000 0.0000 0.2466 ( 20162 PWs)   bands (ev):

   -15.3845  -7.3329  -6.5932  -6.5545  -2.2576  -2.2576  -2.2359  -1.4455
    -1.2517  -1.2517  -1.2266  -0.8358   1.5750   1.6881   1.6881   3.4057
     3.8537   3.9605   3.9605   4.3755   4.3755   5.7214   9.8880  10.0653
    10.1359

          k = 0.0000 0.0000 0.3699 ( 20138 PWs)   bands (ev):

   -15.3836  -7.2478  -6.6231  -6.5516  -2.2496  -2.2496  -2.2148  -1.8044
    -1.2685  -1.2685  -1.2263  -0.8351   1.5989   1.7427   1.7427   3.2148
     3.7432   3.9352   3.9352   4.2588   4.2588   6.9578  10.3405  10.6039
    10.7869

          k = 0.0000 0.0000-0.4932 ( 20138 PWs)   bands (ev):

   -15.3833  -7.2091  -6.6378  -6.5503  -2.2463  -2.2463  -2.2086  -1.9395
    -1.2753  -1.2753  -1.2262  -0.8348   1.6159   1.7653   1.7653   3.1297
     3.6997   3.9341   3.9341   4.2021   4.2021   7.7366  10.1457  10.7356
    10.8743

          k = 0.0000 0.1233 0.1233 ( 20136 PWs)   bands (ev):

   -15.3850  -7.3790  -6.5718  -6.5615  -2.2689  -2.2620  -2.2459  -1.2426
    -1.2364  -1.2329  -1.0986  -0.9479   1.2159   1.6590   2.0702   3.4748
     3.8573   3.9817   4.0573   4.4355   4.5917   4.9673   9.6538   9.6985
     9.7218

          k = 0.0000 0.1233 0.2466 ( 20150 PWs)   bands (ev):

   -15.3841  -7.3005  -6.5942  -6.5603  -2.2640  -2.2536  -2.2274  -1.4563
    -1.2620  -1.2531  -1.2348  -0.9888   1.0287   1.7212   2.3911   3.3148
     3.7224   3.9356   4.0761   4.3278   4.5538   5.8129  10.0061  10.1552
    10.2144

          k = 0.0000 0.1233 0.3699 ( 20140 PWs)   bands (ev):

   -15.3833  -7.2126  -6.6239  -6.5573  -2.2534  -2.2452  -2.2156  -1.8081
    -1.2812  -1.2705  -1.2357  -0.9939   0.9753   1.7843   2.5615   3.1407
     3.6259   3.9082   4.1157   4.2043   4.4144   7.0151  10.4659  10.6682
    10.8169

          k = 0.0000 0.1233-0.4932 ( 20168 PWs)   bands (ev):

   -15.3830  -7.1724  -6.6389  -6.5560  -2.2462  -2.2417  -2.2152  -1.9440
    -1.2890  -1.2775  -1.2360  -0.9949   0.9680   1.8108   2.6153   3.0683
     3.5912   3.9073   4.1433   4.1795   4.3036   7.7865  10.2491  10.8734
    10.9813

          k = 0.0000 0.2466 0.2466 ( 20220 PWs)   bands (ev):

   -15.3834  -7.2162  -6.6029  -6.5714  -2.2672  -2.2440  -2.2189  -1.5458
    -1.2994  -1.2760  -1.2589  -1.2518   0.7260   1.8037   2.9928   3.1293
     3.6145   3.8824   4.1957   4.2059   4.8398   6.2681  10.2392  10.4896
    10.6012

          k = 0.0000 0.2466 0.3699 ( 20185 PWs)   bands (ev):

   -15.3826  -7.1198  -6.6265  -6.5757  -2.2589  -2.2343  -2.2206  -1.8214
    -1.3782  -1.3110  -1.2753  -1.2577   0.6172   1.8907   2.9738   3.2708
     3.5767   3.8463   4.0660   4.3748   4.8546   7.2429  10.6507  10.8921
    11.1118

          k = 0.0000 0.2466-0.4932 ( 20168 PWs)   bands (ev):

   -15.3823  -7.0744  -6.6417  -6.5763  -2.2451  -2.2306  -2.2303  -1.9553
    -1.3872  -1.3224  -1.2829  -1.2592   0.5922   1.9283   2.9151   3.3266
     3.5769   3.8442   3.9946   4.5393   4.7421   7.9706  10.3620  11.1487
    11.2435

          k = 0.0000 0.3699 0.3699 ( 20184 PWs)   bands (ev):

   -15.3819  -7.0092  -6.6333  -6.6034  -2.2566  -2.2298  -2.2232  -1.8824
    -1.6957  -1.3431  -1.2815  -1.2779   0.4789   2.0079   2.8330   3.5551
     3.5913   3.7930   3.9115   4.6887   5.2877   7.8221  10.8464  10.9707
    11.1129

          k = 0.0000 0.3699-0.4932 ( 20148 PWs)   bands (ev):

   -15.3816  -6.9533  -6.6445  -6.6152  -2.2431  -2.2422  -2.2186  -1.9764
    -1.7548  -1.3563  -1.2885  -1.2817   0.4440   2.0608   2.7807   3.5925
     3.6241   3.7831   3.8318   4.8354   5.4251   8.4146  10.2188  10.9672
    11.1626

          k = 0.0000-0.4932-0.4932 ( 20160 PWs)   bands (ev):

   -15.3813  -6.8873  -6.6457  -6.6457  -2.2420  -2.2420  -2.2137  -2.0127
    -1.8771  -1.3705  -1.2908  -1.2908   0.4058   2.1220   2.7306   3.6491
     3.6491   3.7584   3.7584   4.9528   5.7332   8.9516  10.1267  10.1267
    11.0588

          k = 0.1233 0.1233 0.1233 ( 20131 PWs)   bands (ev):

   -15.3846  -7.3479  -6.5702  -6.5702  -2.2680  -2.2680  -2.2311  -1.2435
    -1.2435  -1.2420  -1.0993  -1.0993   0.8612   2.0984   2.0984   3.4045
     3.8333   3.8333   4.1446   4.5668   4.5668   5.1185   9.8069   9.8069
     9.8187

          k = 0.1233 0.1233 0.2466 ( 20157 PWs)   bands (ev):

   -15.3838  -7.2677  -6.5939  -6.5661  -2.2661  -2.2643  -2.2136  -1.4651
    -1.2654  -1.2601  -1.2438  -1.1012   0.5993   2.1679   2.5357   3.2452
     3.6498   3.8279   4.1922   4.4940   4.5517   5.8912  10.0954  10.1729
    10.2394

          k = 0.1233 0.1233 0.3699 ( 20152 PWs)   bands (ev):

   -15.3830  -7.1775  -6.6238  -6.5621  -2.2642  -2.2474  -2.2096  -1.8117
    -1.2880  -1.2762  -1.2447  -1.1031   0.5097   2.2401   2.7612   3.0970
     3.5168   3.9168   4.2156   4.3677   4.3934   7.0629  10.5102  10.6667
    10.7579

          k = 0.1233 0.1233-0.4932 ( 20172 PWs)   bands (ev):

   -15.3827  -7.1358  -6.6393  -6.5604  -2.2635  -2.2258  -2.2232  -1.9479
    -1.2973  -1.2827  -1.2450  -1.1040   0.4918   2.2709   2.8239   3.0380
     3.4690   4.0627   4.1841   4.2414   4.3281   7.8304  10.2900  10.9536
    11.0007

          k = 0.1233 0.2466 0.2466 ( 20142 PWs)   bands (ev):

   -15.3831  -7.1826  -6.6002  -6.5768  -2.2726  -2.2667  -2.2021  -1.5481
    -1.3490  -1.2869  -1.2650  -1.2621   0.2345   2.3964   3.0267   3.0991
     3.5465   3.7588   4.3099   4.4273   4.8268   6.3157  10.2910  10.4226
    10.4366

          k = 0.1233 0.2466 0.3699 ( 20152 PWs)   bands (ev):

   -15.3823  -7.0848  -6.6244  -6.5780  -2.2735  -2.2578  -2.2067  -1.8245
    -1.4149  -1.3126  -1.2815  -1.2653   0.0948   2.5124   2.9784   3.2693
     3.4491   3.9061   4.2936   4.4278   4.8405   7.2716  10.6465  10.7247
    10.8885

          k = 0.1233 0.2466-0.4932 ( 20180 PWs)   bands (ev):

   -15.3820  -7.0383  -6.6402  -6.5773  -2.2739  -2.2422  -2.2191  -1.9581
    -1.4220  -1.3234  -1.2885  -1.2661   0.0624   2.5600   2.9338   3.3042
     3.4059   4.0892   4.1558   4.5483   4.7273   8.0030  10.3351  10.9286
    11.0521

          k = 0.1233 0.3699 0.3699 ( 20188 PWs)   bands (ev):

   -15.3816  -6.9742  -6.6296  -6.6026  -2.2698  -2.2661  -2.2163  -1.8846
    -1.7077  -1.3393  -1.2861  -1.2840  -0.0694   2.6745   2.8683   3.4142
     3.4457   3.9962   4.1847   4.7018   5.2839   7.8403  10.7548  10.9049
    10.9332

          k = 0.1233 0.3699-0.4932 ( 20164 PWs)   bands (ev):

   -15.3813  -6.9180  -6.6412  -6.6122  -2.2699  -2.2580  -2.2269  -1.9776
    -1.7631  -1.3503  -1.2929  -1.2865  -0.1090   2.7472   2.8268   3.4154
     3.4383   4.0779   4.0963   4.8402   5.4224   8.4439  10.1617  10.8311
    10.9377

          k = 0.1233-0.4932-0.4932 ( 20184 PWs)   bands (ev):

   -15.3811  -6.8516  -6.6416  -6.6416  -2.2605  -2.2605  -2.2381  -2.0125
    -1.8811  -1.3612  -1.2947  -1.2947  -0.1508   2.7858   2.8380   3.4240
     3.4240   4.0745   4.0745   4.9577   5.7366   9.0064  10.0519  10.0519
    10.8666

          k = 0.2466 0.2466 0.2466 ( 20134 PWs)   bands (ev):

   -15.3824  -7.0947  -6.5937  -6.5937  -2.2860  -2.2860  -2.1972  -1.5536
    -1.5536  -1.2977  -1.2793  -1.2793  -0.2874   3.0295   3.1131   3.1131
     3.5842   3.5842   4.4570   4.7888   4.7888   6.6106  10.3029  10.4897
    10.4897

          k = 0.2466 0.2466 0.3699 ( 20190 PWs)   bands (ev):

   -15.3817  -6.9927  -6.6200  -6.5872  -2.2998  -2.2831  -2.2137  -1.8352
    -1.5590  -1.3189  -1.2931  -1.2822  -0.5145   2.9745   3.2112   3.2647
     3.4571   4.0408   4.5588   4.7275   4.8501   7.4255  10.3869  10.7486
    10.8306

          k = 0.2466 0.2466-0.4932 ( 20162 PWs)   bands (ev):

   -15.3814  -6.9430  -6.6366  -6.5844  -2.3056  -2.2701  -2.2305  -1.9652
    -1.5612  -1.3282  -1.2986  -1.2822  -0.5683   2.9570   3.2629   3.2639
     3.4030   4.3893   4.6234   4.6675   4.6839   8.1414  10.2086  10.5607
    10.7636

          k = 0.2466 0.3699 0.3699 ( 20179 PWs)   bands (ev):

   -15.3810  -6.8832  -6.6206  -6.6029  -2.3105  -2.3020  -2.2418  -1.8890
    -1.7608  -1.3308  -1.2978  -1.2972  -0.7979   2.9515   3.2287   3.2673
     3.7952   4.2980   4.6778   4.7405   5.2666   7.9294  10.2860  10.5889
    10.7713

          k = 0.2466 0.3699-0.4932 ( 20160 PWs)   bands (ev):

   -15.3807  -6.8266  -6.6331  -6.6066  -2.3166  -2.2962  -2.2635  -1.9806
    -1.7990  -1.3368  -1.3034  -1.2979  -0.8637   2.9386   3.2394   3.2521
     3.8857   4.4736   4.5701   4.8535   5.4098   8.5405   9.9286  10.3726
    10.4888

          k = 0.2466-0.4932-0.4932 ( 20196 PWs)   bands (ev):

   -15.3805  -6.7606  -6.6316  -6.6316  -2.3047  -2.3047  -2.2938  -2.0121
    -1.8992  -1.3412  -1.3042  -1.3042  -0.9310   2.9224   3.2484   3.2484
     4.0746   4.4841   4.4841   4.9697   5.7447   9.1589   9.7860   9.7860
    10.3096

          k = 0.3699 0.3699 0.3699 ( 20162 PWs)   bands (ev):

   -15.3804  -6.7770  -6.6116  -6.6116  -2.3348  -2.3348  -2.2851  -1.8928
    -1.8928  -1.3260  -1.3079  -1.3079  -1.2185   3.0234   3.1829   3.1829
     4.5293   4.5293   4.8180   5.2237   5.2237   8.2585  10.0226  10.2431
    10.2431

          k = 0.3699 0.3699-0.4932 ( 20172 PWs)   bands (ev):

   -15.3801  -6.7209  -6.6249  -6.6078  -2.3485  -2.3337  -2.3127  -1.9876
    -1.8941  -1.3258  -1.3256  -1.3123  -1.3079   3.0424   3.1562   3.1784
     4.5993   4.7849   4.8924   5.1828   5.4585   8.7843   9.5875   9.9838
    10.1148

          k = 0.3699-0.4932-0.4932 ( 20168 PWs)   bands (ev):

   -15.3799  -6.6613  -6.6215  -6.6215  -2.3485  -2.3485  -2.3458  -2.0118
    -1.9543  -1.4433  -1.3239  -1.3136  -1.3136   3.0643   3.1540   3.1540
     4.8391   4.8391   4.9818   5.2276   5.7529   9.2976   9.4282   9.4282
     9.8444

          k =-0.4932-0.4932-0.4932 ( 20336 PWs)   bands (ev):

   -15.3796  -6.6173  -6.6173  -6.6173  -2.3665  -2.3665  -2.3665  -2.0116
    -2.0116  -1.5904  -1.3174  -1.3174  -1.3174   3.1250   3.1250   3.1250
     4.9868   4.9868   4.9868   5.7563   5.7563   9.2611   9.2611   9.2611
     9.6728

     the Fermi energy is     5.5062 ev

!    total energy              =   -1291.05011568 Ry
     estimated scf accuracy    <          5.6E-13 Ry
     smearing contrib. (-TS)   =      -0.00010320 Ry
     internal energy E=F+TS    =   -1291.05001248 Ry

     The total energy is F=E-TS. E is the sum of the following terms:
     one-electron contribution =     -39.74302052 Ry
     hartree contribution      =      44.26745497 Ry
     xc contribution           =    -100.99508975 Ry
     ewald contribution        =    -155.11472327 Ry
     one-center paw contrib.   =   -1039.46463391 Ry

     convergence has been achieved in  13 iterations

     Forces acting on atoms (cartesian axes, Ry/au):

     atom    1 type  1   force =     0.00000000    0.00000000    0.00000000
     atom    2 type  2   force =     0.00000000    0.00000000    0.00000000
     atom    3 type  3   force =     0.00000000    0.00000000    0.00000000
     atom    4 type  3   force =     0.00000000    0.00000000    0.00000000
     atom    5 type  3   force =     0.00000000    0.00000000    0.00000000

     Total force =     0.000000     Total SCF correction =     0.000000


     Computing stress (Cartesian axis) and pressure

          total   stress  (Ry/bohr**3)                   (kbar)     P=       60.50
   0.00041127   0.00000000   0.00000000           60.50        0.00        0.00
   0.00000000   0.00041127   0.00000000            0.00       60.50        0.00
   0.00000000   0.00000000   0.00041127            0.00        0.00       60.50

     Energy error            =      2.4E-02 Ry
     Gradient error          =      0.0E+00 Ry/Bohr
     Cell gradient error     =      6.0E+01 kbar

     number of scf cycles    =   2
     number of bfgs steps    =   1

     enthalpy           old  =   -1291.0259989495 Ry
     enthalpy           new  =   -1291.0501156816 Ry

     CASE: enthalpy          _new < enthalpy          _old

     new trust radius        =       0.1059256969 bohr
     new conv_thr            =            1.0E-14 Ry

     new unit-cell volume =   1301.46342 a.u.^3 (   192.85698 Ang^3 )
     density =      6.14951 g/cm^3

CELL_PARAMETERS (angstrom)
   5.777568741   0.000000000   0.000000000
   0.000000000   5.777568741   0.000000000
   0.000000000   0.000000000   5.777568741

ATOMIC_POSITIONS (crystal)
Cs               0.0000000000        0.0000000000        0.0000000000
Hg               0.5000000000        0.5000000000        0.5000000000
I                0.5000000000        0.5000000000        0.0000000000
I                0.5000000000        0.0000000000        0.5000000000
I                0.0000000000        0.5000000000        0.5000000000



     Writing config-only to output data dir ./tmp/CsHgI3.save/ :
     XML data file
     NEW-OLD atomic charge density approx. for the potential

     total cpu time spent up to now is      985.8 secs

     Self-consistent Calculation

     iteration #  1     ecut=   100.00 Ry     beta= 0.30
     Davidson diagonalization with overlap
     ethr =  1.00E-06,  avg # of iterations = 14.5

     total cpu time spent up to now is     1033.6 secs

     total energy              =   -1291.06965539 Ry
     estimated scf accuracy    <       0.00010597 Ry

     iteration #  2     ecut=   100.00 Ry     beta= 0.30
     Davidson diagonalization with overlap
     ethr =  2.52E-07,  avg # of iterations =  8.1

     total cpu time spent up to now is     1057.8 secs

     total energy              =   -1291.06967926 Ry
     estimated scf accuracy    <       0.00002728 Ry

     iteration #  3     ecut=   100.00 Ry     beta= 0.30
     Davidson diagonalization with overlap
     ethr =  6.50E-08,  avg # of iterations =  6.0

     total cpu time spent up to now is     1079.4 secs

     total energy              =   -1291.06968038 Ry
     estimated scf accuracy    <       0.00000854 Ry

     iteration #  4     ecut=   100.00 Ry     beta= 0.30
     Davidson diagonalization with overlap
     ethr =  2.03E-08,  avg # of iterations =  4.7

     total cpu time spent up to now is     1100.3 secs

     total energy              =   -1291.06970154 Ry
     estimated scf accuracy    <       0.00000182 Ry

     iteration #  5     ecut=   100.00 Ry     beta= 0.30
     Davidson diagonalization with overlap
     ethr =  4.34E-09,  avg # of iterations =  5.3

     total cpu time spent up to now is     1121.9 secs

     total energy              =   -1291.06971648 Ry
     estimated scf accuracy    <       0.00000014 Ry

     iteration #  6     ecut=   100.00 Ry     beta= 0.30
     Davidson diagonalization with overlap
     ethr =  3.22E-10,  avg # of iterations =  9.2

     total cpu time spent up to now is     1150.6 secs

     total energy              =   -1291.06972306 Ry
     estimated scf accuracy    <       0.00000003 Ry

     iteration #  7     ecut=   100.00 Ry     beta= 0.30
     Davidson diagonalization with overlap
     ethr =  6.08E-11,  avg # of iterations =  6.3

     total cpu time spent up to now is     1173.1 secs

     total energy              =   -1291.06972617 Ry
     estimated scf accuracy    <          4.9E-09 Ry

     iteration #  8     ecut=   100.00 Ry     beta= 0.30
     Davidson diagonalization with overlap
     ethr =  1.18E-11,  avg # of iterations =  6.3

     total cpu time spent up to now is     1196.0 secs

     total energy              =   -1291.06972769 Ry
     estimated scf accuracy    <          1.1E-09 Ry

     iteration #  9     ecut=   100.00 Ry     beta= 0.30
     Davidson diagonalization with overlap
     ethr =  2.60E-12,  avg # of iterations =  8.5

     total cpu time spent up to now is     1222.8 secs

     total energy              =   -1291.06972844 Ry
     estimated scf accuracy    <          1.6E-09 Ry

     iteration # 10     ecut=   100.00 Ry     beta= 0.30
     Davidson diagonalization with overlap
     ethr =  2.60E-12,  avg # of iterations =  5.0

     total cpu time spent up to now is     1244.5 secs

     total energy              =   -1291.06972881 Ry
     estimated scf accuracy    <          9.4E-10 Ry

     iteration # 11     ecut=   100.00 Ry     beta= 0.30
     Davidson diagonalization with overlap
     ethr =  2.23E-12,  avg # of iterations =  2.0

     total cpu time spent up to now is     1263.0 secs

     total energy              =   -1291.06972899 Ry
     estimated scf accuracy    <          1.5E-11 Ry

     iteration # 12     ecut=   100.00 Ry     beta= 0.30
     Davidson diagonalization with overlap
     ethr =  1.00E-13,  avg # of iterations =  8.1

     total cpu time spent up to now is     1289.4 secs

     total energy              =   -1291.06972907 Ry
     estimated scf accuracy    <          1.6E-12 Ry

     iteration # 13     ecut=   100.00 Ry     beta= 0.30
     Davidson diagonalization with overlap
     ethr =  1.00E-13,  avg # of iterations =  1.1

     total cpu time spent up to now is     1305.6 secs

     total energy              =   -1291.06972912 Ry
     estimated scf accuracy    <          4.2E-13 Ry

     iteration # 14     ecut=   100.00 Ry     beta= 0.30
     Davidson diagonalization with overlap
     ethr =  1.00E-13,  avg # of iterations =  1.0

     total cpu time spent up to now is     1321.6 secs

     total energy              =   -1291.06972914 Ry
     estimated scf accuracy    <          1.0E-12 Ry

     iteration # 15     ecut=   100.00 Ry     beta= 0.30
     Davidson diagonalization with overlap
     ethr =  1.00E-13,  avg # of iterations =  1.0

     total cpu time spent up to now is     1337.6 secs

     total energy              =   -1291.06972915 Ry
     estimated scf accuracy    <          1.9E-13 Ry

     iteration # 16     ecut=   100.00 Ry     beta= 0.30
     Davidson diagonalization with overlap
     ethr =  1.00E-13,  avg # of iterations =  1.0

     total cpu time spent up to now is     1353.7 secs

     total energy              =   -1291.06972915 Ry
     estimated scf accuracy    <          2.5E-14 Ry

     iteration # 17     ecut=   100.00 Ry     beta= 0.30
     Davidson diagonalization with overlap
     ethr =  1.00E-13,  avg # of iterations =  1.0

     total cpu time spent up to now is     1369.8 secs

     total energy              =   -1291.06972915 Ry
     estimated scf accuracy    <          1.2E-14 Ry

     iteration # 18     ecut=   100.00 Ry     beta= 0.30
     Davidson diagonalization with overlap
     ethr =  1.00E-13,  avg # of iterations =  1.0

     total cpu time spent up to now is     1385.8 secs

     total energy              =   -1291.06972916 Ry
     estimated scf accuracy    <          2.9E-14 Ry

     iteration # 19     ecut=   100.00 Ry     beta= 0.30
     Davidson diagonalization with overlap
     ethr =  1.00E-13,  avg # of iterations =  1.0

     total cpu time spent up to now is     1402.0 secs

     total energy              =   -1291.06972916 Ry
     estimated scf accuracy    <          1.1E-14 Ry

     iteration # 20     ecut=   100.00 Ry     beta= 0.30
     Davidson diagonalization with overlap
     ethr =  1.00E-13,  avg # of iterations =  1.0

     total cpu time spent up to now is     1418.1 secs

     End of self-consistent calculation

          k = 0.0000 0.0000 0.0000 ( 20197 PWs)   bands (ev):

   -15.9065  -7.7339  -6.9407  -6.9407  -2.7656  -2.7656  -2.7656  -1.5990
    -1.5990  -1.5990  -1.2752  -1.2752   1.3059   1.3059   1.3059   2.9411
     3.5966   3.5966   3.5966   4.0315   4.0315   4.0315   8.6558   9.0019
     9.0019

          k = 0.0000 0.0000 0.1215 ( 20138 PWs)   bands (ev):

   -15.9063  -7.7066  -6.9499  -6.9396  -2.7629  -2.7629  -2.7574  -1.6056
    -1.6056  -1.5989  -1.4398  -1.2750   1.2396   1.3286   1.3286   3.0230
     3.5502   3.5758   3.5758   3.9952   3.9952   4.2904   8.8745   9.1234
     9.1867

          k = 0.0000 0.0000 0.2429 ( 20162 PWs)   bands (ev):

   -15.9056  -7.6362  -6.9750  -6.9372  -2.7563  -2.7563  -2.7375  -1.7999
    -1.6213  -1.6213  -1.5986  -1.2745   1.1668   1.3840   1.3840   2.9646
     3.4443   3.5316   3.5316   3.9036   3.9036   5.1613   9.4157   9.4816
     9.6804

          k = 0.0000 0.0000 0.3644 ( 20138 PWs)   bands (ev):

   -15.9050  -7.5575  -7.0057  -6.9347  -2.7498  -2.7498  -2.7177  -2.1205
    -1.6366  -1.6366  -1.5984  -1.2739   1.1484   1.4404   1.4404   2.8144
     3.3459   3.4993   3.4993   3.8023   3.8023   6.3263   9.8550  10.0158
    10.2863

          k = 0.0000 0.0000-0.4859 ( 20138 PWs)   bands (ev):

   -15.9048  -7.5213  -7.0211  -6.9336  -2.7471  -2.7471  -2.7096  -2.2445
    -1.6428  -1.6428  -1.5983  -1.2737   1.1495   1.4641   1.4641   2.7455
     3.3070   3.4915   3.4915   3.7552   3.7552   7.0335   9.6626  10.2959
    10.3443

          k = 0.0000 0.1215 0.1215 ( 20136 PWs)   bands (ev):

   -15.9060  -7.6788  -6.9536  -6.9437  -2.7650  -2.7601  -2.7471  -1.6129
    -1.6069  -1.6046  -1.4993  -1.3674   0.8840   1.3537   1.7212   3.0038
     3.4410   3.5547   3.6265   3.9568   4.0981   4.4490   9.0634   9.2744
     9.2896

          k = 0.0000 0.1215 0.2429 ( 20150 PWs)   bands (ev):

   -15.9054  -7.6069  -6.9760  -6.9430  -2.7605  -2.7533  -2.7317  -1.8110
    -1.6301  -1.6221  -1.6059  -1.4017   0.6715   1.4155   2.0122   2.8890
     3.3149   3.5095   3.6443   3.8595   4.0634   5.2509   9.5275   9.6176
     9.7168

          k = 0.0000 0.1215 0.3644 ( 20140 PWs)   bands (ev):

   -15.9048  -7.5260  -7.0063  -6.9405  -2.7520  -2.7464  -2.7201  -2.1237
    -1.6470  -1.6378  -1.6063  -1.4059   0.5957   1.4792   2.1666   2.7470
     3.2237   3.4763   3.6786   3.7514   3.9384   6.3842   9.9875  10.0874
    10.3038

          k = 0.0000 0.1215-0.4859 ( 20168 PWs)   bands (ev):

   -15.9046  -7.4886  -7.0219  -6.9395  -2.7473  -2.7436  -2.7162  -2.2470
    -1.6539  -1.6442  -1.6065  -1.4067   0.5799   1.5061   2.2160   2.6868
     3.1907   3.4688   3.7006   3.7332   3.8405   7.0859   9.7569  10.4228
    10.4451

          k = 0.0000 0.2429 0.2429 ( 20220 PWs)   bands (ev):

   -15.9048  -7.5306  -6.9844  -6.9546  -2.7621  -2.7458  -2.7257  -1.8967
    -1.6597  -1.6410  -1.6259  -1.6214   0.3505   1.4945   2.5836   2.7299
     3.2111   3.4607   3.7478   3.7529   4.3205   5.6927   9.7682   9.9958
    10.0211

          k = 0.0000 0.2429 0.3644 ( 20185 PWs)   bands (ev):

   -15.9043  -7.4429  -7.0083  -6.9592  -2.7554  -2.7383  -2.7268  -2.1375
    -1.7289  -1.6715  -1.6409  -1.6252   0.2225   1.5784   2.5934   2.8534
     3.1714   3.4230   3.6228   3.9144   4.3312   6.6158  10.1606  10.3732
    10.5154

          k = 0.0000 0.2429-0.4859 ( 20168 PWs)   bands (ev):

   -15.9040  -7.4012  -7.0240  -6.9597  -2.7477  -2.7352  -2.7314  -2.2550
    -1.7381  -1.6810  -1.6477  -1.6261   0.1907   1.6150   2.5416   2.9118
     3.1684   3.4152   3.5621   4.0699   4.2209   7.2792   9.8446  10.6522
    10.6869

          k = 0.0000 0.3644 0.3644 ( 20184 PWs)   bands (ev):

   -15.9037  -7.3436  -7.0146  -6.9865  -2.7541  -2.7358  -2.7301  -2.1991
    -1.9962  -1.6976  -1.6449  -1.6427   0.0682   1.6883   2.4628   3.1327
     3.1806   3.3752   3.4806   4.2051   4.7127   7.1847  10.3409  10.4067
    10.5338

          k = 0.0000 0.3644-0.4859 ( 20148 PWs)   bands (ev):

   -15.9035  -7.2929  -7.0261  -6.9974  -2.7474  -2.7439  -2.7267  -2.2768
    -2.0514  -1.7083  -1.6513  -1.6451   0.0281   1.7380   2.4142   3.1734
     3.2062   3.3631   3.4105   4.3423   4.8331   7.7318   9.6921  10.3912
    10.6644

          k = 0.0000-0.4859-0.4859 ( 20160 PWs)   bands (ev):

   -15.9033  -7.2331  -7.0269  -7.0269  -2.7472  -2.7472  -2.7231  -2.3109
    -2.1532  -1.7196  -1.6528  -1.6528  -0.0147   1.7948   2.3666   3.2271
     3.2271   3.3420   3.3420   4.4492   5.1089   8.2343   9.5997   9.5997
    10.5681

          k = 0.1215 0.1215 0.1215 ( 20131 PWs)   bands (ev):

   -15.9058  -7.6505  -6.9522  -6.9522  -2.7643  -2.7643  -2.7356  -1.6134
    -1.6134  -1.6125  -1.4997  -1.4997   0.5530   1.7486   1.7486   2.9541
     3.4172   3.4172   3.7066   4.0765   4.0765   4.5927   9.2176   9.3801
     9.3801

          k = 0.1215 0.1215 0.2429 ( 20157 PWs)   bands (ev):

   -15.9052  -7.5774  -6.9758  -6.9489  -2.7626  -2.7604  -2.7217  -1.8195
    -1.6323  -1.6287  -1.6136  -1.5005   0.2818   1.8171   2.1478   2.8302
     3.2434   3.4104   3.7511   4.0131   4.0599   5.3287   9.6096   9.6809
     9.7281

          k = 0.1215 0.1215 0.3644 ( 20152 PWs)   bands (ev):

   -15.9046  -7.4947  -7.0062  -6.9455  -2.7609  -2.7461  -2.7177  -2.1267
    -1.6515  -1.6436  -1.6141  -1.5015   0.1754   1.8893   2.3549   2.7075
     3.1144   3.4883   3.7723   3.8903   3.9256   6.4337  10.0271  10.1083
    10.2769

          k = 0.1215 0.1215-0.4859 ( 20172 PWs)   bands (ev):

   -15.9043  -7.4561  -7.0222  -6.9442  -2.7603  -2.7323  -2.7237  -2.2493
    -1.6593  -1.6497  -1.6143  -1.5020   0.1507   1.9206   2.4143   2.6575
     3.0670   3.6185   3.7226   3.7941   3.8694   7.1325   9.7955  10.4608
    10.4661

          k = 0.1215 0.2429 0.2429 ( 20142 PWs)   bands (ev):

   -15.9046  -7.5006  -6.9822  -6.9601  -2.7665  -2.7628  -2.7134  -1.8979
    -1.7097  -1.6508  -1.6318  -1.6303  -0.0801   2.0261   2.6154   2.7043
     3.1431   3.3422   3.8591   3.9524   4.3097   5.7424   9.7947   9.9076
     9.9669

          k = 0.1215 0.2429 0.3644 ( 20152 PWs)   bands (ev):

   -15.9041  -7.4119  -7.0066  -6.9618  -2.7677  -2.7544  -2.7174  -2.1397
    -1.7670  -1.6722  -1.6474  -1.6321  -0.2330   2.1363   2.5975   2.8539
     3.0450   3.4743   3.8317   3.9655   4.3192   6.6477  10.1098  10.2441
    10.3903

          k = 0.1215 0.2429-0.4859 ( 20180 PWs)   bands (ev):

   -15.9038  -7.3694  -7.0228  -6.9612  -2.7686  -2.7411  -2.7278  -2.2566
    -1.7736  -1.6812  -1.6539  -1.6326  -0.2712   2.1824   2.5575   2.8927
     2.9999   3.6485   3.7011   4.0787   4.2096   7.3143   9.8140  10.3887
    10.5122

          k = 0.1215 0.3644 0.3644 ( 20188 PWs)   bands (ev):

   -15.9035  -7.3130  -7.0116  -6.9862  -2.7645  -2.7627  -2.7253  -2.1998
    -2.0116  -1.6949  -1.6501  -1.6490  -0.4090   2.2858   2.4938   3.0005
     3.0369   3.5609   3.7362   4.2174   4.7095   7.2063  10.2202  10.3424
    10.3605

          k = 0.1215 0.3644-0.4859 ( 20164 PWs)   bands (ev):

   -15.9033  -7.2623  -7.0233  -6.9952  -2.7666  -2.7562  -2.7337  -2.2774
    -2.0622  -1.7042  -1.6566  -1.6504  -0.4536   2.3534   2.4543   3.0046
     3.0250   3.6405   3.6553   4.3466   4.8306   7.7625   9.6255  10.2581
    10.4080

          k = 0.1215-0.4859-0.4859 ( 20184 PWs)   bands (ev):

   -15.9031  -7.2024  -7.0236  -7.0236  -2.7608  -2.7608  -2.7412  -2.3107
    -2.1597  -1.7138  -1.6576  -1.6576  -0.5000   2.4146   2.4360   3.0116
     3.0116   3.6378   3.6378   4.4535   5.1117   8.2852   9.5170   9.5170
    10.3568

          k = 0.2429 0.2429 0.2429 ( 20134 PWs)   bands (ev):

   -15.9041  -7.4221  -6.9769  -6.9769  -2.7772  -2.7772  -2.7100  -1.9007
    -1.9007  -1.6581  -1.6459  -1.6459  -0.5632   2.6435   2.6976   2.6976
     3.1710   3.1710   3.9951   4.2785   4.2785   6.0357   9.7636  10.0345
    10.0345

          k = 0.2429 0.2429 0.3644 ( 20190 PWs)   bands (ev):

   -15.9036  -7.3307  -7.0030  -6.9715  -2.7881  -2.7743  -2.7231  -2.1491
    -1.9034  -1.6766  -1.6596  -1.6480  -0.7890   2.5925   2.7963   2.8532
     3.0387   3.5892   4.0880   4.2279   4.3255   6.8105   9.8644  10.2471
    10.3474

          k = 0.2429 0.2429-0.4859 ( 20162 PWs)   bands (ev):

   -15.9033  -7.2857  -7.0197  -6.9692  -2.7927  -2.7640  -2.7368  -2.2621
    -1.9045  -1.6847  -1.6652  -1.6480  -0.8461   2.5753   2.8552   2.8562
     2.9736   3.9295   4.1483   4.1541   4.1742   7.4622   9.6634  10.0376
    10.2364

          k = 0.2429 0.3644 0.3644 ( 20179 PWs)   bands (ev):

   -15.9031  -7.2339  -7.0043  -6.9875  -2.7964  -2.7897  -2.7445  -2.2016
    -2.0737  -1.6889  -1.6634  -1.6623  -1.0633   2.5664   2.8188   2.8560
     3.3410   3.8377   4.1827   4.2539   4.6949   7.3084   9.7742  10.0040
    10.1800

          k = 0.2429 0.3644-0.4859 ( 20160 PWs)   bands (ev):

   -15.9028  -7.1834  -7.0167  -6.9913  -2.8014  -2.7856  -2.7614  -2.2792
    -2.1064  -1.6952  -1.6688  -1.6629  -1.1318   2.5515   2.8290   2.8412
     3.4202   4.0094   4.0843   4.3584   4.8189   7.8700   9.3810   9.8660
     9.9293

          k = 0.2429-0.4859-0.4859 ( 20196 PWs)   bands (ev):

   -15.9026  -7.1245  -7.0155  -7.0155  -2.7935  -2.7935  -2.7832  -2.3104
    -2.1866  -1.7007  -1.6689  -1.6689  -1.2020   2.5331   2.8361   2.8361
     3.5826   4.0195   4.0195   4.4640   5.1186   8.4345   9.2463   9.2463
     9.8059

          k = 0.3644 0.3644 0.3644 ( 20162 PWs)   bands (ev):

   -15.9026  -7.1417  -6.9969  -6.9969  -2.8151  -2.8151  -2.7772  -2.2031
    -2.2031  -1.6862  -1.6742  -1.6742  -1.4438   2.6270   2.7704   2.7704
     4.0478   4.0478   4.3257   4.6573   4.6573   7.6514   9.5280   9.6756
     9.6756

          k = 0.3644 0.3644-0.4859 ( 20172 PWs)   bands (ev):

   -15.9024  -7.0926  -7.0101  -6.9938  -2.8257  -2.8144  -2.7986  -2.2861
    -2.2037  -1.6883  -1.6791  -1.6751  -1.5445   2.6404   2.7427   2.7648
     4.1124   4.2957   4.3935   4.6199   4.8608   8.1453   9.0535   9.4952
     9.5525

          k = 0.3644-0.4859-0.4859 ( 20168 PWs)   bands (ev):

   -15.9022  -7.0407  -7.0073  -7.0073  -2.8261  -2.8261  -2.8234  -2.3101
    -2.2539  -1.6889  -1.6799  -1.6799  -1.6563   2.6560   2.7389   2.7389
     4.3451   4.3451   4.4746   4.6496   5.1256   8.6449   8.9051   8.9051
     9.3622

          k =-0.4859-0.4859-0.4859 ( 20336 PWs)   bands (ev):

   -15.9020  -7.0039  -7.0039  -7.0039  -2.8395  -2.8395  -2.8395  -2.3099
    -2.3099  -1.7878  -1.6844  -1.6844  -1.6844   2.7084   2.7084   2.7084
     4.4790   4.4790   4.4790   5.1285   5.1285   8.7499   8.7499   8.7499
     9.1999

     the Fermi energy is     4.9123 ev

!    total energy              =   -1291.06972916 Ry
     estimated scf accuracy    <          5.0E-16 Ry
     smearing contrib. (-TS)   =      -0.00010563 Ry
     internal energy E=F+TS    =   -1291.06962353 Ry

     The total energy is F=E-TS. E is the sum of the following terms:
     one-electron contribution =     -43.15932250 Ry
     hartree contribution      =      45.27463710 Ry
     xc contribution           =    -100.90672364 Ry
     ewald contribution        =    -152.82045531 Ry
     one-center paw contrib.   =   -1039.45775918 Ry

     convergence has been achieved in  20 iterations

     Forces acting on atoms (cartesian axes, Ry/au):

     atom    1 type  1   force =     0.00000000    0.00000000    0.00000000
     atom    2 type  2   force =     0.00000000    0.00000000    0.00000000
     atom    3 type  3   force =     0.00000000    0.00000000    0.00000000
     atom    4 type  3   force =     0.00000000    0.00000000    0.00000000
     atom    5 type  3   force =     0.00000000    0.00000000    0.00000000

     Total force =     0.000000     Total SCF correction =     0.000000


     Computing stress (Cartesian axis) and pressure

          total   stress  (Ry/bohr**3)                   (kbar)     P=       41.68
   0.00028333   0.00000000   0.00000000           41.68        0.00        0.00
   0.00000000   0.00028333   0.00000000            0.00       41.68        0.00
   0.00000000   0.00000000   0.00028333            0.00        0.00       41.68

     Energy error            =      2.0E-02 Ry
     Gradient error          =      0.0E+00 Ry/Bohr
     Cell gradient error     =      4.2E+01 kbar

     number of scf cycles    =   3
     number of bfgs steps    =   2

     enthalpy           old  =   -1291.0501156816 Ry
     enthalpy           new  =   -1291.0697291571 Ry

     CASE: enthalpy          _new < enthalpy          _old

     new trust radius        =       0.1600767858 bohr
     new conv_thr            =            1.0E-14 Ry

     new unit-cell volume =   1390.02295 a.u.^3 (   205.98015 Ang^3 )
     density =      5.75772 g/cm^3

CELL_PARAMETERS (angstrom)
   5.905750875   0.000000000   0.000000000
   0.000000000   5.905750875   0.000000000
   0.000000000   0.000000000   5.905750875

ATOMIC_POSITIONS (crystal)
Cs               0.0000000000        0.0000000000        0.0000000000
Hg               0.5000000000        0.5000000000        0.5000000000
I                0.5000000000        0.5000000000        0.0000000000
I                0.5000000000        0.0000000000        0.5000000000
I                0.0000000000        0.5000000000        0.5000000000



     Writing config-only to output data dir ./tmp/CsHgI3.save/ :
     XML data file
     NEW-OLD atomic charge density approx. for the potential

     total cpu time spent up to now is     1457.5 secs

     Self-consistent Calculation

     iteration #  1     ecut=   100.00 Ry     beta= 0.30
     Davidson diagonalization with overlap
     ethr =  1.00E-06,  avg # of iterations = 16.8

     total cpu time spent up to now is     1512.5 secs

     total energy              =   -1291.08823766 Ry
     estimated scf accuracy    <       0.00023446 Ry

     iteration #  2     ecut=   100.00 Ry     beta= 0.30
     Davidson diagonalization with overlap
     ethr =  5.58E-07,  avg # of iterations =  4.9

     total cpu time spent up to now is     1532.9 secs

     total energy              =   -1291.08792554 Ry
     estimated scf accuracy    <       0.00006253 Ry

     iteration #  3     ecut=   100.00 Ry     beta= 0.30
     Davidson diagonalization with overlap
     ethr =  1.49E-07,  avg # of iterations =  7.1

     total cpu time spent up to now is     1557.4 secs

     total energy              =   -1291.08791448 Ry
     estimated scf accuracy    <       0.00001852 Ry

     iteration #  4     ecut=   100.00 Ry     beta= 0.30
     Davidson diagonalization with overlap
     ethr =  4.41E-08,  avg # of iterations =  4.4

     total cpu time spent up to now is     1577.7 secs

     total energy              =   -1291.08790507 Ry
     estimated scf accuracy    <       0.00000482 Ry

     iteration #  5     ecut=   100.00 Ry     beta= 0.30
     Davidson diagonalization with overlap
     ethr =  1.15E-08,  avg # of iterations =  6.4

     total cpu time spent up to now is     1601.8 secs

     total energy              =   -1291.08791239 Ry
     estimated scf accuracy    <       0.00000311 Ry

     iteration #  6     ecut=   100.00 Ry     beta= 0.30
     Davidson diagonalization with overlap
     ethr =  7.40E-09,  avg # of iterations =  1.9

     total cpu time spent up to now is     1618.5 secs

     total energy              =   -1291.08791287 Ry
     estimated scf accuracy    <       0.00000140 Ry

     iteration #  7     ecut=   100.00 Ry     beta= 0.30
     Davidson diagonalization with overlap
     ethr =  3.33E-09,  avg # of iterations =  4.4

     total cpu time spent up to now is     1639.3 secs

     total energy              =   -1291.08791397 Ry
     estimated scf accuracy    <       0.00000014 Ry

     iteration #  8     ecut=   100.00 Ry     beta= 0.30
     Davidson diagonalization with overlap
     ethr =  3.23E-10,  avg # of iterations =  8.4

     total cpu time spent up to now is     1665.7 secs

     total energy              =   -1291.08791434 Ry
     estimated scf accuracy    <          9.1E-09 Ry

     iteration #  9     ecut=   100.00 Ry     beta= 0.30
     Davidson diagonalization with overlap
     ethr =  2.16E-11,  avg # of iterations =  9.9

     total cpu time spent up to now is     1695.7 secs

     total energy              =   -1291.08791447 Ry
     estimated scf accuracy    <          4.3E-09 Ry

     iteration # 10     ecut=   100.00 Ry     beta= 0.30
     Davidson diagonalization with overlap
     ethr =  1.02E-11,  avg # of iterations =  4.6

     total cpu time spent up to now is     1716.3 secs

     total energy              =   -1291.08791453 Ry
     estimated scf accuracy    <          1.7E-10 Ry

     iteration # 11     ecut=   100.00 Ry     beta= 0.30
     Davidson diagonalization with overlap
     ethr =  3.95E-13,  avg # of iterations = 11.6

     total cpu time spent up to now is     1750.7 secs

     total energy              =   -1291.08791456 Ry
     estimated scf accuracy    <          3.4E-10 Ry

     iteration # 12     ecut=   100.00 Ry     beta= 0.30
     Davidson diagonalization with overlap
     ethr =  3.95E-13,  avg # of iterations =  2.1

     total cpu time spent up to now is     1769.0 secs

     total energy              =   -1291.08791457 Ry
     estimated scf accuracy    <          6.0E-11 Ry

     iteration # 13     ecut=   100.00 Ry     beta= 0.30
     Davidson diagonalization with overlap
     ethr =  1.42E-13,  avg # of iterations =  5.7

     total cpu time spent up to now is     1791.4 secs

     total energy              =   -1291.08791458 Ry
     estimated scf accuracy    <          2.7E-12 Ry

     iteration # 14     ecut=   100.00 Ry     beta= 0.30
     Davidson diagonalization with overlap
     ethr =  1.00E-13,  avg # of iterations =  1.9

     total cpu time spent up to now is     1808.4 secs

     total energy              =   -1291.08791458 Ry
     estimated scf accuracy    <          7.4E-12 Ry

     iteration # 15     ecut=   100.00 Ry     beta= 0.30
     Davidson diagonalization with overlap
     ethr =  1.00E-13,  avg # of iterations =  1.5

     total cpu time spent up to now is     1824.7 secs

     total energy              =   -1291.08791458 Ry
     estimated scf accuracy    <          8.8E-13 Ry

     iteration # 16     ecut=   100.00 Ry     beta= 0.30
     Davidson diagonalization with overlap
     ethr =  1.00E-13,  avg # of iterations =  1.0

     total cpu time spent up to now is     1840.8 secs

     total energy              =   -1291.08791458 Ry
     estimated scf accuracy    <          4.5E-14 Ry

     iteration # 17     ecut=   100.00 Ry     beta= 0.30
     Davidson diagonalization with overlap
     ethr =  1.00E-13,  avg # of iterations =  1.0

     total cpu time spent up to now is     1857.0 secs

     total energy              =   -1291.08791458 Ry
     estimated scf accuracy    <          1.4E-13 Ry

     iteration # 18     ecut=   100.00 Ry     beta= 0.30
     Davidson diagonalization with overlap
     ethr =  1.00E-13,  avg # of iterations =  1.0

     total cpu time spent up to now is     1873.1 secs

     total energy              =   -1291.08791458 Ry
     estimated scf accuracy    <          4.4E-14 Ry

     iteration # 19     ecut=   100.00 Ry     beta= 0.30
     Davidson diagonalization with overlap
     ethr =  1.00E-13,  avg # of iterations =  1.0

     total cpu time spent up to now is     1889.3 secs

     End of self-consistent calculation

          k = 0.0000 0.0000 0.0000 ( 20197 PWs)   bands (ev):

   -16.6417  -8.1540  -7.4797  -7.4797  -3.4724  -3.4724  -3.4724  -2.1294
    -2.1294  -2.1294  -1.8859  -1.8859   0.8869   0.8869   0.8869   2.1995
     2.9987   2.9987   2.9987   3.3608   3.3608   3.3608   7.8755   8.4329
     8.4329

          k = 0.0000 0.0000 0.1188 ( 20138 PWs)   bands (ev):

   -16.6416  -8.1303  -7.4885  -7.4790  -3.4704  -3.4704  -3.4664  -2.1348
    -2.1348  -2.1293  -2.0138  -1.8858   0.7617   0.9091   0.9091   2.3400
     2.9603   2.9795   2.9795   3.3293   3.3293   3.5861   8.0741   8.5438
     8.5995

          k = 0.0000 0.0000 0.2377 ( 20162 PWs)   bands (ev):

   -16.6412  -8.0689  -7.5126  -7.4770  -3.4657  -3.4657  -3.4518  -2.3024
    -2.1477  -2.1477  -2.1291  -1.8855   0.6070   0.9641   0.9641   2.3637
     2.8722   2.9354   2.9354   3.2516   3.2516   4.3781   8.5897   8.8535
     9.0456

          k = 0.0000 0.0000 0.3565 ( 20138 PWs)   bands (ev):

   -16.6408  -7.9996  -7.5430  -7.4751  -3.4610  -3.4610  -3.4371  -2.5671
    -2.1604  -2.1604  -2.1290  -1.8852   0.5349   1.0211   1.0211   2.2656
     2.7894   2.8958   2.8958   3.1698   3.1698   5.4392   9.1156   9.2648
     9.5960

          k = 0.0000 0.0000-0.4753 ( 20138 PWs)   bands (ev):

   -16.6406  -7.9673  -7.5585  -7.4743  -3.4590  -3.4590  -3.4310  -2.6709
    -2.1656  -2.1656  -2.1289  -1.8851   0.5170   1.0454   1.0454   2.2160
     2.7566   2.8811   2.8811   3.1341   3.1341   6.0535   8.9852   9.6018
     9.6763

          k = 0.0000 0.1188 0.1188 ( 20136 PWs)   bands (ev):

   -16.6414  -8.1062  -7.4921  -7.4830  -3.4717  -3.4685  -3.4592  -2.1407
    -2.1355  -2.1343  -2.0627  -1.9560   0.4247   0.9332   1.2454   2.3586
     2.8610   2.9605   3.0265   3.2957   3.4173   3.7290   8.2490   8.6817
     8.6962

          k = 0.0000 0.1188 0.2377 ( 20150 PWs)   bands (ev):

   -16.6410  -8.0439  -7.5135  -7.4828  -3.4684  -3.4636  -3.4481  -2.3135
    -2.1545  -2.1481  -2.1349  -1.9822   0.1799   0.9931   1.4964   2.3068
     2.7471   2.9170   3.0429   3.2123   3.3869   4.4647   8.7115   8.9712
     9.0840

          k = 0.0000 0.1188 0.3565 ( 20140 PWs)   bands (ev):

   -16.6407  -7.9731  -7.5434  -7.4809  -3.4625  -3.4588  -3.4393  -2.5705
    -2.1682  -2.1611  -2.1351  -1.9855   0.0738   1.0559   1.6302   2.2067
     2.6635   2.8778   3.0709   3.1241   3.2811   5.4980   9.2336   9.3503
     9.6084

          k = 0.0000 0.1188-0.4753 ( 20168 PWs)   bands (ev):

   -16.6405  -7.9398  -7.5591  -7.4801  -3.4596  -3.4568  -3.4361  -2.6731
    -2.1738  -2.1664  -2.1352  -1.9861   0.0465   1.0828   1.6745   2.1611
     2.6327   2.8634   3.0853   3.1151   3.1993   6.1083   9.0674   9.6940
     9.7887

          k = 0.0000 0.2377 0.2377 ( 20220 PWs)   bands (ev):

   -16.6407  -7.9787  -7.5214  -7.4945  -3.4693  -3.4586  -3.4444  -2.3915
    -2.1758  -2.1627  -2.1502  -2.1478  -0.1560   1.0665   2.0233   2.1817
     2.6503   2.8742   3.1141   3.1357   3.6054   4.8853   9.0268   9.2482
     9.3663

          k = 0.0000 0.2377 0.3565 ( 20185 PWs)   bands (ev):

   -16.6403  -7.9031  -7.5448  -7.4990  -3.4651  -3.4535  -3.4454  -2.5864
    -2.2315  -2.1865  -2.1627  -2.1498  -0.3068   1.1453   2.0699   2.2791
     2.6095   2.8353   3.0087   3.2733   3.6113   5.7324   9.4354   9.6439
     9.7276

          k = 0.0000 0.2377-0.4753 ( 20168 PWs)   bands (ev):

   -16.6401  -7.8666  -7.5604  -7.4996  -3.4609  -3.4513  -3.4479  -2.6816
    -2.2401  -2.1937  -2.1682  -2.1502  -0.3474   1.1799   2.0269   2.3391
     2.6030   2.8215   2.9613   3.4185   3.5025   6.3100   9.1186   9.9092
     9.9466

          k = 0.0000 0.3565 0.3565 ( 20184 PWs)   bands (ev):

   -16.6399  -7.8190  -7.5504  -7.5250  -3.4650  -3.4529  -3.4481  -2.6466
    -2.4343  -2.2057  -2.1649  -2.1637  -0.4804   1.2447   1.9531   2.5510
     2.6126   2.7949   2.8831   3.5327   3.9218   6.2791   9.6078   9.6143
     9.7190

          k = 0.0000 0.3565-0.4753 ( 20148 PWs)   bands (ev):

   -16.6398  -7.7755  -7.5617  -7.5347  -3.4620  -3.4586  -3.4458  -2.7076
    -2.4807  -2.2135  -2.1702  -2.1649  -0.5278   1.2898   1.9093   2.5954
     2.6299   2.7806   2.8253   3.6586   4.0171   6.7619   8.9516   9.5769
     9.9556

          k = 0.0000-0.4753-0.4753 ( 20160 PWs)   bands (ev):

   -16.6397  -7.7241  -7.5622  -7.5622  -3.4623  -3.4623  -3.4436  -2.7396
    -2.5580  -2.2218  -2.1710  -2.1710  -0.5771   1.3405   1.8654   2.6459
     2.6459   2.7639   2.7639   3.7516   4.2500   7.2093   8.8594   8.8594
     9.8722

          k = 0.1188 0.1188 0.1188 ( 20131 PWs)   bands (ev):

   -16.6413  -8.0819  -7.4910  -7.4910  -3.4712  -3.4712  -3.4513  -2.1409
    -2.1409  -2.1405  -2.0627  -2.0627   0.1231   1.2715   1.2715   2.3370
     2.8378   2.8378   3.0969   3.3999   3.3999   3.8609   8.3958   8.7831
     8.7831

          k = 0.1188 0.1188 0.2377 ( 20157 PWs)   bands (ev):

   -16.6409  -8.0188  -7.5136  -7.4885  -3.4699  -3.4682  -3.4417  -2.3215
    -2.1557  -2.1538  -2.1410  -2.0630  -0.1587   1.3372   1.6190   2.2616
     2.6782   2.8294   3.1372   3.3487   3.3816   4.5413   8.7899   9.0485
     9.1059

          k = 0.1188 0.1188 0.3565 ( 20152 PWs)   bands (ev):

   -16.6405  -7.9468  -7.5433  -7.4860  -3.4686  -3.4583  -3.4387  -2.5736
    -2.1706  -2.1663  -2.1412  -2.0633  -0.2866   1.4079   1.8006   2.1723
     2.5559   2.8936   3.1559   3.2320   3.2779   5.5497   9.2594   9.4069
     9.6048

          k = 0.1188 0.1188-0.4753 ( 20172 PWs)   bands (ev):

   -16.6404  -7.9127  -7.5592  -7.4849  -3.4681  -3.4498  -3.4417  -2.6751
    -2.1767  -2.1714  -2.1413  -2.0634  -0.3203   1.4390   1.8551   2.1334
     2.5098   3.0042   3.0855   3.1734   3.2327   6.1580   9.1004   9.7169
     9.7356

          k = 0.1188 0.2377 0.2377 ( 20142 PWs)   bands (ev):

   -16.6405  -7.9534  -7.5198  -7.4997  -3.4723  -3.4699  -3.4364  -2.3919
    -2.2248  -2.1704  -2.1554  -2.1547  -0.5114   1.5201   2.0522   2.1617
     2.5829   2.7629   3.2317   3.2959   3.5975   4.9374   9.0103   9.2555
     9.3279

          k = 0.1188 0.2377 0.3565 ( 20152 PWs)   bands (ev):

   -16.6402  -7.8775  -7.5435  -7.5019  -3.4734  -3.4641  -3.4396  -2.5883
    -2.2704  -2.1867  -2.1685  -2.1556  -0.6789   1.6214   2.0731   2.2821
     2.4863   2.8749   3.1925   3.3222   3.6022   5.7687   9.3371   9.5769
     9.6878

          k = 0.1188 0.2377-0.4753 ( 20180 PWs)   bands (ev):

   -16.6400  -7.8406  -7.5594  -7.5016  -3.4742  -3.4547  -3.4474  -2.6830
    -2.2760  -2.1934  -2.1740  -2.1558  -0.7242   1.6648   2.0395   2.3249
     2.4401   3.0377   3.0698   3.4267   3.4970   6.3488   9.0785   9.6212
     9.7576

          k = 0.1188 0.3565 0.3565 ( 20188 PWs)   bands (ev):

   -16.6398  -7.7943  -7.5481  -7.5251  -3.4720  -3.4703  -3.4456  -2.6468
    -2.4544  -2.2041  -2.1698  -2.1693  -0.8678   1.7538   1.9785   2.4313
     2.4731   2.9565   3.1146   3.5441   3.9196   6.3059   9.4550   9.5139
     9.5866

          k = 0.1188 0.3565-0.4753 ( 20164 PWs)   bands (ev):

   -16.6397  -7.7509  -7.5597  -7.5333  -3.4739  -3.4667  -3.4513  -2.7079
    -2.4960  -2.2113  -2.1752  -2.1699  -0.9190   1.8141   1.9420   2.4395
     2.4564   3.0336   3.0432   3.6622   4.0150   6.7955   8.8730   9.4469
     9.6610

          k = 0.1188-0.4753-0.4753 ( 20184 PWs)   bands (ev):

   -16.6395  -7.6997  -7.5598  -7.5598  -3.4711  -3.4711  -3.4555  -2.7395
    -2.5688  -2.2187  -2.1757  -2.1757  -0.9717   1.8858   1.9043   2.4446
     2.4446   3.0318   3.0318   3.7551   4.2523   7.2568   8.7681   8.7681
     9.6351

          k = 0.2377 0.2377 0.2377 ( 20134 PWs)   bands (ev):

   -16.6402  -7.8876  -7.5158  -7.5158  -3.4797  -3.4797  -3.4345  -2.3929
    -2.3929  -2.1744  -2.1678  -2.1678  -0.9427   2.1121   2.1285   2.1285
     2.5980   2.5980   3.3530   3.5750   3.5750   5.2262   9.0060   9.3937
     9.3937

          k = 0.2377 0.2377 0.3565 ( 20190 PWs)   bands (ev):

   -16.6398  -7.8104  -7.5409  -7.5118  -3.4872  -3.4779  -3.4438  -2.5973
    -2.3938  -2.1892  -2.1799  -2.1690  -1.1635   2.0670   2.2262   2.2879
     2.4613   2.9621   3.4335   3.5385   3.6040   5.9421   9.1300   9.4938
     9.6625

          k = 0.2377 0.2377-0.4753 ( 20162 PWs)   bands (ev):

   -16.6397  -7.7719  -7.5571  -7.5102  -3.4903  -3.4709  -3.4538  -2.6888
    -2.3942  -2.1957  -2.1849  -2.1689  -1.2239   2.0505   2.2934   2.2981
     2.3810   3.2918   3.4237   3.4887   3.4923   6.5078   8.8957   9.3103
     9.4983

          k = 0.2377 0.3565 0.3565 ( 20179 PWs)   bands (ev):

   -16.6395  -7.7304  -7.5428  -7.5276  -3.4929  -3.4889  -3.4585  -2.6473
    -2.5261  -2.2006  -2.1825  -2.1814  -1.4224   2.0378   2.2571   2.2925
     2.7131   3.1978   3.4996   3.5783   3.9089   6.4259   9.0520   9.1894
     9.3715

          k = 0.2377 0.3565-0.4753 ( 20160 PWs)   bands (ev):

   -16.6394  -7.6880  -7.5548  -7.5313  -3.4966  -3.4863  -3.4701  -2.7093
    -2.5516  -2.2063  -2.1871  -2.1817  -1.4929   2.0210   2.2674   2.2784
     2.7767   3.3650   3.4134   3.6721   4.0049   6.9186   8.6199   9.1335
     9.1569

          k = 0.2377-0.4753-0.4753 ( 20196 PWs)   bands (ev):

   -16.6392  -7.6385  -7.5538  -7.5538  -3.4924  -3.4924  -3.4837  -2.7393
    -2.6089  -2.2117  -2.1869  -2.1869  -1.5656   2.0003   2.2722   2.2722
     2.9061   3.3744   3.3744   3.7637   4.2578   7.4073   8.4970   8.4970
     9.1006

          k = 0.3565 0.3565 0.3565 ( 20162 PWs)   bands (ev):

   -16.6392  -7.6560  -7.5374  -7.5374  -3.5059  -3.5059  -3.4805  -2.6477
    -2.6477  -2.1995  -2.1928  -2.1928  -1.7522   2.0846   2.2072   2.2072
     3.3774   3.3774   3.6430   3.8797   3.8797   6.7829   8.8308   8.8868
     8.8868

          k = 0.3565 0.3565-0.4753 ( 20172 PWs)   bands (ev):

   -16.6391  -7.6157  -7.5499  -7.5351  -3.5129  -3.5057  -3.4950  -2.7162
    -2.6479  -2.2027  -2.1975  -2.1933  -1.8456   2.0914   2.1790   2.2006
     3.4337   3.6175   3.7022   3.8476   4.0371   7.2292   8.3147   8.7724
     8.8122

          k = 0.3565-0.4753-0.4753 ( 20168 PWs)   bands (ev):

   -16.6389  -7.5735  -7.5478  -7.5478  -3.5136  -3.5136  -3.5112  -2.7390
    -2.6873  -2.2051  -2.1980  -2.1980  -1.9469   2.0995   2.1735   2.1735
     3.6604   3.6604   3.7724   3.8527   4.2633   7.6933   8.1812   8.1812
     8.6886

          k =-0.4753-0.4753-0.4753 ( 20336 PWs)   bands (ev):

   -16.6388  -7.5453  -7.5453  -7.5453  -3.5224  -3.5224  -3.5224  -2.7389
    -2.7389  -2.2025  -2.2025  -2.2025  -2.0604   2.1417   2.1417   2.1417
     3.7760   3.7760   3.7760   4.2656   4.2656   8.0422   8.0422   8.0422
     8.5394

     the Fermi energy is     4.0943 ev

!    total energy              =   -1291.08791458 Ry
     estimated scf accuracy    <          1.3E-15 Ry
     smearing contrib. (-TS)   =      -0.00010906 Ry
     internal energy E=F+TS    =   -1291.08780552 Ry

     The total energy is F=E-TS. E is the sum of the following terms:
     one-electron contribution =     -48.12443349 Ry
     hartree contribution      =      46.77890254 Ry
     xc contribution           =    -100.78959232 Ry
     ewald contribution        =    -149.50354395 Ry
     one-center paw contrib.   =   -1039.44913829 Ry

     convergence has been achieved in  19 iterations

     Forces acting on atoms (cartesian axes, Ry/au):

     atom    1 type  1   force =     0.00000000    0.00000000    0.00000000
     atom    2 type  2   force =     0.00000000    0.00000000    0.00000000
     atom    3 type  3   force =     0.00000000    0.00000000    0.00000000
     atom    4 type  3   force =     0.00000000    0.00000000    0.00000000
     atom    5 type  3   force =     0.00000000    0.00000000    0.00000000

     Total force =     0.000000     Total SCF correction =     0.000000


     Computing stress (Cartesian axis) and pressure

          total   stress  (Ry/bohr**3)                   (kbar)     P=       20.08
   0.00013649   0.00000000   0.00000000           20.08        0.00        0.00
   0.00000000   0.00013649   0.00000000            0.00       20.08        0.00
   0.00000000   0.00000000   0.00013649            0.00        0.00       20.08

     Energy error            =      1.8E-02 Ry
     Gradient error          =      0.0E+00 Ry/Bohr
     Cell gradient error     =      2.0E+01 kbar

     number of scf cycles    =   4
     number of bfgs steps    =   3

     enthalpy           old  =   -1291.0697291571 Ry
     enthalpy           new  =   -1291.0879145839 Ry

     CASE: enthalpy          _new < enthalpy          _old

     new trust radius        =       0.1640297951 bohr
     new conv_thr            =            1.0E-14 Ry

     new unit-cell volume =   1483.78855 a.u.^3 (   219.87478 Ang^3 )
     density =      5.39387 g/cm^3

CELL_PARAMETERS (angstrom)
   6.035665154   0.000000000   0.000000000
   0.000000000   6.035665154   0.000000000
   0.000000000   0.000000000   6.035665154

ATOMIC_POSITIONS (crystal)
Cs               0.0000000000        0.0000000000        0.0000000000
Hg               0.5000000000        0.5000000000        0.5000000000
I                0.5000000000        0.5000000000        0.0000000000
I                0.5000000000        0.0000000000        0.5000000000
I                0.0000000000        0.5000000000        0.5000000000



     Writing config-only to output data dir ./tmp/CsHgI3.save/ :
     XML data file
     NEW-OLD atomic charge density approx. for the potential

     total cpu time spent up to now is     1928.2 secs

     Self-consistent Calculation

     iteration #  1     ecut=   100.00 Ry     beta= 0.30
     Davidson diagonalization with overlap
     ethr =  1.00E-06,  avg # of iterations = 16.7

     total cpu time spent up to now is     1982.7 secs

     total energy              =   -1291.09574566 Ry
     estimated scf accuracy    <       0.00025879 Ry

     iteration #  2     ecut=   100.00 Ry     beta= 0.30
     Davidson diagonalization with overlap
     ethr =  6.16E-07,  avg # of iterations =  4.9

     total cpu time spent up to now is     2003.0 secs

     total energy              =   -1291.09540764 Ry
     estimated scf accuracy    <       0.00006992 Ry

     iteration #  3     ecut=   100.00 Ry     beta= 0.30
     Davidson diagonalization with overlap
     ethr =  1.66E-07,  avg # of iterations =  7.2

     total cpu time spent up to now is     2027.8 secs

     total energy              =   -1291.09542866 Ry
     estimated scf accuracy    <       0.00002214 Ry

     iteration #  4     ecut=   100.00 Ry     beta= 0.30
     Davidson diagonalization with overlap
     ethr =  5.27E-08,  avg # of iterations =  4.3

     total cpu time spent up to now is     2047.8 secs

     total energy              =   -1291.09540570 Ry
     estimated scf accuracy    <       0.00000713 Ry

     iteration #  5     ecut=   100.00 Ry     beta= 0.30
     Davidson diagonalization with overlap
     ethr =  1.70E-08,  avg # of iterations =  5.0

     total cpu time spent up to now is     2070.2 secs

     total energy              =   -1291.09541204 Ry
     estimated scf accuracy    <       0.00000350 Ry

     iteration #  6     ecut=   100.00 Ry     beta= 0.30
     Davidson diagonalization with overlap
     ethr =  8.34E-09,  avg # of iterations =  2.7

     total cpu time spent up to now is     2089.2 secs

     total energy              =   -1291.09541347 Ry
     estimated scf accuracy    <       0.00000015 Ry

     iteration #  7     ecut=   100.00 Ry     beta= 0.30
     Davidson diagonalization with overlap
     ethr =  3.57E-10,  avg # of iterations = 11.6

     total cpu time spent up to now is     2124.0 secs

     total energy              =   -1291.09541433 Ry
     estimated scf accuracy    <       0.00000012 Ry

     iteration #  8     ecut=   100.00 Ry     beta= 0.30
     Davidson diagonalization with overlap
     ethr =  2.83E-10,  avg # of iterations =  6.1

     total cpu time spent up to now is     2147.3 secs

     total energy              =   -1291.09541456 Ry
     estimated scf accuracy    <       0.00000012 Ry

     iteration #  9     ecut=   100.00 Ry     beta= 0.30
     Davidson diagonalization with overlap
     ethr =  2.83E-10,  avg # of iterations =  2.0

     total cpu time spent up to now is     2165.3 secs

     total energy              =   -1291.09541468 Ry
     estimated scf accuracy    <          6.4E-09 Ry

     iteration # 10     ecut=   100.00 Ry     beta= 0.30
     Davidson diagonalization with overlap
     ethr =  1.53E-11,  avg # of iterations =  7.9

     total cpu time spent up to now is     2191.0 secs

     total energy              =   -1291.09541474 Ry
     estimated scf accuracy    <          1.8E-09 Ry

     iteration # 11     ecut=   100.00 Ry     beta= 0.30
     Davidson diagonalization with overlap
     ethr =  4.22E-12,  avg # of iterations =  4.6

     total cpu time spent up to now is     2211.3 secs

     total energy              =   -1291.09541476 Ry
     estimated scf accuracy    <          6.8E-11 Ry

     iteration # 12     ecut=   100.00 Ry     beta= 0.30
     Davidson diagonalization with overlap
     ethr =  1.62E-13,  avg # of iterations = 12.8

     total cpu time spent up to now is     2248.8 secs

     total energy              =   -1291.09541477 Ry
     estimated scf accuracy    <          2.5E-10 Ry

     iteration # 13     ecut=   100.00 Ry     beta= 0.30
     Davidson diagonalization with overlap
     ethr =  1.62E-13,  avg # of iterations =  2.5

     total cpu time spent up to now is     2266.7 secs

     total energy              =   -1291.09541478 Ry
     estimated scf accuracy    <          5.5E-11 Ry

     iteration # 14     ecut=   100.00 Ry     beta= 0.30
     Davidson diagonalization with overlap
     ethr =  1.31E-13,  avg # of iterations =  2.5

     total cpu time spent up to now is     2284.2 secs

     total energy              =   -1291.09541478 Ry
     estimated scf accuracy    <          2.9E-11 Ry

     iteration # 15     ecut=   100.00 Ry     beta= 0.30
     Davidson diagonalization with overlap
     ethr =  1.00E-13,  avg # of iterations =  6.7

     total cpu time spent up to now is     2305.8 secs

     total energy              =   -1291.09541478 Ry
     estimated scf accuracy    <          1.3E-12 Ry

     iteration # 16     ecut=   100.00 Ry     beta= 0.30
     Davidson diagonalization with overlap
     ethr =  1.00E-13,  avg # of iterations =  1.1

     total cpu time spent up to now is     2322.0 secs

     total energy              =   -1291.09541479 Ry
     estimated scf accuracy    <          1.6E-12 Ry

     iteration # 17     ecut=   100.00 Ry     beta= 0.30
     Davidson diagonalization with overlap
     ethr =  1.00E-13,  avg # of iterations =  1.0

     total cpu time spent up to now is     2338.2 secs

     total energy              =   -1291.09541479 Ry
     estimated scf accuracy    <          2.7E-13 Ry

     iteration # 18     ecut=   100.00 Ry     beta= 0.30
     Davidson diagonalization with overlap
     ethr =  1.00E-13,  avg # of iterations =  2.0

     total cpu time spent up to now is     2355.5 secs

     total energy              =   -1291.09541479 Ry
     estimated scf accuracy    <          4.3E-12 Ry

     iteration # 19     ecut=   100.00 Ry     beta= 0.30
     Davidson diagonalization with overlap
     ethr =  1.00E-13,  avg # of iterations =  1.0

     total cpu time spent up to now is     2371.6 secs

     total energy              =   -1291.09541479 Ry
     estimated scf accuracy    <          1.7E-13 Ry

     iteration # 20     ecut=   100.00 Ry     beta= 0.30
     Davidson diagonalization with overlap
     ethr =  1.00E-13,  avg # of iterations =  1.0

     total cpu time spent up to now is     2387.8 secs

     total energy              =   -1291.09541479 Ry
     estimated scf accuracy    <          2.0E-14 Ry

     iteration # 21     ecut=   100.00 Ry     beta= 0.30
     Davidson diagonalization with overlap
     ethr =  1.00E-13,  avg # of iterations =  1.0

     total cpu time spent up to now is     2403.8 secs

     total energy              =   -1291.09541479 Ry
     estimated scf accuracy    <          3.2E-14 Ry

     iteration # 22     ecut=   100.00 Ry     beta= 0.30
     Davidson diagonalization with overlap
     ethr =  1.00E-13,  avg # of iterations =  1.0

     total cpu time spent up to now is     2419.7 secs

     total energy              =   -1291.09541479 Ry
     estimated scf accuracy    <          2.9E-14 Ry

     iteration # 23     ecut=   100.00 Ry     beta= 0.30
     Davidson diagonalization with overlap
     ethr =  1.00E-13,  avg # of iterations =  1.0

     total cpu time spent up to now is     2436.0 secs

     End of self-consistent calculation

          k = 0.0000 0.0000 0.0000 ( 20197 PWs)   bands (ev):

   -17.3351  -8.5547  -7.9863  -7.9863  -4.1440  -4.1440  -4.1440  -2.6342
    -2.6342  -2.6342  -2.4531  -2.4531   0.5035   0.5035   0.5035   1.5176
     2.4445   2.4445   2.4445   2.7453   2.7453   2.7453   7.1688   7.9016
     7.9016

          k = 0.0000 0.0000 0.1163 ( 20138 PWs)   bands (ev):

   -17.3350  -8.5343  -7.9944  -7.9857  -4.1427  -4.1427  -4.1398  -2.6385
    -2.6385  -2.6341  -2.5520  -2.4530   0.3199   0.5248   0.5248   1.7203
     2.4129   2.4269   2.4269   2.7180   2.7180   2.9380   7.3492   8.0030
     8.0520

          k = 0.0000 0.0000 0.2326 ( 20162 PWs)   bands (ev):

   -17.3347  -8.4815  -8.0169  -7.9843  -4.1394  -4.1394  -4.1296  -2.7805
    -2.6487  -2.6487  -2.6340  -2.4528   0.0976   0.5779   0.5779   1.8199
     2.3395   2.3840   2.3840   2.6523   2.6523   3.6500   7.8254   8.2834
     8.4551

          k = 0.0000 0.0000 0.3488 ( 20138 PWs)   bands (ev):

   -17.3345  -8.4212  -8.0456  -7.9828  -4.1361  -4.1361  -4.1194  -2.9954
    -2.6589  -2.6589  -2.6338  -2.4527  -0.0171   0.6337   0.6337   1.7651
     2.2702   2.3400   2.3400   2.5867   2.5867   4.6108   8.3681   8.6328
     8.9549

          k = 0.0000 0.0000-0.4651 ( 20138 PWs)   bands (ev):

   -17.3344  -8.3928  -8.0606  -7.9822  -4.1347  -4.1347  -4.1151  -3.0807
    -2.6630  -2.6630  -2.6338  -2.4526  -0.0496   0.6578   0.6578   1.7305
     2.2425   2.3213   2.3213   2.5595   2.5595   5.1455   8.3508   8.9093
     9.0925

          k = 0.0000 0.1163 0.1163 ( 20136 PWs)   bands (ev):

   -17.3349  -8.5137  -7.9977  -7.9895  -4.1436  -4.1413  -4.1348  -2.6430
    -2.6388  -2.6382  -2.5916  -2.5064  -0.0004   0.5475   0.8140   1.7728
     2.3229   2.4100   2.4701   2.6886   2.7928   3.0645   7.5105   8.1285
     8.1432

          k = 0.0000 0.1163 0.2326 ( 20150 PWs)   bands (ev):

   -17.3346  -8.4603  -8.0177  -7.9897  -4.1413  -4.1379  -4.1271  -2.7912
    -2.6539  -2.6490  -2.6385  -2.5264  -0.2704   0.6045   1.0303   1.7780
     2.2204   2.3687   2.4851   2.6173   2.7665   3.7333   7.9437   8.3930
     8.4960

          k = 0.0000 0.1163 0.3488 ( 20140 PWs)   bands (ev):

   -17.3344  -8.3991  -8.0459  -7.9883  -4.1373  -4.1346  -4.1211  -2.9993
    -2.6647  -2.6592  -2.6386  -2.5290  -0.4019   0.6649   1.1466   1.7132
     2.1439   2.3260   2.5085   2.5458   2.6774   4.6701   8.4695   8.7277
     8.9666

          k = 0.0000 0.1163-0.4651 ( 20168 PWs)   bands (ev):

   -17.3343  -8.3700  -8.0610  -7.9877  -4.1354  -4.1332  -4.1189  -3.0832
    -2.6691  -2.6635  -2.6386  -2.5294  -0.4389   0.6911   1.1866   1.6791
     2.1153   2.3076   2.5161   2.5453   2.6086   5.2016   8.4229   8.9935
     9.1923

          k = 0.0000 0.2326 0.2326 ( 20220 PWs)   bands (ev):

   -17.3344  -8.4051  -8.0250  -8.0009  -4.1422  -4.1345  -4.1248  -2.8603
    -2.6696  -2.6609  -2.6500  -2.6487  -0.6086   0.6721   1.5134   1.6814
     2.1310   2.3314   2.5312   2.5632   2.9515   4.1310   8.2669   8.6354
     8.7552

          k = 0.0000 0.2326 0.3488 ( 20185 PWs)   bands (ev):

   -17.3342  -8.3407  -8.0469  -8.0053  -4.1396  -4.1310  -4.1258  -3.0172
    -2.7140  -2.6783  -2.6601  -2.6498  -0.7754   0.7452   1.5903   1.7537
     2.0908   2.2923   2.4427   2.6788   2.9544   4.9040   8.7031   8.9790
     9.0245

          k = 0.0000 0.2326-0.4651 ( 20168 PWs)   bands (ev):

   -17.3341  -8.3092  -8.0617  -8.0058  -4.1370  -4.1296  -4.1276  -3.0936
    -2.7215  -2.6836  -2.6645  -2.6500  -0.8230   0.7775   1.5551   1.8133
     2.0822   2.2749   2.4057   2.8169   2.8454   5.4066   8.4377   9.1867
     9.1868

          k = 0.0000 0.3488 0.3488 ( 20184 PWs)   bands (ev):

   -17.3339  -8.2702  -8.0519  -8.0291  -4.1402  -4.1317  -4.1275  -3.0742
    -2.8644  -2.6924  -2.6613  -2.6606  -0.9618   0.8347   1.4862   2.0181
     2.0898   2.2584   2.3320   2.9096   3.2012   5.4221   8.8532   8.8931
     8.9717

          k = 0.0000 0.3488-0.4651 ( 20148 PWs)   bands (ev):

   -17.3338  -8.2331  -8.0626  -8.0377  -4.1385  -4.1359  -4.1260  -3.1230
    -2.9013  -2.6982  -2.6655  -2.6613  -1.0151   0.8753   1.4468   2.0651
     2.1011   2.2428   2.2845   3.0280   3.2712   5.8456   8.2571   8.8106
     9.2684

          k = 0.0000-0.4651-0.4651 ( 20160 PWs)   bands (ev):

   -17.3338  -8.1892  -8.0629  -8.0629  -4.1391  -4.1391  -4.1245  -3.1524
    -2.9589  -2.7042  -2.6659  -2.6659  -1.0700   0.9205   1.4064   2.1134
     2.1134   2.2297   2.2297   3.1088   3.4667   6.2385   8.1666   8.1666
     9.2077

          k = 0.1163 0.1163 0.1163 ( 20131 PWs)   bands (ev):

   -17.3348  -8.4931  -7.9970  -7.9970  -4.1432  -4.1432  -4.1294  -2.6431
    -2.6431  -2.6429  -2.5916  -2.5916  -0.2773   0.8384   0.8384   1.7758
     2.3006   2.3006   2.5321   2.7791   2.7791   3.1837   7.6491   8.2253
     8.2253

          k = 0.1163 0.1163 0.2326 ( 20157 PWs)   bands (ev):

   -17.3345  -8.4392  -8.0179  -7.9951  -4.1423  -4.1412  -4.1228  -2.7986
    -2.6546  -2.6535  -2.6431  -2.5916  -0.5654   0.9005   1.1403   1.7439
     2.1547   2.2911   2.5685   2.7383   2.7599   3.8081   8.0268   8.4690
     8.5244

          k = 0.1163 0.1163 0.3488 ( 20152 PWs)   bands (ev):

   -17.3343  -8.3772  -8.0458  -7.9931  -4.1414  -4.1345  -4.1209  -3.0027
    -2.6660  -2.6636  -2.6432  -2.5916  -0.7104   0.9682   1.2989   1.6829
     2.0400   2.3443   2.5852   2.6285   2.6813   4.7233   8.5058   8.7870
     8.9777

          k = 0.1163 0.1163-0.4651 ( 20172 PWs)   bands (ev):

   -17.3342  -8.3475  -8.0610  -7.9924  -4.1410  -4.1289  -4.1229  -3.0855
    -2.6707  -2.6677  -2.6433  -2.5917  -0.7516   0.9983   1.3486   1.6529
     1.9959   2.4390   2.5004   2.5999   2.6447   5.2532   8.4484   8.9921
     9.0176

          k = 0.1163 0.2326 0.2326 ( 20142 PWs)   bands (ev):

   -17.3343  -8.3841  -8.0238  -8.0058  -4.1442  -4.1423  -4.1195  -2.8604
    -2.7163  -2.6660  -2.6543  -2.6540  -0.9041   1.0605   1.5397   1.6658
     2.0653   2.2268   2.6507   2.6925   2.9459   4.1848   8.2623   8.6642
     8.7289

          k = 0.1163 0.2326 0.3488 ( 20152 PWs)   bands (ev):

   -17.3341  -8.3197  -8.0460  -8.0082  -4.1450  -4.1386  -4.1220  -3.0189
    -2.7518  -2.6783  -2.6649  -2.6544  -1.0806   1.1529   1.5930   1.7590
     1.9721   2.3211   2.6038   2.7264   2.9477   4.9439   8.6058   8.9344
     9.0105

          k = 0.1163 0.2326-0.4651 ( 20180 PWs)   bands (ev):

   -17.3340  -8.2879  -8.0610  -8.0080  -4.1455  -4.1323  -4.1276  -3.0951
    -2.7565  -2.6834  -2.6692  -2.6545  -1.1313   1.1932   1.5650   1.8037
     1.9266   2.4742   2.4868   2.8244   2.8463   5.4482   8.3850   8.8921
     9.0539

          k = 0.1163 0.3488 0.3488 ( 20188 PWs)   bands (ev):

   -17.3339  -8.2502  -8.0502  -8.0296  -4.1448  -4.1429  -4.1264  -3.0742
    -2.8880  -2.6915  -2.6655  -2.6653  -1.2760   1.2698   1.5070   1.9105
     1.9559   2.3978   2.5411   2.9208   3.1999   5.4536   8.7191   8.7425
     8.8609

          k = 0.1163 0.3488-0.4651 ( 20164 PWs)   bands (ev):

   -17.3338  -8.2135  -8.0611  -8.0369  -4.1460  -4.1413  -4.1301  -3.1232
    -2.9205  -2.6970  -2.6698  -2.6655  -1.3322   1.3233   1.4734   1.9225
     1.9360   2.4730   2.4776   3.0309   3.2698   5.8821   8.1700   8.6833
     8.9556

          k = 0.1163-0.4651-0.4651 ( 20184 PWs)   bands (ev):

   -17.3337  -8.1700  -8.0611  -8.0611  -4.1448  -4.1448  -4.1326  -3.1523
    -2.9739  -2.7026  -2.6701  -2.6701  -1.3898   1.3854   1.4379   1.9260
     1.9260   2.4720   2.4720   3.1117   3.4685   6.2847   8.0704   8.0704
     8.9506

          k = 0.2326 0.2326 0.2326 ( 20134 PWs)   bands (ev):

   -17.3341  -8.3293  -8.0208  -8.0208  -4.1492  -4.1492  -4.1185  -2.8607
    -2.8607  -2.6682  -2.6645  -2.6645  -1.2898   1.6102   1.6102   1.6256
     2.0692   2.0692   2.7592   2.9304   2.9304   4.4666   8.2963   8.7895
     8.7895

          k = 0.2326 0.2326 0.3488 ( 20190 PWs)   bands (ev):

   -17.3339  -8.2648  -8.0442  -8.0179  -4.1543  -4.1483  -4.1251  -3.0279
    -2.8610  -2.6797  -2.6746  -2.6652  -1.5031   1.5861   1.7051   1.7714
     1.9320   2.3824   2.8280   2.9064   2.9457   5.1245   8.4387   8.7423
     9.0095

          k = 0.2326 0.2326-0.4651 ( 20162 PWs)   bands (ev):

   -17.3338  -8.2321  -8.0593  -8.0167  -4.1564  -4.1435  -4.1322  -3.1016
    -2.8611  -2.6848  -2.6787  -2.6652  -1.5651   1.5709   1.7799   1.7890
     1.8374   2.7033   2.7557   2.8658   2.8792   5.6147   8.1786   8.6314
     8.8081

          k = 0.2326 0.3488 0.3488 ( 20179 PWs)   bands (ev):

   -17.3336  -8.1990  -8.0463  -8.0327  -4.1583  -4.1560  -4.1353  -3.0743
    -2.9641  -2.6894  -2.6762  -2.6754  -1.7450   1.5554   1.7451   1.7794
     2.1364   2.6050   2.8731   2.9541   3.1932   5.5884   8.3662   8.4360
     8.6252

          k = 0.2326 0.3488-0.4651 ( 20160 PWs)   bands (ev):

   -17.3336  -8.1636  -8.0575  -8.0362  -4.1609  -4.1544  -4.1432  -3.1244
    -2.9835  -2.6941  -2.6801  -2.6756  -1.8156   1.5375   1.7565   1.7658
     2.1858   2.7698   2.7967   3.0392   3.2616   6.0182   7.9168   8.3859
     8.4931

          k = 0.2326-0.4651-0.4651 ( 20196 PWs)   bands (ev):

   -17.3335  -8.1222  -8.0568  -8.0568  -4.1588  -4.1588  -4.1518  -3.1521
    -3.0245  -2.6987  -2.6799  -2.6799  -1.8884   1.5156   1.7596   1.7596
     2.2886   2.7785   2.7785   3.1187   3.4729   6.4384   7.8053   7.8053
     8.4408

          k = 0.3488 0.3488 0.3488 ( 20162 PWs)   bands (ev):

   -17.3334  -8.1393  -8.0423  -8.0423  -4.1673  -4.1673  -4.1502  -3.0743
    -3.0743  -2.6890  -2.6853  -2.6853  -2.0333   1.5912   1.6964   1.6964
     2.7549   2.7549   3.0134   3.1729   3.1729   5.9504   8.1586   8.1586
     8.1684

          k = 0.3488 0.3488-0.4651 ( 20172 PWs)   bands (ev):

   -17.3334  -8.1063  -8.0539  -8.0407  -4.1720  -4.1674  -4.1600  -3.1310
    -3.0743  -2.6923  -2.6893  -2.6855  -2.1195   1.5933   1.6685   1.6891
     2.8024   2.9919   3.0650   3.1466   3.2842   6.3483   7.6349   8.0532
     8.1743

          k = 0.3488-0.4651-0.4651 ( 20168 PWs)   bands (ev):

   -17.3333  -8.0721  -8.0524  -8.0524  -4.1727  -4.1727  -4.1708  -3.1519
    -3.1058  -2.6950  -2.6896  -2.6896  -2.2113   1.5958   1.6618   1.6618
     3.0290   3.0290   3.1239   3.1258   3.4773   6.7633   7.5152   7.5152
     8.0600

          k =-0.4651-0.4651-0.4651 ( 20336 PWs)   bands (ev):

   -17.3332  -8.0506  -8.0506  -8.0506  -4.1785  -4.1785  -4.1785  -3.1518
    -3.1518  -2.6935  -2.6935  -2.6935  -2.3107   1.6298   1.6298   1.6298
     3.1288   3.1288   3.1288   3.4791   3.4791   7.3908   7.3908   7.3908
     7.9231

     the Fermi energy is     3.3470 ev

!    total energy              =   -1291.09541479 Ry
     estimated scf accuracy    <          8.4E-15 Ry
     smearing contrib. (-TS)   =      -0.00011820 Ry
     internal energy E=F+TS    =   -1291.09529659 Ry

     The total energy is F=E-TS. E is the sum of the following terms:
     one-electron contribution =     -52.97461546 Ry
     hartree contribution      =      48.29453328 Ry
     xc contribution           =    -100.68751220 Ry
     ewald contribution        =    -146.28556474 Ry
     one-center paw contrib.   =   -1039.44213746 Ry

     convergence has been achieved in  23 iterations

     Forces acting on atoms (cartesian axes, Ry/au):

     atom    1 type  1   force =     0.00000000    0.00000000    0.00000000
     atom    2 type  2   force =     0.00000000    0.00000000    0.00000000
     atom    3 type  3   force =     0.00000000    0.00000000    0.00000000
     atom    4 type  3   force =     0.00000000    0.00000000    0.00000000
     atom    5 type  3   force =     0.00000000    0.00000000    0.00000000

     Total force =     0.000000     Total SCF correction =     0.000000


     Computing stress (Cartesian axis) and pressure

          total   stress  (Ry/bohr**3)                   (kbar)     P=        4.48
   0.00003044   0.00000000   0.00000000            4.48        0.00        0.00
   0.00000000   0.00003044   0.00000000            0.00        4.48        0.00
   0.00000000   0.00000000   0.00003044            0.00        0.00        4.48

     Energy error            =      7.5E-03 Ry
     Gradient error          =      0.0E+00 Ry/Bohr
     Cell gradient error     =      4.5E+00 kbar

     number of scf cycles    =   5
     number of bfgs steps    =   4

     enthalpy           old  =   -1291.0879145839 Ry
     enthalpy           new  =   -1291.0954147862 Ry

     CASE: enthalpy          _new < enthalpy          _old

     new trust radius        =       0.0503652106 bohr
     new conv_thr            =            1.0E-14 Ry

     new unit-cell volume =   1513.08021 a.u.^3 (   224.21535 Ang^3 )
     density =      5.28945 g/cm^3

CELL_PARAMETERS (angstrom)
   6.075123583   0.000000000   0.000000000
   0.000000000   6.075123583   0.000000000
   0.000000000   0.000000000   6.075123583

ATOMIC_POSITIONS (crystal)
Cs               0.0000000000        0.0000000000        0.0000000000
Hg               0.5000000000        0.5000000000        0.5000000000
I                0.5000000000        0.5000000000        0.0000000000
I                0.5000000000        0.0000000000        0.5000000000
I                0.0000000000        0.5000000000        0.5000000000



     Writing config-only to output data dir ./tmp/CsHgI3.save/ :
     XML data file
     NEW-OLD atomic charge density approx. for the potential

     total cpu time spent up to now is     2475.1 secs

     Self-consistent Calculation

     iteration #  1     ecut=   100.00 Ry     beta= 0.30
     Davidson diagonalization with overlap
     ethr =  1.00E-06,  avg # of iterations =  8.7

     Threshold (ethr) on eigenvalues was too large:
     Diagonalizing with lowered threshold

     Davidson diagonalization with overlap
     ethr =  9.45E-08,  avg # of iterations =  9.4

     total cpu time spent up to now is     2530.5 secs

     total energy              =   -1291.09592222 Ry
     estimated scf accuracy    <       0.00002466 Ry

     iteration #  2     ecut=   100.00 Ry     beta= 0.30
     Davidson diagonalization with overlap
     ethr =  5.87E-08,  avg # of iterations =  2.5

     total cpu time spent up to now is     2548.8 secs

     total energy              =   -1291.09590666 Ry
     estimated scf accuracy    <       0.00000689 Ry

     iteration #  3     ecut=   100.00 Ry     beta= 0.30
     Davidson diagonalization with overlap
     ethr =  1.64E-08,  avg # of iterations =  5.0

     total cpu time spent up to now is     2571.4 secs

     total energy              =   -1291.09591688 Ry
     estimated scf accuracy    <       0.00000140 Ry

     iteration #  4     ecut=   100.00 Ry     beta= 0.30
     Davidson diagonalization with overlap
     ethr =  3.32E-09,  avg # of iterations =  6.0

     total cpu time spent up to now is     2593.7 secs

     total energy              =   -1291.09592120 Ry
     estimated scf accuracy    <       0.00000036 Ry

     iteration #  5     ecut=   100.00 Ry     beta= 0.30
     Davidson diagonalization with overlap
     ethr =  8.56E-10,  avg # of iterations =  6.0

     total cpu time spent up to now is     2617.5 secs

     total energy              =   -1291.09592405 Ry
     estimated scf accuracy    <       0.00000026 Ry

     iteration #  6     ecut=   100.00 Ry     beta= 0.30
     Davidson diagonalization with overlap
     ethr =  6.20E-10,  avg # of iterations =  2.0

     total cpu time spent up to now is     2635.5 secs

     total energy              =   -1291.09592534 Ry
     estimated scf accuracy    <          8.3E-09 Ry

     iteration #  7     ecut=   100.00 Ry     beta= 0.30
     Davidson diagonalization with overlap
     ethr =  1.99E-11,  avg # of iterations = 11.7

     total cpu time spent up to now is     2671.5 secs

     total energy              =   -1291.09592596 Ry
     estimated scf accuracy    <       0.00000002 Ry

     iteration #  8     ecut=   100.00 Ry     beta= 0.30
     Davidson diagonalization with overlap
     ethr =  1.99E-11,  avg # of iterations =  3.5

     total cpu time spent up to now is     2691.2 secs

     total energy              =   -1291.09592627 Ry
     estimated scf accuracy    <          1.4E-10 Ry

     iteration #  9     ecut=   100.00 Ry     beta= 0.30
     Davidson diagonalization with overlap
     ethr =  3.43E-13,  avg # of iterations = 13.0

     total cpu time spent up to now is     2732.9 secs

     total energy              =   -1291.09592641 Ry
     estimated scf accuracy    <          6.8E-10 Ry

     iteration # 10     ecut=   100.00 Ry     beta= 0.30
     Davidson diagonalization with overlap
     ethr =  3.43E-13,  avg # of iterations =  1.0

     total cpu time spent up to now is     2749.2 secs

     total energy              =   -1291.09592648 Ry
     estimated scf accuracy    <          6.9E-10 Ry

     iteration # 11     ecut=   100.00 Ry     beta= 0.30
     Davidson diagonalization with overlap
     ethr =  3.43E-13,  avg # of iterations =  3.2

     total cpu time spent up to now is     2769.8 secs

     total energy              =   -1291.09592652 Ry
     estimated scf accuracy    <          7.7E-11 Ry

     iteration # 12     ecut=   100.00 Ry     beta= 0.30
     Davidson diagonalization with overlap
     ethr =  1.84E-13,  avg # of iterations =  1.8

     total cpu time spent up to now is     2786.9 secs

     total energy              =   -1291.09592654 Ry
     estimated scf accuracy    <          7.6E-11 Ry

     iteration # 13     ecut=   100.00 Ry     beta= 0.30
     Davidson diagonalization with overlap
     ethr =  1.81E-13,  avg # of iterations =  2.0

     total cpu time spent up to now is     2805.1 secs

     total energy              =   -1291.09592654 Ry
     estimated scf accuracy    <          3.7E-12 Ry

     iteration # 14     ecut=   100.00 Ry     beta= 0.30
     Davidson diagonalization with overlap
     ethr =  1.00E-13,  avg # of iterations =  1.5

     total cpu time spent up to now is     2822.0 secs

     total energy              =   -1291.09592655 Ry
     estimated scf accuracy    <          4.0E-12 Ry

     iteration # 15     ecut=   100.00 Ry     beta= 0.30
     Davidson diagonalization with overlap
     ethr =  1.00E-13,  avg # of iterations =  1.0

     total cpu time spent up to now is     2838.1 secs

     total energy              =   -1291.09592655 Ry
     estimated scf accuracy    <          4.8E-12 Ry

     iteration # 16     ecut=   100.00 Ry     beta= 0.30
     Davidson diagonalization with overlap
     ethr =  1.00E-13,  avg # of iterations =  1.0

     total cpu time spent up to now is     2854.3 secs

     total energy              =   -1291.09592655 Ry
     estimated scf accuracy    <          3.5E-12 Ry

     iteration # 17     ecut=   100.00 Ry     beta= 0.30
     Davidson diagonalization with overlap
     ethr =  1.00E-13,  avg # of iterations =  1.0

     total cpu time spent up to now is     2870.5 secs

     total energy              =   -1291.09592655 Ry
     estimated scf accuracy    <          2.9E-12 Ry

     iteration # 18     ecut=   100.00 Ry     beta= 0.30
     Davidson diagonalization with overlap
     ethr =  1.00E-13,  avg # of iterations =  1.0

     total cpu time spent up to now is     2886.7 secs

     total energy              =   -1291.09592655 Ry
     estimated scf accuracy    <          3.4E-12 Ry

     iteration # 19     ecut=   100.00 Ry     beta= 0.30
     Davidson diagonalization with overlap
     ethr =  1.00E-13,  avg # of iterations =  1.0

     total cpu time spent up to now is     2902.9 secs

     total energy              =   -1291.09592655 Ry
     estimated scf accuracy    <          2.3E-13 Ry

     iteration # 20     ecut=   100.00 Ry     beta= 0.30
     Davidson diagonalization with overlap
     ethr =  1.00E-13,  avg # of iterations =  1.0

     total cpu time spent up to now is     2919.1 secs

     total energy              =   -1291.09592655 Ry
     estimated scf accuracy    <          4.5E-14 Ry

     iteration # 21     ecut=   100.00 Ry     beta= 0.30
     Davidson diagonalization with overlap
     ethr =  1.00E-13,  avg # of iterations =  1.0

     total cpu time spent up to now is     2935.2 secs

     total energy              =   -1291.09592655 Ry
     estimated scf accuracy    <          3.0E-14 Ry

     iteration # 22     ecut=   100.00 Ry     beta= 0.30
     Davidson diagonalization with overlap
     ethr =  1.00E-13,  avg # of iterations =  1.0

     total cpu time spent up to now is     2951.3 secs

     total energy              =   -1291.09592655 Ry
     estimated scf accuracy    <          1.9E-14 Ry

     iteration # 23     ecut=   100.00 Ry     beta= 0.30
     Davidson diagonalization with overlap
     ethr =  1.00E-13,  avg # of iterations =  1.0

     total cpu time spent up to now is     2967.7 secs

     total energy              =   -1291.09592655 Ry
     estimated scf accuracy    <          1.9E-14 Ry

     iteration # 24     ecut=   100.00 Ry     beta= 0.30
     Davidson diagonalization with overlap
     ethr =  1.00E-13,  avg # of iterations =  1.0

     total cpu time spent up to now is     2984.0 secs

     total energy              =   -1291.09592655 Ry
     estimated scf accuracy    <          1.7E-14 Ry

     iteration # 25     ecut=   100.00 Ry     beta= 0.30
     Davidson diagonalization with overlap
     ethr =  1.00E-13,  avg # of iterations =  1.0

     total cpu time spent up to now is     3000.0 secs

     End of self-consistent calculation

          k = 0.0000 0.0000 0.0000 ( 20197 PWs)   bands (ev):

   -17.5361  -8.6716  -8.1326  -8.1326  -4.3396  -4.3396  -4.3396  -2.7810
    -2.7810  -2.7810  -2.6158  -2.6158   0.3944   0.3944   0.3944   1.3235
     2.2858   2.2858   2.2858   2.5700   2.5700   2.5700   6.9690   7.7484
     7.7484

          k = 0.0000 0.0000 0.1155 ( 20138 PWs)   bands (ev):

   -17.5360  -8.6522  -8.1405  -8.1320  -4.3383  -4.3383  -4.3358  -2.7850
    -2.7850  -2.7810  -2.7073  -2.6157   0.1931   0.4153   0.4153   1.5456
     2.2559   2.2687   2.2687   2.5439   2.5439   2.7534   7.1442   7.8471
     7.8943

          k = 0.0000 0.0000 0.2310 ( 20162 PWs)   bands (ev):

   -17.5358  -8.6018  -8.1624  -8.1307  -4.3354  -4.3354  -4.3267  -2.9199
    -2.7946  -2.7946  -2.7808  -2.6156  -0.0466   0.4677   0.4677   1.6665
     2.1866   2.2262   2.2262   2.4815   2.4815   3.4412   7.6090   8.1193
     8.2852

          k = 0.0000 0.0000 0.3466 ( 20138 PWs)   bands (ev):

   -17.5356  -8.5441  -8.1904  -8.1294  -4.3324  -4.3324  -4.3175  -3.1211
    -2.8040  -2.8040  -2.7807  -2.6154  -0.1720   0.5229   0.5229   1.6230
     2.1208   2.1814   2.1814   2.4201   2.4201   4.3728   8.1514   8.4541
     8.7696

          k = 0.0000 0.0000-0.4621 ( 20138 PWs)   bands (ev):

   -17.5355  -8.5169  -8.2052  -8.1288  -4.3312  -4.3312  -4.3138  -3.2014
    -2.8079  -2.8079  -2.7807  -2.6154  -0.2082   0.5468   0.5468   1.5922
     2.0945   2.1619   2.1619   2.3951   2.3951   4.8858   8.1677   8.7101
     8.9233

          k = 0.0000 0.1155 0.1155 ( 20136 PWs)   bands (ev):

   -17.5359  -8.6326  -8.1437  -8.1358  -4.3392  -4.3371  -4.3313  -2.7893
    -2.7853  -2.7848  -2.7444  -2.6649  -0.1224   0.4376   0.6920   1.6073
     2.1686   2.2524   2.3107   2.5157   2.6150   2.8749   7.3015   7.9691
     7.9838

          k = 0.0000 0.1155 0.2310 ( 20150 PWs)   bands (ev):

   -17.5357  -8.5817  -8.1632  -8.1360  -4.3371  -4.3341  -4.3245  -2.9304
    -2.7993  -2.7947  -2.7850  -2.6833  -0.3984   0.4936   0.8989   1.6284
     2.0694   2.2117   2.3252   2.4478   2.5900   3.5235   7.7258   8.2267
     8.3268

          k = 0.0000 0.1155 0.3466 ( 20140 PWs)   bands (ev):

   -17.5355  -8.5232  -8.1907  -8.1348  -4.3336  -4.3311  -4.3191  -3.1251
    -2.8093  -2.8043  -2.7851  -2.6857  -0.5365   0.5531   1.0104   1.5729
     1.9950   2.1684   2.3475   2.3806   2.5054   4.4321   8.2499   8.5492
     8.7822

          k = 0.0000 0.1155-0.4621 ( 20168 PWs)   bands (ev):

   -17.5354  -8.4953  -8.2054  -8.1342  -4.3319  -4.3299  -4.3172  -3.2040
    -2.8134  -2.8082  -2.7851  -2.6862  -0.5761   0.5789   1.0492   1.5419
     1.9671   2.1492   2.3533   2.3825   2.4400   4.9420   8.2372   8.7921
     9.0195

          k = 0.0000 0.2310 0.2310 ( 20220 PWs)   bands (ev):

   -17.5355  -8.5293  -8.1702  -8.1470  -4.3380  -4.3310  -4.3225  -2.9968
    -2.8138  -2.8062  -2.7956  -2.7946  -0.7353   0.5594   1.3690   1.5393
     1.9823   2.1760   2.3650   2.3992   2.7658   3.9140   8.0468   8.4630
     8.5789

          k = 0.0000 0.2310 0.3466 ( 20185 PWs)   bands (ev):

   -17.5353  -8.4680  -8.1916  -8.1513  -4.3358  -4.3280  -4.3234  -3.1435
    -2.8552  -2.8218  -2.8050  -2.7955  -0.9057   0.6308   1.4539   1.6044
     1.9426   2.1371   2.2811   2.5084   2.7682   4.6652   8.4860   8.7843
     8.8276

          k = 0.0000 0.2310-0.4621 ( 20168 PWs)   bands (ev):

   -17.5352  -8.4379  -8.2061  -8.1518  -4.3335  -4.3267  -4.3251  -3.2149
    -2.8624  -2.8267  -2.8091  -2.7956  -0.9550   0.6623   1.4207   1.6635
     1.9335   2.1189   2.2468   2.6450   2.6589   5.1471   8.2408   8.9490
     8.9794

          k = 0.0000 0.3466 0.3466 ( 20184 PWs)   bands (ev):

   -17.5351  -8.4012  -8.1964  -8.1744  -4.3365  -4.3289  -4.3248  -3.1992
    -2.9922  -2.8346  -2.8060  -2.8055  -1.0946   0.7174   1.3533   1.8664
     1.9406   2.1050   2.1746   2.7310   2.9975   5.1738   8.6347   8.6748
     8.7619

          k = 0.0000 0.3466-0.4621 ( 20148 PWs)   bands (ev):

   -17.5350  -8.3660  -8.2068  -8.1827  -4.3350  -4.3327  -4.3235  -3.2450
    -3.0264  -2.8399  -2.8099  -2.8060  -1.1493   0.7568   1.3151   1.9140
     1.9505   2.0892   2.1298   2.8479   3.0596   5.5804   8.0567   8.5895
     9.0629

          k = 0.0000-0.4621-0.4621 ( 20160 PWs)   bands (ev):

   -17.5349  -8.3242  -8.2071  -8.2071  -4.3356  -4.3356  -4.3222  -3.2735
    -3.0788  -2.8454  -2.8103  -2.8103  -1.2056   0.8004   1.2758   1.9618
     1.9618   2.0770   2.0770   2.9253   3.2448   5.9577   7.9669   7.9669
     9.0125

          k = 0.1155 0.1155 0.1155 ( 20131 PWs)   bands (ev):

   -17.5358  -8.6130  -8.1430  -8.1430  -4.3388  -4.3388  -4.3264  -2.7893
    -2.7893  -2.7892  -2.7443  -2.7443  -0.3925   0.7159   0.7159   1.6170
     2.1466   2.1466   2.3704   2.6024   2.6024   2.9901   7.4377   8.0644
     8.0644

          k = 0.1155 0.1155 0.2310 ( 20157 PWs)   bands (ev):

   -17.5356  -8.5617  -8.1634  -8.1412  -4.3380  -4.3371  -4.3206  -2.9376
    -2.7999  -2.7990  -2.7893  -2.7443  -0.6815   0.7767   1.0052   1.5972
     2.0049   2.1370   2.4057   2.5643   2.5830   3.5976   7.8096   8.3019
     8.3567

          k = 0.1155 0.1155 0.3466 ( 20152 PWs)   bands (ev):

   -17.5354  -8.5026  -8.1906  -8.1395  -4.3372  -4.3311  -4.3190  -3.1286
    -2.8104  -2.8084  -2.7894  -2.7443  -0.8308   0.8433   1.1573   1.5438
     1.8926   2.1873   2.4218   2.4568   2.5111   4.4856   8.2886   8.6087
     8.7970

          k = 0.1155 0.1155-0.4621 ( 20172 PWs)   bands (ev):

   -17.5353  -8.4742  -8.2054  -8.1388  -4.3368  -4.3262  -4.3208  -3.2064
    -2.8148  -2.8123  -2.7894  -2.7444  -0.8740   0.8730   1.2056   1.5161
     1.8492   2.2778   2.3337   2.4359   2.4766   4.9939   8.2601   8.7655
     8.8164

          k = 0.1155 0.2310 0.2310 ( 20142 PWs)   bands (ev):

   -17.5354  -8.5095  -8.1691  -8.1518  -4.3399  -4.3380  -4.3177  -2.9968
    -2.8595  -2.8105  -2.7996  -2.7994  -1.0154   0.9304   1.3945   1.5249
     1.9173   2.0734   2.4843   2.5205   2.7608   3.9681   8.0473   8.4940
     8.5557

          k = 0.1155 0.2310 0.3466 ( 20152 PWs)   bands (ev):

   -17.5352  -8.4483  -8.1908  -8.1542  -4.3405  -4.3349  -4.3201  -3.1452
    -2.8924  -2.8218  -2.8095  -2.7997  -1.1935   1.0202   1.4564   1.6103
     1.8254   2.1628   2.4359   2.5558   2.7622   4.7060   8.3939   8.7353
     8.8166

          k = 0.1155 0.2310-0.4621 ( 20180 PWs)   bands (ev):

   -17.5351  -8.4180  -8.2055  -8.1540  -4.3409  -4.3293  -4.3250  -3.2164
    -2.8968  -2.8264  -2.8135  -2.7998  -1.2455   1.0595   1.4300   1.6552
     1.7803   2.3132   2.3201   2.6522   2.6617   5.1894   8.1840   8.6800
     8.8513

          k = 0.1155 0.3466 0.3466 ( 20188 PWs)   bands (ev):

   -17.5350  -8.3826  -8.1949  -8.1750  -4.3406  -4.3387  -4.3240  -3.1992
    -3.0166  -2.8339  -2.8099  -2.8098  -1.3897   1.1327   1.3730   1.7625
     1.8087   2.2380   2.3772   2.7422   2.9964   5.2066   8.5033   8.5212
     8.6526

          k = 0.1155 0.3466-0.4621 ( 20164 PWs)   bands (ev):

   -17.5349  -8.3477  -8.2055  -8.1820  -4.3416  -4.3375  -4.3273  -3.2452
    -3.0465  -2.8389  -2.8140  -2.8100  -1.4469   1.1842   1.3401   1.7755
     1.7880   2.3128   2.3159   2.8507   3.0584   5.6178   7.9678   8.4631
     8.7507

          k = 0.1155-0.4621-0.4621 ( 20184 PWs)   bands (ev):

   -17.5348  -8.3064  -8.2055  -8.2055  -4.3407  -4.3407  -4.3294  -3.2734
    -3.0950  -2.8440  -2.8142  -2.8142  -1.5056   1.2436   1.3054   1.7787
     1.7787   2.3120   2.3120   2.9281   3.2465   6.0037   7.8699   7.8699
     8.7511

          k = 0.2310 0.2310 0.2310 ( 20134 PWs)   bands (ev):

   -17.5352  -8.4577  -8.1664  -8.1664  -4.3443  -4.3443  -4.3169  -2.9970
    -2.9970  -2.8123  -2.8092  -2.8092  -1.3884   1.4633   1.4633   1.4872
     1.9181   1.9181   2.5893   2.7472   2.7472   4.2474   8.0915   8.6140
     8.6140

          k = 0.2310 0.2310 0.3466 ( 20190 PWs)   bands (ev):

   -17.5350  -8.3966  -8.1891  -8.1637  -4.3488  -4.3435  -4.3229  -3.1541
    -2.9972  -2.8229  -2.8186  -2.8098  -1.5991   1.4494   1.5570   1.6247
     1.7814   2.2166   2.6547   2.7265   2.7590   4.8881   8.2382   8.5240
     8.8182

          k = 0.2310 0.2310-0.4621 ( 20162 PWs)   bands (ev):

   -17.5349  -8.3656  -8.2038  -8.1626  -4.3506  -4.3393  -4.3293  -3.2232
    -2.9973  -2.8276  -2.8225  -2.8097  -1.6613   1.4346   1.6340   1.6445
     1.6827   2.5352   2.5661   2.6873   2.7050   5.3575   7.9726   8.4353
     8.6089

          k = 0.2310 0.3466 0.3466 ( 20179 PWs)   bands (ev):

   -17.5348  -8.3347  -8.1913  -8.1782  -4.3524  -4.3505  -4.3320  -3.1992
    -3.0928  -2.8321  -2.8200  -2.8193  -1.8358   1.4184   1.5999   1.6340
     1.9723   2.4351   2.6948   2.7755   2.9909   5.3450   8.1657   8.2207
     8.4132

          k = 0.2310 0.3466-0.4621 ( 20160 PWs)   bands (ev):

   -17.5347  -8.3012  -8.2022  -8.1817  -4.3548  -4.3491  -4.3391  -3.2463
    -3.1107  -2.8365  -2.8237  -2.8195  -1.9060   1.4004   1.6118   1.6205
     2.0177   2.5997   2.6208   2.8586   3.0510   5.7570   7.7159   8.1710
     8.3013

          k = 0.2310-0.4621-0.4621 ( 20196 PWs)   bands (ev):

   -17.5347  -8.2620  -8.2015  -8.2015  -4.3530  -4.3530  -4.3466  -3.2732
    -3.1479  -2.8408  -2.8235  -2.8235  -1.9784   1.3783   1.6145   1.6145
     2.1135   2.6081   2.6081   2.9347   3.2506   6.1583   7.6078   7.6078
     8.2503

          k = 0.3466 0.3466 0.3466 ( 20162 PWs)   bands (ev):

   -17.5346  -8.2788  -8.1877  -8.1877  -4.3605  -4.3605  -4.3453  -3.1993
    -3.1993  -2.8318  -2.8286  -2.8286  -2.1130   1.4515   1.5519   1.5519
     2.5762   2.5762   2.8337   2.9734   2.9734   5.7067   7.9506   7.9506
     7.9743

          k = 0.3466 0.3466-0.4621 ( 20172 PWs)   bands (ev):

   -17.5346  -8.2479  -8.1989  -8.1862  -4.3646  -4.3606  -4.3540  -3.2528
    -3.1993  -2.8349  -2.8324  -2.8288  -2.1972   1.4523   1.5243   1.5446
     2.6210   2.8133   2.8831   2.9489   3.0707   6.0900   7.4411   7.8480
     7.9904

          k = 0.3466-0.4621-0.4621 ( 20168 PWs)   bands (ev):

   -17.5345  -8.2157  -8.1976  -8.1976  -4.3654  -4.3654  -4.3635  -3.2730
    -3.2288  -2.8377  -2.8327  -2.8327  -2.2863   1.4535   1.5172   1.5172
     2.8488   2.8488   2.9172   2.9414   3.2547   6.4889   7.3252   7.3252
     7.8788

          k =-0.4621-0.4621-0.4621 ( 20336 PWs)   bands (ev):

   -17.5344  -8.1959  -8.1959  -8.1959  -4.3705  -4.3705  -4.3705  -3.2729
    -3.2729  -2.8364  -2.8364  -2.8364  -2.3819   1.4853   1.4853   1.4853
     2.9442   2.9442   2.9442   3.2564   3.2564   7.2050   7.2050   7.2050
     7.7455

     the Fermi energy is     3.1352 ev

!    total energy              =   -1291.09592655 Ry
     estimated scf accuracy    <          7.4E-15 Ry
     smearing contrib. (-TS)   =      -0.00012475 Ry
     internal energy E=F+TS    =   -1291.09580180 Ry

     The total energy is F=E-TS. E is the sum of the following terms:
     one-electron contribution =     -54.41353523 Ry
     hartree contribution      =      48.75294944 Ry
     xc contribution           =    -100.65948018 Ry
     ewald contribution        =    -145.33542793 Ry
     one-center paw contrib.   =   -1039.44030790 Ry

     convergence has been achieved in  25 iterations

     Forces acting on atoms (cartesian axes, Ry/au):

     atom    1 type  1   force =     0.00000000    0.00000000    0.00000000
     atom    2 type  2   force =     0.00000000    0.00000000    0.00000000
     atom    3 type  3   force =     0.00000000    0.00000000    0.00000000
     atom    4 type  3   force =     0.00000000    0.00000000    0.00000000
     atom    5 type  3   force =     0.00000000    0.00000000    0.00000000

     Total force =     0.000000     Total SCF correction =     0.000000


     Computing stress (Cartesian axis) and pressure

          total   stress  (Ry/bohr**3)                   (kbar)     P=        0.74
   0.00000503   0.00000000   0.00000000            0.74        0.00        0.00
   0.00000000   0.00000503   0.00000000            0.00        0.74        0.00
   0.00000000   0.00000000   0.00000503            0.00        0.00        0.74

     Energy error            =      5.1E-04 Ry
     Gradient error          =      0.0E+00 Ry/Bohr
     Cell gradient error     =      7.4E-01 kbar

     number of scf cycles    =   6
     number of bfgs steps    =   5

     enthalpy           old  =   -1291.0954147862 Ry
     enthalpy           new  =   -1291.0959265529 Ry

     CASE: enthalpy          _new < enthalpy          _old

     new trust radius        =       0.0101606382 bohr
     new conv_thr            =            1.0E-14 Ry

     new unit-cell volume =   1519.01644 a.u.^3 (   225.09501 Ang^3 )
     density =      5.26878 g/cm^3

CELL_PARAMETERS (angstrom)
   6.083058002   0.000000000   0.000000000
   0.000000000   6.083058002   0.000000000
   0.000000000   0.000000000   6.083058002

ATOMIC_POSITIONS (crystal)
Cs               0.0000000000        0.0000000000        0.0000000000
Hg               0.5000000000        0.5000000000        0.5000000000
I                0.5000000000        0.5000000000        0.0000000000
I                0.5000000000        0.0000000000        0.5000000000
I                0.0000000000        0.5000000000        0.5000000000



     Writing config-only to output data dir ./tmp/CsHgI3.save/ :
     XML data file
     NEW-OLD atomic charge density approx. for the potential

     total cpu time spent up to now is     3038.8 secs

     Self-consistent Calculation

     iteration #  1     ecut=   100.00 Ry     beta= 0.30
     Davidson diagonalization with overlap
     ethr =  1.00E-06,  avg # of iterations =  3.0

     Threshold (ethr) on eigenvalues was too large:
     Diagonalizing with lowered threshold

     Davidson diagonalization with overlap
     ethr =  1.20E-08,  avg # of iterations = 10.1

     total cpu time spent up to now is     3088.4 secs

     total energy              =   -1291.09594136 Ry
     estimated scf accuracy    <       0.00000100 Ry

     iteration #  2     ecut=   100.00 Ry     beta= 0.30
     Davidson diagonalization with overlap
     ethr =  2.38E-09,  avg # of iterations =  7.5

     total cpu time spent up to now is     3111.9 secs

     total energy              =   -1291.09594165 Ry
     estimated scf accuracy    <       0.00000030 Ry

     iteration #  3     ecut=   100.00 Ry     beta= 0.30
     Davidson diagonalization with overlap
     ethr =  7.05E-10,  avg # of iterations =  4.3

     total cpu time spent up to now is     3131.8 secs

     total energy              =   -1291.09594170 Ry
     estimated scf accuracy    <       0.00000008 Ry

     iteration #  4     ecut=   100.00 Ry     beta= 0.30
     Davidson diagonalization with overlap
     ethr =  1.95E-10,  avg # of iterations =  5.8

     total cpu time spent up to now is     3154.7 secs

     total energy              =   -1291.09594192 Ry
     estimated scf accuracy    <       0.00000002 Ry

     iteration #  5     ecut=   100.00 Ry     beta= 0.30
     Davidson diagonalization with overlap
     ethr =  4.44E-11,  avg # of iterations =  5.3

     total cpu time spent up to now is     3176.5 secs

     total energy              =   -1291.09594205 Ry
     estimated scf accuracy    <          1.4E-09 Ry

     iteration #  6     ecut=   100.00 Ry     beta= 0.30
     Davidson diagonalization with overlap
     ethr =  3.25E-12,  avg # of iterations =  9.5

     total cpu time spent up to now is     3205.0 secs

     total energy              =   -1291.09594211 Ry
     estimated scf accuracy    <          4.0E-10 Ry

     iteration #  7     ecut=   100.00 Ry     beta= 0.30
     Davidson diagonalization with overlap
     ethr =  9.50E-13,  avg # of iterations =  5.4

     total cpu time spent up to now is     3226.8 secs

     total energy              =   -1291.09594214 Ry
     estimated scf accuracy    <          8.3E-11 Ry

     iteration #  8     ecut=   100.00 Ry     beta= 0.30
     Davidson diagonalization with overlap
     ethr =  1.97E-13,  avg # of iterations =  6.7

     total cpu time spent up to now is     3249.5 secs

     total energy              =   -1291.09594215 Ry
     estimated scf accuracy    <          1.9E-11 Ry

     iteration #  9     ecut=   100.00 Ry     beta= 0.30
     Davidson diagonalization with overlap
     ethr =  1.00E-13,  avg # of iterations =  2.0

     total cpu time spent up to now is     3267.0 secs

     total energy              =   -1291.09594216 Ry
     estimated scf accuracy    <          7.1E-13 Ry

     iteration # 10     ecut=   100.00 Ry     beta= 0.30
     Davidson diagonalization with overlap
     ethr =  1.00E-13,  avg # of iterations =  1.3

     total cpu time spent up to now is     3283.2 secs

     total energy              =   -1291.09594216 Ry
     estimated scf accuracy    <          2.1E-12 Ry

     iteration # 11     ecut=   100.00 Ry     beta= 0.30
     Davidson diagonalization with overlap
     ethr =  1.00E-13,  avg # of iterations =  1.0

     total cpu time spent up to now is     3299.4 secs

     total energy              =   -1291.09594216 Ry
     estimated scf accuracy    <          1.2E-13 Ry

     iteration # 12     ecut=   100.00 Ry     beta= 0.30
     Davidson diagonalization with overlap
     ethr =  1.00E-13,  avg # of iterations =  1.0

     total cpu time spent up to now is     3315.5 secs

     End of self-consistent calculation

          k = 0.0000 0.0000 0.0000 ( 20197 PWs)   bands (ev):

   -17.5760  -8.6949  -8.1616  -8.1616  -4.3784  -4.3784  -4.3784  -2.8102
    -2.8102  -2.8102  -2.6480  -2.6480   0.3728   0.3728   0.3728   1.2852
     2.2544   2.2544   2.2544   2.5354   2.5354   2.5354   6.9296   7.7180
     7.7180

          k = 0.0000 0.0000 0.1154 ( 20138 PWs)   bands (ev):

   -17.5759  -8.6756  -8.1694  -8.1611  -4.3772  -4.3772  -4.3747  -2.8141
    -2.8141  -2.8101  -2.7380  -2.6479   0.1680   0.3937   0.3937   1.5112
     2.2248   2.2374   2.2374   2.5095   2.5095   2.7169   7.1038   7.8161
     7.8630

          k = 0.0000 0.0000 0.2307 ( 20162 PWs)   bands (ev):

   -17.5757  -8.6257  -8.1912  -8.1597  -4.3743  -4.3743  -4.3658  -2.9476
    -2.8235  -2.8235  -2.8100  -2.6478  -0.0750   0.4459   0.4459   1.6362
     2.1563   2.1950   2.1950   2.4478   2.4478   3.3999   7.5663   8.0867
     8.2516

          k = 0.0000 0.0000 0.3461 ( 20138 PWs)   bands (ev):

   -17.5755  -8.5686  -8.2191  -8.1584  -4.3714  -4.3714  -4.3569  -3.1462
    -2.8328  -2.8328  -2.8099  -2.6476  -0.2024   0.5010   0.5010   1.5950
     2.0912   2.1501   2.1501   2.3872   2.3872   4.3257   8.1085   8.4187
     8.7325

          k = 0.0000 0.0000-0.4615 ( 20138 PWs)   bands (ev):

   -17.5754  -8.5415  -8.2338  -8.1578  -4.3702  -4.3702  -4.3532  -3.2254
    -2.8367  -2.8367  -2.8098  -2.6476  -0.2394   0.5249   0.5249   1.5649
     2.0652   2.1305   2.1305   2.3626   2.3626   4.8344   8.1313   8.6707
     8.8897

          k = 0.0000 0.1154 0.1154 ( 20136 PWs)   bands (ev):

   -17.5758  -8.6563  -8.1726  -8.1648  -4.3780  -4.3760  -4.3703  -2.8183
    -2.8144  -2.8139  -2.7747  -2.6962  -0.1465   0.4159   0.6679   1.5747
     2.1381   2.2212   2.2792   2.4815   2.5799   2.8374   7.2603   7.9375
     7.9522

          k = 0.0000 0.1154 0.2307 ( 20150 PWs)   bands (ev):

   -17.5756  -8.6058  -8.1920  -8.1650  -4.3761  -4.3731  -4.3637  -2.9580
    -2.8282  -2.8237  -2.8141  -2.7144  -0.4237   0.4717   0.8729   1.5989
     2.0395   2.1807   2.2936   2.4143   2.5551   3.4820   7.6828   8.1937
     8.2933

          k = 0.0000 0.1154 0.3461 ( 20140 PWs)   bands (ev):

   -17.5754  -8.5479  -8.2193  -8.1638  -4.3726  -4.3702  -4.3584  -3.1502
    -2.8380  -2.8331  -2.8142  -2.7168  -0.5630   0.5310   0.9836   1.5452
     1.9656   2.1373   2.3156   2.3480   2.4715   4.3849   8.2064   8.5139
     8.7457

          k = 0.0000 0.1154-0.4615 ( 20168 PWs)   bands (ev):

   -17.5753  -8.5202  -8.2341  -8.1632  -4.3709  -4.3689  -4.3566  -3.2281
    -2.8421  -2.8370  -2.8142  -2.7172  -0.6031   0.5568   1.0222   1.5147
     1.9378   2.1179   2.3211   2.3504   2.4067   4.8907   8.2003   8.7522
     8.9852

          k = 0.0000 0.2307 0.2307 ( 20220 PWs)   bands (ev):

   -17.5754  -8.5540  -8.1990  -8.1759  -4.3770  -4.3701  -4.3617  -3.0239
    -2.8425  -2.8351  -2.8246  -2.8235  -0.7603   0.5371   1.3405   1.5113
     1.9529   2.1452   2.3321   2.3667   2.7292   3.8710   8.0032   8.4289
     8.5440

          k = 0.0000 0.2307 0.3461 ( 20185 PWs)   bands (ev):

   -17.5752  -8.4933  -8.2203  -8.1802  -4.3748  -4.3671  -4.3626  -3.1686
    -2.8833  -2.8503  -2.8338  -2.8244  -0.9313   0.6081   1.4269   1.5749
     1.9133   2.1064   2.2491   2.4747   2.7315   4.6179   8.4428   8.7449
     8.7892

          k = 0.0000 0.2307-0.4615 ( 20168 PWs)   bands (ev):

   -17.5751  -8.4635  -8.2347  -8.1807  -4.3725  -4.3658  -4.3644  -3.2391
    -2.8904  -2.8551  -2.8378  -2.8246  -0.9809   0.6396   1.3942   1.6339
     1.9042   2.0881   2.2153   2.6110   2.6221   5.0957   8.2018   8.9014
     8.9384

          k = 0.0000 0.3461 0.3461 ( 20184 PWs)   bands (ev):

   -17.5750  -8.4273  -8.2250  -8.2032  -4.3755  -4.3680  -4.3640  -3.2241
    -3.0177  -2.8629  -2.8348  -2.8343  -1.1206   0.6942   1.3271   1.8365
     1.9111   2.0746   2.1434   2.6956   2.9573   5.1245   8.5914   8.6311
     8.7205

          k = 0.0000 0.3461-0.4615 ( 20148 PWs)   bands (ev):

   -17.5749  -8.3924  -8.2354  -8.2114  -4.3741  -4.3718  -4.3627  -3.2693
    -3.0514  -2.8681  -2.8386  -2.8348  -1.1756   0.7333   1.2891   1.8842
     1.9207   2.0588   2.0992   2.8123   3.0179   5.5279   8.0170   8.5456
     9.0216

          k = 0.0000-0.4615-0.4615 ( 20160 PWs)   bands (ev):

   -17.5749  -8.3510  -8.2357  -8.2357  -4.3747  -4.3747  -4.3614  -3.2976
    -3.1028  -2.8735  -2.8390  -2.8390  -1.2321   0.7766   1.2500   1.9319
     1.9319   2.0468   2.0468   2.8891   3.2011   5.9021   7.9274   7.9274
     8.9735

          k = 0.1154 0.1154 0.1154 ( 20131 PWs)   bands (ev):

   -17.5757  -8.6368  -8.1719  -8.1719  -4.3777  -4.3777  -4.3656  -2.8184
    -2.8184  -2.8182  -2.7746  -2.7746  -0.4153   0.6917   0.6917   1.5857
     2.1162   2.1162   2.3384   2.5675   2.5675   2.9518   7.3959   8.0325
     8.0325

          k = 0.1154 0.1154 0.2307 ( 20157 PWs)   bands (ev):

   -17.5755  -8.5861  -8.1922  -8.1702  -4.3769  -4.3760  -4.3599  -2.9652
    -2.8287  -2.8279  -2.8184  -2.7746  -0.7045   0.7523   0.9785   1.5682
     1.9752   2.1065   2.3735   2.5300   2.5481   3.5560   7.7668   8.2688
     8.3234

          k = 0.1154 0.1154 0.3461 ( 20152 PWs)   bands (ev):

   -17.5753  -8.5275  -8.2193  -8.1685  -4.3761  -4.3702  -4.3583  -3.1537
    -2.8391  -2.8372  -2.8184  -2.7746  -0.8546   0.8186   1.1294   1.5163
     1.8634   2.1562   2.3895   2.4229   2.4774   4.4385   8.2456   8.5734
     8.7611

          k = 0.1154 0.1154-0.4615 ( 20172 PWs)   bands (ev):

   -17.5752  -8.4993  -8.2341  -8.1678  -4.3757  -4.3653  -4.3601  -3.2305
    -2.8434  -2.8410  -2.8185  -2.7746  -0.8981   0.8483   1.1774   1.4891
     1.8201   2.2460   2.3008   2.4035   2.4433   4.9426   8.2228   8.7201
     8.7765

          k = 0.1154 0.2307 0.2307 ( 20142 PWs)   bands (ev):

   -17.5753  -8.5344  -8.1979  -8.1807  -4.3787  -4.3769  -4.3571  -3.0239
    -2.8880  -2.8392  -2.8285  -2.8283  -1.0373   0.9047   1.3658   1.4971
     1.8880   2.0430   2.4514   2.4866   2.7243   3.9252   8.0048   8.4602
     8.5213

          k = 0.1154 0.2307 0.3461 ( 20152 PWs)   bands (ev):

   -17.5751  -8.4738  -8.2195  -8.1831  -4.3793  -4.3739  -4.3594  -3.1703
    -2.9204  -2.8503  -2.8382  -2.8286  -1.2157   0.9940   1.4294   1.5809
     1.7964   2.1315   2.4027   2.5221   2.7256   4.6588   8.3519   8.6943
     8.7785

          k = 0.1154 0.2307-0.4615 ( 20180 PWs)   bands (ev):

   -17.5750  -8.4438  -8.2341  -8.1830  -4.3798  -4.3685  -4.3643  -3.2406
    -2.9247  -2.8549  -2.8422  -2.8287  -1.2679   1.0331   1.4033   1.6259
     1.7514   2.2814   2.2871   2.6181   2.6253   5.1382   8.1441   8.6379
     8.8111

          k = 0.1154 0.3461 0.3461 ( 20188 PWs)   bands (ev):

   -17.5749  -8.4089  -8.2236  -8.2038  -4.3795  -4.3776  -4.3633  -3.2241
    -3.0422  -2.8622  -2.8386  -2.8385  -1.4120   1.1056   1.3465   1.7332
     1.7796   2.2064   2.3449   2.7068   2.9563   5.1575   8.4604   8.4774
     8.6114

          k = 0.1154 0.3461-0.4615 ( 20164 PWs)   bands (ev):

   -17.5749  -8.3744  -8.2341  -8.2108  -4.3805  -4.3765  -4.3665  -3.2695
    -3.0717  -2.8671  -2.8427  -2.8387  -1.4695   1.1567   1.3138   1.7464
     1.7588   2.2811   2.2839   2.8150   3.0168   5.5654   7.9277   8.4195
     8.7100

          k = 0.1154-0.4615-0.4615 ( 20184 PWs)   bands (ev):

   -17.5748  -8.3334  -8.2341  -8.2341  -4.3797  -4.3797  -4.3685  -3.2975
    -3.1192  -2.8722  -2.8428  -2.8428  -1.5284   1.2157   1.2792   1.7496
     1.7496   2.2803   2.2803   2.8918   3.2027   5.9480   7.8302   7.8302
     8.7115

          k = 0.2307 0.2307 0.2307 ( 20134 PWs)   bands (ev):

   -17.5751  -8.4832  -8.1953  -8.1953  -4.3831  -4.3831  -4.3563  -3.0241
    -3.0241  -2.8410  -2.8379  -2.8379  -1.4079   1.4343   1.4343   1.4599
     1.8883   1.8883   2.5557   2.7110   2.7110   4.2039   8.0509   8.5791
     8.5791

          k = 0.2307 0.2307 0.3461 ( 20190 PWs)   bands (ev):

   -17.5749  -8.4228  -8.2178  -8.1926  -4.3874  -4.3823  -4.3622  -3.1793
    -3.0243  -2.8514  -2.8473  -2.8385  -1.6180   1.4224   1.5278   1.5958
     1.7517   2.1838   2.6205   2.6910   2.7222   4.8413   8.1984   8.4807
     8.7801

          k = 0.2307 0.2307-0.4615 ( 20162 PWs)   bands (ev):

   -17.5749  -8.3921  -8.2325  -8.1915  -4.3892  -4.3782  -4.3684  -3.2474
    -3.0243  -2.8560  -2.8511  -2.8385  -1.6803   1.4076   1.6052   1.6160
     1.6522   2.5020   2.5287   2.6521   2.6705   5.3065   7.9319   8.3964
     8.5694

          k = 0.2307 0.3461 0.3461 ( 20179 PWs)   bands (ev):

   -17.5748  -8.3617  -8.2200  -8.2071  -4.3910  -4.3892  -4.3711  -3.2241
    -3.1185  -2.8604  -2.8486  -2.8479  -1.8537   1.3914   1.5713   1.6052
     1.9398   2.4015   2.6596   2.7402   2.9511   5.2966   8.1258   8.1782
     8.3714

          k = 0.2307 0.3461-0.4615 ( 20160 PWs)   bands (ev):

   -17.5747  -8.3285  -8.2309  -8.2105  -4.3933  -4.3878  -4.3780  -3.2706
    -3.1360  -2.8648  -2.8522  -2.8481  -1.9238   1.3733   1.5832   1.5919
     1.9845   2.5660   2.5860   2.8229   3.0095   5.7052   7.6762   8.1284
     8.2633

          k = 0.2307-0.4615-0.4615 ( 20196 PWs)   bands (ev):

   -17.5746  -8.2898  -8.2302  -8.2302  -4.3917  -4.3917  -4.3853  -3.2973
    -3.1725  -2.8690  -2.8520  -2.8520  -1.9961   1.3512   1.5858   1.5858
     2.0789   2.5744   2.5744   2.8984   3.2068   6.1028   7.5687   7.5687
     8.2125

          k = 0.3461 0.3461 0.3461 ( 20162 PWs)   bands (ev):

   -17.5746  -8.3065  -8.2165  -8.2165  -4.3989  -4.3989  -4.3841  -3.2241
    -3.2241  -2.8601  -2.8571  -2.8571  -2.1288   1.4239   1.5234   1.5234
     2.5408   2.5408   2.7981   2.9340   2.9340   5.6582   7.9095   7.9095
     7.9355

          k = 0.3461 0.3461-0.4615 ( 20172 PWs)   bands (ev):

   -17.5745  -8.2759  -8.2277  -8.2150  -4.4029  -4.3990  -4.3926  -3.2771
    -3.2241  -2.8633  -2.8609  -2.8573  -2.2125   1.4246   1.4958   1.5161
     2.5850   2.7780   2.8472   2.9100   3.0286   6.0386   7.4028   7.8075
     7.9539

          k = 0.3461-0.4615-0.4615 ( 20168 PWs)   bands (ev):

   -17.5744  -8.2442  -8.2263  -8.2263  -4.4037  -4.4037  -4.4019  -3.2971
    -3.2533  -2.8660  -2.8611  -2.8611  -2.3011   1.4255   1.4888   1.4888
     2.8131   2.8131   2.8764   2.9050   3.2108   6.4342   7.2877   7.2877
     7.8428

          k =-0.4615-0.4615-0.4615 ( 20336 PWs)   bands (ev):

   -17.5744  -8.2247  -8.2247  -8.2247  -4.4087  -4.4087  -4.4087  -3.2971
    -3.2971  -2.8648  -2.8648  -2.8648  -2.3960   1.4569   1.4569   1.4569
     2.9077   2.9077   2.9077   3.2125   3.2125   7.1683   7.1683   7.1683
     7.7092

     the Fermi energy is     3.0934 ev

!    total energy              =   -1291.09594217 Ry
     estimated scf accuracy    <          6.6E-15 Ry
     smearing contrib. (-TS)   =      -0.00012643 Ry
     internal energy E=F+TS    =   -1291.09581573 Ry

     The total energy is F=E-TS. E is the sum of the following terms:
     one-electron contribution =     -54.70101959 Ry
     hartree contribution      =      48.84502030 Ry
     xc contribution           =    -100.65400108 Ry
     ewald contribution        =    -145.14586009 Ry
     one-center paw contrib.   =   -1039.43995527 Ry

     convergence has been achieved in  12 iterations

     Forces acting on atoms (cartesian axes, Ry/au):

     atom    1 type  1   force =     0.00000000    0.00000000    0.00000000
     atom    2 type  2   force =     0.00000000    0.00000000    0.00000000
     atom    3 type  3   force =     0.00000000    0.00000000    0.00000000
     atom    4 type  3   force =     0.00000000    0.00000000    0.00000000
     atom    5 type  3   force =     0.00000000    0.00000000    0.00000000

     Total force =     0.000000     Total SCF correction =     0.000000


     Computing stress (Cartesian axis) and pressure

          total   stress  (Ry/bohr**3)                   (kbar)     P=        0.04
   0.00000025   0.00000000   0.00000000            0.04        0.00        0.00
   0.00000000   0.00000025   0.00000000            0.00        0.04        0.00
   0.00000000   0.00000000   0.00000025            0.00        0.00        0.04

     Energy error            =      1.6E-05 Ry
     Gradient error          =      0.0E+00 Ry/Bohr
     Cell gradient error     =      3.7E-02 kbar

     number of scf cycles    =   7
     number of bfgs steps    =   6

     enthalpy           old  =   -1291.0959265529 Ry
     enthalpy           new  =   -1291.0959421658 Ry

     CASE: enthalpy          _new < enthalpy          _old

     new trust radius        =       0.0005438269 bohr
     new conv_thr            =            1.0E-14 Ry

     new unit-cell volume =   1519.33439 a.u.^3 (   225.14213 Ang^3 )
     density =      5.26767 g/cm^3

CELL_PARAMETERS (angstrom)
   6.083482398   0.000000000   0.000000000
   0.000000000   6.083482398   0.000000000
   0.000000000   0.000000000   6.083482398

ATOMIC_POSITIONS (crystal)
Cs               0.0000000000        0.0000000000        0.0000000000
Hg               0.5000000000        0.5000000000        0.5000000000
I                0.5000000000        0.5000000000        0.0000000000
I                0.5000000000        0.0000000000        0.5000000000
I                0.0000000000        0.5000000000        0.5000000000



     Writing config-only to output data dir ./tmp/CsHgI3.save/ :
     XML data file
     NEW-OLD atomic charge density approx. for the potential

     total cpu time spent up to now is     3354.8 secs

     Self-consistent Calculation

     iteration #  1     ecut=   100.00 Ry     beta= 0.30
     Davidson diagonalization with overlap
     ethr =  1.00E-06,  avg # of iterations =  2.0

     Threshold (ethr) on eigenvalues was too large:
     Diagonalizing with lowered threshold

     Davidson diagonalization with overlap
     ethr =  4.56E-11,  avg # of iterations =  9.7

     total cpu time spent up to now is     3402.7 secs

     total energy              =   -1291.09594220 Ry
     estimated scf accuracy    <          3.4E-09 Ry

     iteration #  2     ecut=   100.00 Ry     beta= 0.30
     Davidson diagonalization with overlap
     ethr =  8.10E-12,  avg # of iterations =  8.4

     total cpu time spent up to now is     3427.8 secs

     total energy              =   -1291.09594220 Ry
     estimated scf accuracy    <          9.3E-10 Ry

     iteration #  3     ecut=   100.00 Ry     beta= 0.30
     Davidson diagonalization with overlap
     ethr =  2.22E-12,  avg # of iterations =  2.4

     total cpu time spent up to now is     3446.8 secs

     total energy              =   -1291.09594220 Ry
     estimated scf accuracy    <          3.3E-10 Ry

     iteration #  4     ecut=   100.00 Ry     beta= 0.30
     Davidson diagonalization with overlap
     ethr =  7.96E-13,  avg # of iterations =  4.3

     total cpu time spent up to now is     3468.1 secs

     total energy              =   -1291.09594220 Ry
     estimated scf accuracy    <          5.4E-11 Ry

     iteration #  5     ecut=   100.00 Ry     beta= 0.30
     Davidson diagonalization with overlap
     ethr =  1.29E-13,  avg # of iterations =  7.7

     total cpu time spent up to now is     3492.2 secs

     total energy              =   -1291.09594221 Ry
     estimated scf accuracy    <          5.9E-12 Ry

     iteration #  6     ecut=   100.00 Ry     beta= 0.30
     Davidson diagonalization with overlap
     ethr =  1.00E-13,  avg # of iterations =  2.2

     total cpu time spent up to now is     3510.0 secs

     total energy              =   -1291.09594221 Ry
     estimated scf accuracy    <          1.2E-12 Ry

     iteration #  7     ecut=   100.00 Ry     beta= 0.30
     Davidson diagonalization with overlap
     ethr =  1.00E-13,  avg # of iterations =  1.4

     total cpu time spent up to now is     3526.5 secs

     total energy              =   -1291.09594221 Ry
     estimated scf accuracy    <          1.1E-12 Ry

     iteration #  8     ecut=   100.00 Ry     beta= 0.30
     Davidson diagonalization with overlap
     ethr =  1.00E-13,  avg # of iterations =  1.0

     total cpu time spent up to now is     3542.5 secs

     total energy              =   -1291.09594221 Ry
     estimated scf accuracy    <          1.4E-13 Ry

     iteration #  9     ecut=   100.00 Ry     beta= 0.30
     Davidson diagonalization with overlap
     ethr =  1.00E-13,  avg # of iterations =  1.0

     total cpu time spent up to now is     3558.6 secs

     total energy              =   -1291.09594221 Ry
     estimated scf accuracy    <          2.9E-14 Ry

     iteration # 10     ecut=   100.00 Ry     beta= 0.30
     Davidson diagonalization with overlap
     ethr =  1.00E-13,  avg # of iterations =  1.0

     total cpu time spent up to now is     3574.9 secs

     total energy              =   -1291.09594221 Ry
     estimated scf accuracy    <          3.6E-14 Ry

     iteration # 11     ecut=   100.00 Ry     beta= 0.30
     Davidson diagonalization with overlap
     ethr =  1.00E-13,  avg # of iterations =  1.0

     total cpu time spent up to now is     3590.9 secs

     total energy              =   -1291.09594221 Ry
     estimated scf accuracy    <          2.6E-14 Ry

     iteration # 12     ecut=   100.00 Ry     beta= 0.30
     Davidson diagonalization with overlap
     ethr =  1.00E-13,  avg # of iterations =  1.0

     total cpu time spent up to now is     3607.0 secs

     total energy              =   -1291.09594221 Ry
     estimated scf accuracy    <          1.4E-14 Ry

     iteration # 13     ecut=   100.00 Ry     beta= 0.30
     Davidson diagonalization with overlap
     ethr =  1.00E-13,  avg # of iterations =  1.0

     total cpu time spent up to now is     3623.0 secs

     total energy              =   -1291.09594221 Ry
     estimated scf accuracy    <          1.1E-13 Ry

     iteration # 14     ecut=   100.00 Ry     beta= 0.30
     Davidson diagonalization with overlap
     ethr =  1.00E-13,  avg # of iterations =  1.0

     total cpu time spent up to now is     3639.0 secs

     total energy              =   -1291.09594221 Ry
     estimated scf accuracy    <          1.5E-14 Ry

     iteration # 15     ecut=   100.00 Ry     beta= 0.30
     Davidson diagonalization with overlap
     ethr =  1.00E-13,  avg # of iterations =  1.0

     total cpu time spent up to now is     3654.8 secs

     End of self-consistent calculation

          k = 0.0000 0.0000 0.0000 ( 20197 PWs)   bands (ev):

   -17.5781  -8.6961  -8.1631  -8.1631  -4.3805  -4.3805  -4.3805  -2.8118
    -2.8118  -2.8118  -2.6497  -2.6497   0.3717   0.3717   0.3717   1.2831
     2.2527   2.2527   2.2527   2.5335   2.5335   2.5335   6.9275   7.7164
     7.7164

          k = 0.0000 0.0000 0.1154 ( 20138 PWs)   bands (ev):

   -17.5780  -8.6769  -8.1710  -8.1626  -4.3793  -4.3793  -4.3768  -2.8157
    -2.8157  -2.8117  -2.7397  -2.6496   0.1666   0.3926   0.3926   1.5094
     2.2232   2.2357   2.2357   2.5077   2.5077   2.7149   7.1016   7.8145
     7.8613

          k = 0.0000 0.0000 0.2307 ( 20162 PWs)   bands (ev):

   -17.5778  -8.6270  -8.1927  -8.1613  -4.3764  -4.3764  -4.3679  -2.9491
    -2.8251  -2.8251  -2.8116  -2.6495  -0.0765   0.4448   0.4448   1.6346
     2.1547   2.1933   2.1933   2.4460   2.4460   3.3977   7.5640   8.0850
     8.2498

          k = 0.0000 0.0000 0.3461 ( 20138 PWs)   bands (ev):

   -17.5776  -8.5699  -8.2207  -8.1599  -4.3735  -4.3735  -4.3590  -3.1475
    -2.8344  -2.8344  -2.8115  -2.6493  -0.2040   0.4999   0.4999   1.5935
     2.0896   2.1484   2.1484   2.3855   2.3855   4.3232   8.1062   8.4168
     8.7302

          k = 0.0000 0.0000-0.4614 ( 20138 PWs)   bands (ev):

   -17.5775  -8.5428  -8.2353  -8.1594  -4.3723  -4.3723  -4.3553  -3.2267
    -2.8382  -2.8382  -2.8114  -2.6493  -0.2410   0.5237   0.5237   1.5634
     2.0636   2.1288   2.1288   2.3609   2.3609   4.8317   8.1294   8.6686
     8.8879

          k = 0.0000 0.1154 0.1154 ( 20136 PWs)   bands (ev):

   -17.5780  -8.6575  -8.1742  -8.1663  -4.3801  -4.3781  -4.3724  -2.8198
    -2.8160  -2.8154  -2.7763  -2.6979  -0.1478   0.4148   0.6666   1.5730
     2.1365   2.2195   2.2775   2.4797   2.5781   2.8354   7.2581   7.9358
     7.9505

          k = 0.0000 0.1154 0.2307 ( 20150 PWs)   bands (ev):

   -17.5777  -8.6071  -8.1935  -8.1665  -4.3781  -4.3752  -4.3657  -2.9595
    -2.8298  -2.8253  -2.8157  -2.7161  -0.4251   0.4705   0.8716   1.5973
     2.0379   2.1790   2.2919   2.4125   2.5533   3.4797   7.6805   8.1919
     8.2915

          k = 0.0000 0.1154 0.3461 ( 20140 PWs)   bands (ev):

   -17.5775  -8.5492  -8.2209  -8.1653  -4.3747  -4.3722  -4.3605  -3.1515
    -2.8396  -2.8347  -2.8157  -2.7184  -0.5644   0.5298   0.9821   1.5438
     1.9640   2.1356   2.3139   2.3463   2.4696   4.3824   8.2041   8.5120
     8.7438

          k = 0.0000 0.1154-0.4614 ( 20168 PWs)   bands (ev):

   -17.5774  -8.5216  -8.2356  -8.1648  -4.3730  -4.3710  -4.3587  -3.2294
    -2.8436  -2.8385  -2.8157  -2.7189  -0.6045   0.5556   1.0207   1.5133
     1.9362   2.1163   2.3193   2.3486   2.4049   4.8879   8.1984   8.7501
     8.9834

          k = 0.0000 0.2307 0.2307 ( 20220 PWs)   bands (ev):

   -17.5775  -8.5553  -8.2005  -8.1775  -4.3790  -4.3722  -4.3638  -3.0253
    -2.8440  -2.8366  -2.8261  -2.8251  -0.7616   0.5359   1.3390   1.5098
     1.9513   2.1436   2.3304   2.3650   2.7272   3.8687   8.0009   8.4271
     8.5421

          k = 0.0000 0.2307 0.3461 ( 20185 PWs)   bands (ev):

   -17.5773  -8.4947  -8.2218  -8.1818  -4.3769  -4.3692  -4.3647  -3.1700
    -2.8848  -2.8518  -2.8354  -2.8259  -0.9326   0.6069   1.4255   1.5734
     1.9117   2.1048   2.2474   2.4729   2.7295   4.6153   8.4405   8.7428
     8.7871

          k = 0.0000 0.2307-0.4614 ( 20168 PWs)   bands (ev):

   -17.5773  -8.4649  -8.2363  -8.1823  -4.3746  -4.3679  -4.3665  -3.2404
    -2.8919  -2.8566  -2.8394  -2.8261  -0.9822   0.6384   1.3928   1.6323
     1.9026   2.0864   2.2137   2.6092   2.6201   5.0930   8.1997   8.8988
     8.9362

          k = 0.0000 0.3461 0.3461 ( 20184 PWs)   bands (ev):

   -17.5771  -8.4287  -8.2265  -8.2048  -4.3776  -4.3701  -4.3661  -3.2254
    -3.0191  -2.8644  -2.8363  -2.8358  -1.1220   0.6929   1.3257   1.8349
     1.9095   2.0730   2.1418   2.6937   2.9552   5.1219   8.5891   8.6287
     8.7183

          k = 0.0000 0.3461-0.4614 ( 20148 PWs)   bands (ev):

   -17.5771  -8.3938  -8.2369  -8.2130  -4.3762  -4.3739  -4.3648  -3.2706
    -3.0527  -2.8696  -2.8402  -2.8363  -1.1770   0.7321   1.2878   1.8826
     1.9191   2.0571   2.0976   2.8104   3.0157   5.5251   8.0148   8.5433
     9.0193

          k = 0.0000-0.4614-0.4614 ( 20160 PWs)   bands (ev):

   -17.5770  -8.3525  -8.2372  -8.2372  -4.3768  -4.3768  -4.3635  -3.2989
    -3.1041  -2.8750  -2.8405  -2.8405  -1.2335   0.7753   1.2486   1.9303
     1.9303   2.0452   2.0452   2.8872   3.1987   5.8991   7.9253   7.9253
     8.9715

          k = 0.1154 0.1154 0.1154 ( 20131 PWs)   bands (ev):

   -17.5779  -8.6381  -8.1735  -8.1735  -4.3798  -4.3798  -4.3677  -2.8199
    -2.8199  -2.8198  -2.7762  -2.7762  -0.4165   0.6904   0.6904   1.5840
     2.1145   2.1145   2.3367   2.5656   2.5656   2.9498   7.3937   8.0308
     8.0308

          k = 0.1154 0.1154 0.2307 ( 20157 PWs)   bands (ev):

   -17.5777  -8.5874  -8.1937  -8.1717  -4.3790  -4.3781  -4.3620  -2.9667
    -2.8303  -2.8294  -2.8199  -2.7762  -0.7057   0.7510   0.9771   1.5667
     1.9736   2.1048   2.3717   2.5281   2.5462   3.5537   7.7645   8.2670
     8.3216

          k = 0.1154 0.1154 0.3461 ( 20152 PWs)   bands (ev):

   -17.5775  -8.5288  -8.2208  -8.1700  -4.3782  -4.3723  -4.3604  -3.1551
    -2.8406  -2.8387  -2.8200  -2.7762  -0.8559   0.8173   1.1279   1.5149
     1.8619   2.1546   2.3878   2.4211   2.4756   4.4360   8.2433   8.5715
     8.7592

          k = 0.1154 0.1154-0.4614 ( 20172 PWs)   bands (ev):

   -17.5774  -8.5007  -8.2356  -8.1693  -4.3778  -4.3674  -4.3622  -3.2318
    -2.8449  -2.8425  -2.8200  -2.7762  -0.8994   0.8469   1.1759   1.4877
     1.8186   2.2443   2.2990   2.4018   2.4416   4.9399   8.2208   8.7176
     8.7744

          k = 0.1154 0.2307 0.2307 ( 20142 PWs)   bands (ev):

   -17.5775  -8.5357  -8.1994  -8.1822  -4.3808  -4.3790  -4.3592  -3.0254
    -2.8895  -2.8407  -2.8300  -2.8298  -1.0385   0.9033   1.3643   1.4956
     1.8865   2.0414   2.4497   2.4848   2.7223   3.9229   8.0025   8.4584
     8.5195

          k = 0.1154 0.2307 0.3461 ( 20152 PWs)   bands (ev):

   -17.5773  -8.4752  -8.2210  -8.1846  -4.3814  -4.3759  -4.3615  -3.1716
    -2.9219  -2.8518  -2.8397  -2.8301  -1.2169   0.9926   1.4280   1.5794
     1.7949   2.1298   2.4009   2.5203   2.7236   4.6563   8.3496   8.6917
     8.7761

          k = 0.1154 0.2307-0.4614 ( 20180 PWs)   bands (ev):

   -17.5772  -8.4452  -8.2356  -8.1845  -4.3818  -4.3705  -4.3664  -3.2419
    -2.9262  -2.8564  -2.8437  -2.8302  -1.2691   1.0317   1.4019   1.6243
     1.7499   2.2797   2.2853   2.6163   2.6234   5.1355   8.1420   8.6357
     8.8090

          k = 0.1154 0.3461 0.3461 ( 20188 PWs)   bands (ev):

   -17.5771  -8.4103  -8.2251  -8.2054  -4.3816  -4.3797  -4.3654  -3.2254
    -3.0436  -2.8637  -2.8402  -2.8400  -1.4132   1.1042   1.3451   1.7317
     1.7780   2.2047   2.3431   2.7049   2.9542   5.1549   8.4581   8.4750
     8.6092

          k = 0.1154 0.3461-0.4614 ( 20164 PWs)   bands (ev):

   -17.5770  -8.3758  -8.2356  -8.2123  -4.3825  -4.3786  -4.3686  -3.2708
    -3.0730  -2.8686  -2.8442  -2.8402  -1.4707   1.1553   1.3124   1.7449
     1.7572   2.2794   2.2822   2.8131   3.0145   5.5626   7.9256   8.4172
     8.7079

          k = 0.1154-0.4614-0.4614 ( 20184 PWs)   bands (ev):

   -17.5769  -8.3349  -8.2356  -8.2356  -4.3817  -4.3817  -4.3706  -3.2988
    -3.1205  -2.8737  -2.8444  -2.8444  -1.5296   1.2142   1.2778   1.7480
     1.7480   2.2786   2.2786   2.8899   3.2004   5.9450   7.8281   7.8281
     8.7094

          k = 0.2307 0.2307 0.2307 ( 20134 PWs)   bands (ev):

   -17.5773  -8.4846  -8.1968  -8.1968  -4.3851  -4.3851  -4.3584  -3.0256
    -3.0256  -2.8425  -2.8395  -2.8395  -1.4089   1.4328   1.4328   1.4584
     1.8867   1.8867   2.5539   2.7091   2.7091   4.2016   8.0487   8.5773
     8.5773

          k = 0.2307 0.2307 0.3461 ( 20190 PWs)   bands (ev):

   -17.5771  -8.4242  -8.2194  -8.1942  -4.3895  -4.3844  -4.3643  -3.1806
    -3.0257  -2.8529  -2.8488  -2.8401  -1.6190   1.4210   1.5262   1.5942
     1.7501   2.1820   2.6186   2.6892   2.7203   4.8387   8.1963   8.4784
     8.7780

          k = 0.2307 0.2307-0.4614 ( 20162 PWs)   bands (ev):

   -17.5770  -8.3935  -8.2340  -8.1931  -4.3913  -4.3803  -4.3705  -3.2487
    -3.0258  -2.8575  -2.8526  -2.8400  -1.6813   1.4062   1.6036   1.6145
     1.6506   2.5002   2.5267   2.6502   2.6687   5.3038   7.9297   8.3943
     8.5673

          k = 0.2307 0.3461 0.3461 ( 20179 PWs)   bands (ev):

   -17.5769  -8.3631  -8.2216  -8.2086  -4.3930  -4.3912  -4.3732  -3.2254
    -3.1198  -2.8620  -2.8501  -2.8495  -1.8546   1.3899   1.5697   1.6037
     1.9381   2.3997   2.6577   2.7384   2.9489   5.2940   8.1236   8.1759
     8.3692

          k = 0.2307 0.3461-0.4614 ( 20160 PWs)   bands (ev):

   -17.5768  -8.3300  -8.2324  -8.2120  -4.3954  -4.3899  -4.3800  -3.2719
    -3.1374  -2.8663  -2.8537  -2.8496  -1.9247   1.3719   1.5817   1.5903
     1.9827   2.5642   2.5842   2.8210   3.0073   5.7025   7.6740   8.1262
     8.2612

          k = 0.2307-0.4614-0.4614 ( 20196 PWs)   bands (ev):

   -17.5767  -8.2913  -8.2317  -8.2317  -4.3937  -4.3937  -4.3874  -3.2986
    -3.1738  -2.8705  -2.8535  -2.8535  -1.9971   1.3498   1.5843   1.5843
     2.0771   2.5726   2.5726   2.8964   3.2044   6.0998   7.5666   7.5666
     8.2105

          k = 0.3461 0.3461 0.3461 ( 20162 PWs)   bands (ev):

   -17.5767  -8.3080  -8.2180  -8.2180  -4.4009  -4.4009  -4.3862  -3.2254
    -3.2254  -2.8617  -2.8586  -2.8586  -2.1296   1.4224   1.5219   1.5219
     2.5389   2.5389   2.7962   2.9320   2.9320   5.6556   7.9073   7.9073
     7.9333

          k = 0.3461 0.3461-0.4614 ( 20172 PWs)   bands (ev):

   -17.5766  -8.2774  -8.2292  -8.2166  -4.4050  -4.4011  -4.3947  -3.2784
    -3.2254  -2.8648  -2.8624  -2.8588  -2.2133   1.4231   1.4943   1.5145
     2.5831   2.7761   2.8453   2.9079   3.0263   6.0358   7.4008   7.8053
     7.9520

          k = 0.3461-0.4614-0.4614 ( 20168 PWs)   bands (ev):

   -17.5766  -8.2457  -8.2279  -8.2279  -4.4057  -4.4057  -4.4039  -3.2984
    -3.2546  -2.8675  -2.8626  -2.8626  -2.3019   1.4240   1.4872   1.4872
     2.8112   2.8112   2.8742   2.9030   3.2085   6.4312   7.2857   7.2857
     7.8409

          k =-0.4614-0.4614-0.4614 ( 20336 PWs)   bands (ev):

   -17.5765  -8.2262  -8.2262  -8.2262  -4.4107  -4.4107  -4.4107  -3.2983
    -3.2983  -2.8663  -2.8663  -2.8663  -2.3968   1.4554   1.4554   1.4554
     2.9058   2.9058   2.9058   3.2102   3.2102   6.9358   7.1663   7.1663
     7.1663

     the Fermi energy is     3.0911 ev

!    total energy              =   -1291.09594221 Ry
     estimated scf accuracy    <          6.7E-15 Ry
     smearing contrib. (-TS)   =      -0.00012653 Ry
     internal energy E=F+TS    =   -1291.09581568 Ry

     The total energy is F=E-TS. E is the sum of the following terms:
     one-electron contribution =     -54.71637947 Ry
     hartree contribution      =      48.84994447 Ry
     xc contribution           =    -100.65370966 Ry
     ewald contribution        =    -145.13573441 Ry
     one-center paw contrib.   =   -1039.43993660 Ry

     convergence has been achieved in  15 iterations

     Forces acting on atoms (cartesian axes, Ry/au):

     atom    1 type  1   force =     0.00000000    0.00000000    0.00000000
     atom    2 type  2   force =     0.00000000    0.00000000    0.00000000
     atom    3 type  3   force =     0.00000000    0.00000000    0.00000000
     atom    4 type  3   force =     0.00000000    0.00000000    0.00000000
     atom    5 type  3   force =     0.00000000    0.00000000    0.00000000

     Total force =     0.000000     Total SCF correction =     0.000000


     Computing stress (Cartesian axis) and pressure

          total   stress  (Ry/bohr**3)                   (kbar)     P=        0.00
   0.00000000   0.00000000   0.00000000            0.00        0.00        0.00
   0.00000000   0.00000000   0.00000000            0.00        0.00        0.00
   0.00000000   0.00000000   0.00000000            0.00        0.00        0.00

     Energy error            =      4.0E-08 Ry
     Gradient error          =      0.0E+00 Ry/Bohr
     Cell gradient error     =      4.3E-04 kbar

     bfgs converged in   8 scf cycles and   7 bfgs steps
     (criteria: energy <  1.0E-07 Ry, force <  1.0E-05 Ry/Bohr, cell <  1.0E-01 kbar)

     End of BFGS Geometry Optimization

     Final enthalpy           =   -1291.0959422059 Ry

     File ./tmp/CsHgI3.bfgs deleted, as requested
Begin final coordinates
     new unit-cell volume =   1519.33439 a.u.^3 (   225.14213 Ang^3 )
     density =      5.26767 g/cm^3

CELL_PARAMETERS (angstrom)
   6.083482398   0.000000000   0.000000000
   0.000000000   6.083482398   0.000000000
   0.000000000   0.000000000   6.083482398

ATOMIC_POSITIONS (crystal)
Cs               0.0000000000        0.0000000000        0.0000000000
Hg               0.5000000000        0.5000000000        0.5000000000
I                0.5000000000        0.5000000000        0.0000000000
I                0.5000000000        0.0000000000        0.5000000000
I                0.0000000000        0.5000000000        0.5000000000
End final coordinates



     Writing config-only to output data dir ./tmp/CsHgI3.save/ :
     XML data file

     Final scf calculation at the relaxed structure.
     The G-vectors are recalculated for the final unit cell
     Results may differ from those at the preceding step.

     Parallelization info
     --------------------
     sticks:   dense  smooth     PW     G-vecs:    dense   smooth      PW
     Min        4206    2098    576               290489   102724   14710
     Max        4207    2099    577               290490   102729   14713
     Sum        8413    4197   1153               580979   205453   29423

     Using Slab Decomposition



     bravais-lattice index     =            0
     lattice parameter (alat)  =      10.6097  a.u.
     unit-cell volume          =    1519.3344 (a.u.)^3
     number of atoms/cell      =            5
     number of atomic types    =            3
     number of electrons       =        42.00
     number of Kohn-Sham states=           25
     kinetic-energy cutoff     =     100.0000  Ry
     charge density cutoff     =     800.0000  Ry
     scf convergence threshold =      1.0E-14
     mixing beta               =       0.3000
     number of iterations used =            8  plain     mixing
     press convergence thresh. =      1.0E-01
     Exchange-correlation= PBE
                           (   1   4   3   4   0   0   0)

     celldm(1)=  10.609731  celldm(2)=   0.000000  celldm(3)=   0.000000
     celldm(4)=   0.000000  celldm(5)=   0.000000  celldm(6)=   0.000000

     crystal axes: (cart. coord. in units of alat)
               a(1) = (   1.083544   0.000000   0.000000 )  
               a(2) = (   0.000000   1.083544   0.000000 )  
               a(3) = (   0.000000   0.000000   1.083544 )  

     reciprocal axes: (cart. coord. in units 2 pi/alat)
               b(1) = (  0.922897  0.000000  0.000000 )  
               b(2) = (  0.000000  0.922897  0.000000 )  
               b(3) = (  0.000000  0.000000  0.922897 )  


     PseudoPot. # 1 for Cs read from file:
     /home/administrator/Downloads/BURAI/BURAI1.3/pseudopot/Cs.pbe-spn-rrkjus_psl.1.0.0.UPF
     MD5 check sum: 0e4a2db85f86c9a13762b1b689b65a6d
     Pseudo is Ultrasoft + core correction, Zval =  9.0
     Generated using "atomic" code by A. Dal Corso  v.5.1.2
     Using radial grid of 1251 points,  9 beta functions with: 
                l(1) =   0
                l(2) =   0
                l(3) =   0
                l(4) =   1
                l(5) =   1
                l(6) =   2
                l(7) =   2
                l(8) =   3
                l(9) =   3
     Q(r) pseudized with 0 coefficients 


     PseudoPot. # 2 for Hg read from file:
     /home/administrator/Downloads/BURAI/BURAI1.3/pseudopot/Hg.pbe-n-rrkjus_psl.1.0.0.UPF
     MD5 check sum: f04d2c262d1abdd3305243a1878853ce
     Pseudo is Ultrasoft + core correction, Zval = 12.0
     Generated using "atomic" code by A. Dal Corso  v.5.1.2
     Using radial grid of 1279 points,  6 beta functions with: 
                l(1) =   0
                l(2) =   0
                l(3) =   1
                l(4) =   1
                l(5) =   2
                l(6) =   2
     Q(r) pseudized with 0 coefficients 


     PseudoPot. # 3 for I  read from file:
     /home/administrator/Downloads/BURAI/BURAI1.3/pseudopot/I.pbe-n-kjpaw_psl.1.0.0.UPF
     MD5 check sum: e1b2a55c91904a364f23c37cb15bc296
     Pseudo is Projector augmented-wave + core cor, Zval =  7.0
     Generated using "atomic" code by A. Dal Corso  v.5.1.2
     Shape of augmentation charge: PSQ
     Using radial grid of 1247 points,  6 beta functions with: 
                l(1) =   0
                l(2) =   0
                l(3) =   1
                l(4) =   1
                l(5) =   2
                l(6) =   2
     Q(r) pseudized with 0 coefficients 


     atomic species   valence    mass     pseudopotential
     Cs                9.00   132.90550     Cs( 1.00)
     Hg               12.00   200.59200     Hg( 1.00)
     I                 7.00   126.90450     I ( 1.00)

     48 Sym. Ops., with inversion, found



   Cartesian axes

     site n.     atom                  positions (alat units)
         1        Cs     tau(   1) = (   0.0000000   0.0000000   0.0000000  )
         2        Hg     tau(   2) = (   0.5417722   0.5417722   0.5417722  )
         3        I      tau(   3) = (   0.5417722   0.5417722   0.0000000  )
         4        I      tau(   4) = (   0.5417722   0.0000000   0.5417722  )
         5        I      tau(   5) = (   0.0000000   0.5417722   0.5417722  )

     number of k points=    35  Gaussian smearing, width (Ry)=  0.0050
                       cart. coord. in units 2pi/alat
        k(    1) = (   0.0000000   0.0000000   0.0000000), wk =   0.0039062
        k(    2) = (   0.0000000   0.0000000   0.1153621), wk =   0.0234375
        k(    3) = (   0.0000000   0.0000000   0.2307243), wk =   0.0234375
        k(    4) = (   0.0000000   0.0000000   0.3460864), wk =   0.0234375
        k(    5) = (   0.0000000   0.0000000  -0.4614485), wk =   0.0117188
        k(    6) = (   0.0000000   0.1153621   0.1153621), wk =   0.0468750
        k(    7) = (   0.0000000   0.1153621   0.2307243), wk =   0.0937500
        k(    8) = (   0.0000000   0.1153621   0.3460864), wk =   0.0937500
        k(    9) = (   0.0000000   0.1153621  -0.4614485), wk =   0.0468750
        k(   10) = (   0.0000000   0.2307243   0.2307243), wk =   0.0468750
        k(   11) = (   0.0000000   0.2307243   0.3460864), wk =   0.0937500
        k(   12) = (   0.0000000   0.2307243  -0.4614485), wk =   0.0468750
        k(   13) = (   0.0000000   0.3460864   0.3460864), wk =   0.0468750
        k(   14) = (   0.0000000   0.3460864  -0.4614485), wk =   0.0468750
        k(   15) = (   0.0000000  -0.4614485  -0.4614485), wk =   0.0117188
        k(   16) = (   0.1153621   0.1153621   0.1153621), wk =   0.0312500
        k(   17) = (   0.1153621   0.1153621   0.2307243), wk =   0.0937500
        k(   18) = (   0.1153621   0.1153621   0.3460864), wk =   0.0937500
        k(   19) = (   0.1153621   0.1153621  -0.4614485), wk =   0.0468750
        k(   20) = (   0.1153621   0.2307243   0.2307243), wk =   0.0937500
        k(   21) = (   0.1153621   0.2307243   0.3460864), wk =   0.1875000
        k(   22) = (   0.1153621   0.2307243  -0.4614485), wk =   0.0937500
        k(   23) = (   0.1153621   0.3460864   0.3460864), wk =   0.0937500
        k(   24) = (   0.1153621   0.3460864  -0.4614485), wk =   0.0937500
        k(   25) = (   0.1153621  -0.4614485  -0.4614485), wk =   0.0234375
        k(   26) = (   0.2307243   0.2307243   0.2307243), wk =   0.0312500
        k(   27) = (   0.2307243   0.2307243   0.3460864), wk =   0.0937500
        k(   28) = (   0.2307243   0.2307243  -0.4614485), wk =   0.0468750
        k(   29) = (   0.2307243   0.3460864   0.3460864), wk =   0.0937500
        k(   30) = (   0.2307243   0.3460864  -0.4614485), wk =   0.0937500
        k(   31) = (   0.2307243  -0.4614485  -0.4614485), wk =   0.0234375
        k(   32) = (   0.3460864   0.3460864   0.3460864), wk =   0.0312500
        k(   33) = (   0.3460864   0.3460864  -0.4614485), wk =   0.0468750
        k(   34) = (   0.3460864  -0.4614485  -0.4614485), wk =   0.0234375
        k(   35) = (  -0.4614485  -0.4614485  -0.4614485), wk =   0.0039062

     Dense  grid:   580979 G-vectors     FFT dimensions: ( 108, 108, 108)

     Smooth grid:   205453 G-vectors     FFT dimensions: (  75,  75,  75)

     Estimated max dynamical RAM per process >     979.04 MB

     Estimated total dynamical RAM >       7.23 GB

     Initial potential from superposition of free atoms

     starting charge      41.9590, renormalised to      42.0000
     Starting wfcs are   26 randomized atomic wfcs
     Checking if some PAW data can be deallocated... 

     total cpu time spent up to now is     3700.0 secs

     Self-consistent Calculation

     iteration #  1     ecut=   100.00 Ry     beta= 0.30
     Davidson diagonalization with overlap
     c_bands:  3 eigenvalues not converged
     c_bands:  1 eigenvalues not converged
     c_bands:  2 eigenvalues not converged
     c_bands:  5 eigenvalues not converged
     c_bands:  2 eigenvalues not converged
     c_bands:  1 eigenvalues not converged
     c_bands:  2 eigenvalues not converged
     c_bands:  2 eigenvalues not converged
     ethr =  1.00E-06,  avg # of iterations = 38.3

     total cpu time spent up to now is     3842.8 secs

     total energy              =   -1291.08079362 Ry
     estimated scf accuracy    <       0.15762319 Ry

     iteration #  2     ecut=   100.00 Ry     beta= 0.30
     Davidson diagonalization with overlap
     ethr =  3.75E-04,  avg # of iterations =  2.0

     total cpu time spent up to now is     3865.9 secs

     total energy              =   -1291.09141772 Ry
     estimated scf accuracy    <       0.01774053 Ry

     iteration #  3     ecut=   100.00 Ry     beta= 0.30
     Davidson diagonalization with overlap
     ethr =  4.22E-05,  avg # of iterations =  6.1

     total cpu time spent up to now is     3892.7 secs

     total energy              =   -1291.09429125 Ry
     estimated scf accuracy    <       0.00218475 Ry

     iteration #  4     ecut=   100.00 Ry     beta= 0.30
     Davidson diagonalization with overlap
     ethr =  5.20E-06,  avg # of iterations = 10.8

     total cpu time spent up to now is     3934.0 secs

     total energy              =   -1291.09605655 Ry
     estimated scf accuracy    <       0.00186822 Ry

     iteration #  5     ecut=   100.00 Ry     beta= 0.30
     Davidson diagonalization with overlap
     ethr =  4.45E-06,  avg # of iterations =  2.0

     total cpu time spent up to now is     3956.2 secs

     total energy              =   -1291.09569174 Ry
     estimated scf accuracy    <       0.00071048 Ry

     iteration #  6     ecut=   100.00 Ry     beta= 0.30
     Davidson diagonalization with overlap
     ethr =  1.69E-06,  avg # of iterations =  5.5

     total cpu time spent up to now is     3983.9 secs

     total energy              =   -1291.09601084 Ry
     estimated scf accuracy    <       0.00009241 Ry

     iteration #  7     ecut=   100.00 Ry     beta= 0.30
     Davidson diagonalization with overlap
     ethr =  2.20E-07,  avg # of iterations =  5.7

     total cpu time spent up to now is     4010.5 secs

     total energy              =   -1291.09598102 Ry
     estimated scf accuracy    <       0.00009789 Ry

     iteration #  8     ecut=   100.00 Ry     beta= 0.30
     Davidson diagonalization with overlap
     ethr =  2.20E-07,  avg # of iterations =  2.5

     total cpu time spent up to now is     4034.2 secs

     total energy              =   -1291.09599356 Ry
     estimated scf accuracy    <       0.00000877 Ry

     iteration #  9     ecut=   100.00 Ry     beta= 0.30
     Davidson diagonalization with overlap
     ethr =  2.09E-08,  avg # of iterations =  7.3

     total cpu time spent up to now is     4068.2 secs

     total energy              =   -1291.09600236 Ry
     estimated scf accuracy    <       0.00000056 Ry

     iteration # 10     ecut=   100.00 Ry     beta= 0.30
     Davidson diagonalization with overlap
     ethr =  1.33E-09,  avg # of iterations = 10.8

     total cpu time spent up to now is     4111.8 secs

     total energy              =   -1291.09600486 Ry
     estimated scf accuracy    <       0.00000044 Ry

     iteration # 11     ecut=   100.00 Ry     beta= 0.30
     Davidson diagonalization with overlap
     ethr =  1.05E-09,  avg # of iterations =  6.9

     total cpu time spent up to now is     4142.9 secs

     total energy              =   -1291.09600290 Ry
     estimated scf accuracy    <       0.00000358 Ry

     iteration # 12     ecut=   100.00 Ry     beta= 0.30
     Davidson diagonalization with overlap
     ethr =  1.05E-09,  avg # of iterations =  8.9

     total cpu time spent up to now is     4178.2 secs

     total energy              =   -1291.09600406 Ry
     estimated scf accuracy    <       0.00000029 Ry

     iteration # 13     ecut=   100.00 Ry     beta= 0.30
     Davidson diagonalization with overlap
     ethr =  6.80E-10,  avg # of iterations =  1.5

     total cpu time spent up to now is     4199.6 secs

     total energy              =   -1291.09600403 Ry
     estimated scf accuracy    <       0.00000012 Ry

     iteration # 14     ecut=   100.00 Ry     beta= 0.30
     Davidson diagonalization with overlap
     ethr =  2.83E-10,  avg # of iterations =  4.4

     total cpu time spent up to now is     4225.3 secs

     total energy              =   -1291.09600408 Ry
     estimated scf accuracy    <          1.1E-09 Ry

     iteration # 15     ecut=   100.00 Ry     beta= 0.30
     Davidson diagonalization with overlap
     ethr =  2.58E-12,  avg # of iterations = 13.3

     total cpu time spent up to now is     4273.2 secs

     total energy              =   -1291.09600409 Ry
     estimated scf accuracy    <          2.5E-09 Ry

     iteration # 16     ecut=   100.00 Ry     beta= 0.30
     Davidson diagonalization with overlap
     ethr =  2.58E-12,  avg # of iterations =  2.0

     total cpu time spent up to now is     4296.1 secs

     total energy              =   -1291.09600409 Ry
     estimated scf accuracy    <          8.2E-10 Ry

     iteration # 17     ecut=   100.00 Ry     beta= 0.30
     Davidson diagonalization with overlap
     ethr =  1.96E-12,  avg # of iterations =  6.5

     total cpu time spent up to now is     4325.4 secs

     total energy              =   -1291.09600409 Ry
     estimated scf accuracy    <          2.1E-10 Ry

     iteration # 18     ecut=   100.00 Ry     beta= 0.30
     Davidson diagonalization with overlap
     ethr =  4.94E-13,  avg # of iterations =  3.5

     total cpu time spent up to now is     4349.6 secs

     total energy              =   -1291.09600409 Ry
     estimated scf accuracy    <          1.4E-12 Ry

     iteration # 19     ecut=   100.00 Ry     beta= 0.30
     Davidson diagonalization with overlap
     ethr =  1.00E-13,  avg # of iterations =  6.9

     total cpu time spent up to now is     4379.8 secs

     total energy              =   -1291.09600409 Ry
     estimated scf accuracy    <          4.8E-11 Ry

     iteration # 20     ecut=   100.00 Ry     beta= 0.30
     Davidson diagonalization with overlap
     ethr =  1.00E-13,  avg # of iterations =  2.5

     total cpu time spent up to now is     4403.0 secs

     total energy              =   -1291.09600409 Ry
     estimated scf accuracy    <          4.4E-13 Ry

     iteration # 21     ecut=   100.00 Ry     beta= 0.30
     Davidson diagonalization with overlap
     ethr =  1.00E-13,  avg # of iterations =  1.5

     total cpu time spent up to now is     4424.6 secs

     total energy              =   -1291.09600409 Ry
     estimated scf accuracy    <          5.6E-13 Ry

     iteration # 22     ecut=   100.00 Ry     beta= 0.30
     Davidson diagonalization with overlap
     ethr =  1.00E-13,  avg # of iterations =  1.0

     total cpu time spent up to now is     4445.6 secs

     total energy              =   -1291.09600409 Ry
     estimated scf accuracy    <          2.5E-13 Ry

     iteration # 23     ecut=   100.00 Ry     beta= 0.30
     Davidson diagonalization with overlap
     ethr =  1.00E-13,  avg # of iterations =  1.0

     total cpu time spent up to now is     4466.5 secs

     total energy              =   -1291.09600409 Ry
     estimated scf accuracy    <          1.5E-13 Ry

     iteration # 24     ecut=   100.00 Ry     beta= 0.30
     Davidson diagonalization with overlap
     ethr =  1.00E-13,  avg # of iterations =  1.0

     total cpu time spent up to now is     4487.5 secs

     total energy              =   -1291.09600409 Ry
     estimated scf accuracy    <          1.6E-14 Ry

     iteration # 25     ecut=   100.00 Ry     beta= 0.30
     Davidson diagonalization with overlap
     ethr =  1.00E-13,  avg # of iterations =  1.0

     total cpu time spent up to now is     4508.2 secs

     End of self-consistent calculation

          k = 0.0000 0.0000 0.0000 ( 25677 PWs)   bands (ev):

   -17.5782  -8.6962  -8.1632  -8.1632  -4.3805  -4.3805  -4.3805  -2.8118
    -2.8118  -2.8118  -2.6498  -2.6498   0.3717   0.3717   0.3717   1.2831
     2.2527   2.2527   2.2527   2.5335   2.5335   2.5335   6.9274   7.7164
     7.7164

          k = 0.0000 0.0000 0.1154 ( 25665 PWs)   bands (ev):

   -17.5781  -8.6770  -8.1710  -8.1627  -4.3793  -4.3793  -4.3768  -2.8158
    -2.8158  -2.8118  -2.7398  -2.6497   0.1666   0.3926   0.3926   1.5094
     2.2232   2.2357   2.2357   2.5077   2.5077   2.7149   7.1016   7.8145
     7.8613

          k = 0.0000 0.0000 0.2307 ( 25665 PWs)   bands (ev):

   -17.5779  -8.6270  -8.1928  -8.1613  -4.3764  -4.3764  -4.3679  -2.9492
    -2.8252  -2.8252  -2.8116  -2.6496  -0.0766   0.4447   0.4447   1.6346
     2.1546   2.1933   2.1933   2.4460   2.4460   3.3977   7.5640   8.0850
     8.2497

          k = 0.0000 0.0000 0.3461 ( 25668 PWs)   bands (ev):

   -17.5777  -8.5699  -8.2207  -8.1600  -4.3735  -4.3735  -4.3590  -3.1476
    -2.8344  -2.8344  -2.8115  -2.6494  -0.2041   0.4999   0.4999   1.5935
     2.0896   2.1484   2.1484   2.3855   2.3855   4.3231   8.1061   8.4168
     8.7328

          k = 0.0000 0.0000-0.4614 ( 25628 PWs)   bands (ev):

   -17.5776  -8.5429  -8.2354  -8.1595  -4.3723  -4.3723  -4.3554  -3.2268
    -2.8383  -2.8383  -2.8115  -2.6494  -0.2410   0.5237   0.5237   1.5634
     2.0636   2.1288   2.1288   2.3609   2.3609   4.8316   8.1294   8.6686
     8.8879

          k = 0.0000 0.1154 0.1154 ( 25624 PWs)   bands (ev):

   -17.5780  -8.6576  -8.1742  -8.1664  -4.3801  -4.3781  -4.3724  -2.8199
    -2.8160  -2.8155  -2.7764  -2.6980  -0.1478   0.4148   0.6666   1.5730
     2.1365   2.2195   2.2775   2.4797   2.5781   2.8354   7.2581   7.9358
     7.9505

          k = 0.0000 0.1154 0.2307 ( 25667 PWs)   bands (ev):

   -17.5778  -8.6072  -8.1936  -8.1666  -4.3782  -4.3752  -4.3658  -2.9596
    -2.8298  -2.8253  -2.8158  -2.7162  -0.4251   0.4705   0.8716   1.5973
     2.0379   2.1790   2.2919   2.4125   2.5533   3.4797   7.6804   8.1919
     8.2914

          k = 0.0000 0.1154 0.3461 ( 25651 PWs)   bands (ev):

   -17.5776  -8.5493  -8.2209  -8.1654  -4.3747  -4.3723  -4.3606  -3.1516
    -2.8396  -2.8347  -2.8158  -2.7185  -0.5644   0.5298   0.9821   1.5438
     1.9640   2.1356   2.3139   2.3462   2.4696   4.3824   8.2041   8.5120
     8.7441

          k = 0.0000 0.1154-0.4614 ( 25676 PWs)   bands (ev):

   -17.5775  -8.5216  -8.2357  -8.1648  -4.3730  -4.3710  -4.3587  -3.2294
    -2.8437  -2.8386  -2.8158  -2.7189  -0.6046   0.5556   1.0207   1.5133
     1.9362   2.1163   2.3193   2.3486   2.4049   4.8879   8.1984   8.7501
     8.8758

          k = 0.0000 0.2307 0.2307 ( 25736 PWs)   bands (ev):

   -17.5776  -8.5553  -8.2006  -8.1775  -4.3791  -4.3722  -4.3638  -3.0254
    -2.8441  -2.8367  -2.8262  -2.8252  -0.7616   0.5359   1.3390   1.5098
     1.9513   2.1436   2.3304   2.3650   2.7272   3.8687   8.0008   8.4271
     8.5421

          k = 0.0000 0.2307 0.3461 ( 25669 PWs)   bands (ev):

   -17.5774  -8.4947  -8.2219  -8.1818  -4.3769  -4.3692  -4.3648  -3.1700
    -2.8849  -2.8519  -2.8354  -2.8260  -0.9327   0.6069   1.4255   1.5734
     1.9117   2.1048   2.2474   2.4729   2.7295   4.6153   8.4405   8.7427
     8.7871

          k = 0.0000 0.2307-0.4614 ( 25630 PWs)   bands (ev):

   -17.5773  -8.4649  -8.2363  -8.1824  -4.3747  -4.3679  -4.3665  -3.2404
    -2.8920  -2.8567  -2.8394  -2.8262  -0.9823   0.6383   1.3928   1.6323
     1.9026   2.0864   2.2137   2.6091   2.6201   5.0929   8.1997   8.8987
     8.9362

          k = 0.0000 0.3461 0.3461 ( 25642 PWs)   bands (ev):

   -17.5772  -8.4287  -8.2266  -8.2048  -4.3776  -4.3701  -4.3661  -3.2255
    -3.0192  -2.8645  -2.8364  -2.8359  -1.1220   0.6929   1.3257   1.8349
     1.9095   2.0730   2.1418   2.6937   2.9552   5.1218   8.5890   8.6287
     8.7183

          k = 0.0000 0.3461-0.4614 ( 25698 PWs)   bands (ev):

   -17.5771  -8.3939  -8.2370  -8.2130  -4.3762  -4.3739  -4.3648  -3.2707
    -3.0528  -2.8697  -2.8402  -2.8364  -1.1770   0.7321   1.2877   1.8826
     1.9191   2.0571   2.0976   2.8104   3.0156   5.5250   8.0148   8.5433
     9.0196

          k = 0.0000-0.4614-0.4614 ( 25708 PWs)   bands (ev):

   -17.5770  -8.3525  -8.2373  -8.2373  -4.3768  -4.3768  -4.3636  -3.2989
    -3.1042  -2.8750  -2.8406  -2.8406  -1.2335   0.7753   1.2486   1.9303
     1.9303   2.0451   2.0451   2.8871   3.1987   5.8991   7.9253   7.9253
     8.9715

          k = 0.1154 0.1154 0.1154 ( 25668 PWs)   bands (ev):

   -17.5779  -8.6381  -8.1735  -8.1735  -4.3798  -4.3798  -4.3677  -2.8200
    -2.8200  -2.8198  -2.7763  -2.7763  -0.4165   0.6904   0.6904   1.5840
     2.1145   2.1145   2.3367   2.5656   2.5656   2.9498   7.3937   8.0307
     8.0307

          k = 0.1154 0.1154 0.2307 ( 25649 PWs)   bands (ev):

   -17.5777  -8.5874  -8.1938  -8.1718  -4.3790  -4.3781  -4.3620  -2.9668
    -2.8303  -2.8295  -2.8200  -2.7763  -0.7057   0.7510   0.9771   1.5667
     1.9736   2.1048   2.3717   2.5281   2.5462   3.5537   7.7644   8.2670
     8.3216

          k = 0.1154 0.1154 0.3461 ( 25671 PWs)   bands (ev):

   -17.5775  -8.5289  -8.2209  -8.1701  -4.3782  -4.3723  -4.3604  -3.1551
    -2.8407  -2.8388  -2.8201  -2.7763  -0.8559   0.8173   1.1279   1.5148
     1.8619   2.1545   2.3877   2.4210   2.4756   4.4360   8.2432   8.5715
     8.7592

          k = 0.1154 0.1154-0.4614 ( 25660 PWs)   bands (ev):

   -17.5774  -8.5008  -8.2357  -8.1694  -4.3778  -4.3674  -4.3622  -3.2319
    -2.8450  -2.8426  -2.8201  -2.7763  -0.8995   0.8469   1.1759   1.4877
     1.8186   2.2443   2.2990   2.4017   2.4416   4.9399   8.2208   8.7177
     8.7744

          k = 0.1154 0.2307 0.2307 ( 25665 PWs)   bands (ev):

   -17.5775  -8.5358  -8.1995  -8.1823  -4.3808  -4.3790  -4.3592  -3.0255
    -2.8896  -2.8408  -2.8301  -2.8299  -1.0385   0.9033   1.3643   1.4956
     1.8865   2.0414   2.4497   2.4847   2.7223   3.9228   8.0025   8.4584
     8.5195

          k = 0.1154 0.2307 0.3461 ( 25658 PWs)   bands (ev):

   -17.5773  -8.4752  -8.2211  -8.1847  -4.3814  -4.3760  -4.3615  -3.1717
    -2.9219  -2.8519  -2.8398  -2.8302  -1.2169   0.9926   1.4280   1.5794
     1.7949   2.1298   2.4009   2.5202   2.7236   4.6563   8.3496   8.6911
     8.7752

          k = 0.1154 0.2307-0.4614 ( 25654 PWs)   bands (ev):

   -17.5772  -8.4453  -8.2357  -8.1846  -4.3819  -4.3706  -4.3664  -3.2420
    -2.9263  -2.8565  -2.8438  -2.8303  -1.2691   1.0317   1.4018   1.6243
     1.7499   2.2797   2.2853   2.6163   2.6234   5.1354   8.1420   8.6357
     8.8089

          k = 0.1154 0.3461 0.3461 ( 25665 PWs)   bands (ev):

   -17.5771  -8.4104  -8.2251  -8.2054  -4.3816  -4.3797  -4.3654  -3.2255
    -3.0436  -2.8637  -2.8402  -2.8401  -1.4132   1.1042   1.3451   1.7317
     1.7780   2.2047   2.3431   2.7049   2.9542   5.1549   8.4581   8.4750
     8.6092

          k = 0.1154 0.3461-0.4614 ( 25666 PWs)   bands (ev):

   -17.5770  -8.3759  -8.2357  -8.2124  -4.3826  -4.3786  -4.3686  -3.2709
    -3.0731  -2.8687  -2.8443  -2.8403  -1.4707   1.1553   1.3124   1.7449
     1.7572   2.2794   2.2822   2.8131   3.0145   5.5626   7.9256   8.4172
     8.7079

          k = 0.1154-0.4614-0.4614 ( 25676 PWs)   bands (ev):

   -17.5769  -8.3350  -8.2357  -8.2357  -4.3818  -4.3818  -4.3706  -3.2988
    -3.1206  -2.8737  -2.8444  -2.8444  -1.5296   1.2142   1.2778   1.7480
     1.7480   2.2786   2.2786   2.8899   3.2004   5.9450   7.8281   7.8281
     8.7094

          k = 0.2307 0.2307 0.2307 ( 25683 PWs)   bands (ev):

   -17.5773  -8.4847  -8.1969  -8.1969  -4.3852  -4.3852  -4.3584  -3.0256
    -3.0256  -2.8426  -2.8395  -2.8395  -1.4089   1.4328   1.4328   1.4584
     1.8867   1.8867   2.5539   2.7091   2.7091   4.2016   8.0487   8.5772
     8.5772

          k = 0.2307 0.2307 0.3461 ( 25664 PWs)   bands (ev):

   -17.5771  -8.4243  -8.2194  -8.1942  -4.3895  -4.3844  -4.3643  -3.1807
    -3.0258  -2.8530  -2.8489  -2.8401  -1.6190   1.4210   1.5262   1.5942
     1.7501   2.1820   2.6186   2.6891   2.7203   4.8387   8.1963   8.4785
     8.7741

          k = 0.2307 0.2307-0.4614 ( 25624 PWs)   bands (ev):

   -17.5770  -8.3936  -8.2341  -8.1931  -4.3913  -4.3803  -4.3705  -3.2487
    -3.0258  -2.8576  -2.8527  -2.8401  -1.6813   1.4062   1.6036   1.6145
     1.6505   2.5002   2.5267   2.6502   2.6687   5.3038   7.9297   8.3943
     8.5673

          k = 0.2307 0.3461 0.3461 ( 25636 PWs)   bands (ev):

   -17.5769  -8.3632  -8.2216  -8.2087  -4.3930  -4.3913  -4.3732  -3.2255
    -3.1199  -2.8620  -2.8502  -2.8495  -1.8546   1.3899   1.5697   1.6037
     1.9381   2.3997   2.6577   2.7383   2.9489   5.2940   8.1236   8.1759
     8.3694

          k = 0.2307 0.3461-0.4614 ( 25638 PWs)   bands (ev):

   -17.5768  -8.3300  -8.2325  -8.2121  -4.3954  -4.3899  -4.3801  -3.2719
    -3.1374  -2.8663  -2.8538  -2.8497  -1.9247   1.3719   1.5817   1.5903
     1.9827   2.5642   2.5842   2.8209   3.0072   5.7024   7.6740   8.1262
     8.2612

          k = 0.2307-0.4614-0.4614 ( 25628 PWs)   bands (ev):

   -17.5768  -8.2913  -8.2318  -8.2318  -4.3937  -4.3937  -4.3874  -3.2987
    -3.1738  -2.8706  -2.8536  -2.8536  -1.9971   1.3498   1.5843   1.5843
     2.0771   2.5726   2.5726   2.8964   3.2044   6.0998   7.5666   7.5666
     8.2105

          k = 0.3461 0.3461 0.3461 ( 25650 PWs)   bands (ev):

   -17.5767  -8.3081  -8.2181  -8.2181  -4.4010  -4.4010  -4.3862  -3.2255
    -3.2255  -2.8617  -2.8587  -2.8587  -2.1296   1.4224   1.5219   1.5219
     2.5389   2.5389   2.7962   2.9319   2.9319   5.6556   7.9073   7.9073
     7.9334

          k = 0.3461 0.3461-0.4614 ( 25626 PWs)   bands (ev):

   -17.5767  -8.2775  -8.2292  -8.2166  -4.4050  -4.4011  -4.3947  -3.2785
    -3.2255  -2.8649  -2.8625  -2.8589  -2.2133   1.4231   1.4943   1.5145
     2.5831   2.7761   2.8453   2.9079   3.0263   6.0358   7.4008   7.8054
     7.9415

          k = 0.3461-0.4614-0.4614 ( 25632 PWs)   bands (ev):

   -17.5766  -8.2458  -8.2279  -8.2279  -4.4057  -4.4057  -4.4039  -3.2985
    -3.2546  -2.8676  -2.8627  -2.8627  -2.3019   1.4239   1.4872   1.4872
     2.8112   2.8112   2.8742   2.9030   3.2084   6.4312   7.2857   7.2857
     7.8409

          k =-0.4614-0.4614-0.4614 ( 25768 PWs)   bands (ev):

   -17.5765  -8.2263  -8.2263  -8.2263  -4.4107  -4.4107  -4.4107  -3.2984
    -3.2984  -2.8664  -2.8664  -2.8664  -2.3968   1.4554   1.4554   1.4554
     2.9058   2.9058   2.9058   3.2101   3.2101   6.9357   7.1663   7.1663
     7.1663

     the Fermi energy is     3.0911 ev

!    total energy              =   -1291.09600409 Ry
     estimated scf accuracy    <          4.5E-16 Ry
     smearing contrib. (-TS)   =      -0.00012653 Ry
     internal energy E=F+TS    =   -1291.09587756 Ry

     The total energy is F=E-TS. E is the sum of the following terms:
     one-electron contribution =     -54.71646191 Ry
     hartree contribution      =      48.84989400 Ry
     xc contribution           =    -100.65365857 Ry
     ewald contribution        =    -145.13573441 Ry
     one-center paw contrib.   =   -1039.43991667 Ry

     convergence has been achieved in  25 iterations

     Forces acting on atoms (cartesian axes, Ry/au):

     atom    1 type  1   force =     0.00000000    0.00000000    0.00000000
     atom    2 type  2   force =     0.00000000    0.00000000    0.00000000
     atom    3 type  3   force =     0.00000000    0.00000000    0.00000000
     atom    4 type  3   force =     0.00000000    0.00000000    0.00000000
     atom    5 type  3   force =     0.00000000    0.00000000    0.00000000

     Total force =     0.000000     Total SCF correction =     0.000000


     Computing stress (Cartesian axis) and pressure

          total   stress  (Ry/bohr**3)                   (kbar)     P=        0.00
   0.00000002   0.00000000   0.00000000            0.00        0.00        0.00
   0.00000000   0.00000002   0.00000000            0.00        0.00        0.00
   0.00000000   0.00000000   0.00000002            0.00        0.00        0.00


     Writing all to output data dir ./tmp/CsHgI3.save/ :
     XML data file, charge density, pseudopotentials, collected wavefunctions

     init_run     :     22.25s CPU     21.84s WALL (       2 calls)
     electrons    :   4928.68s CPU   4177.30s WALL (       9 calls)
     update_pot   :      7.04s CPU      7.41s WALL (       7 calls)
     forces       :     49.84s CPU     42.77s WALL (       9 calls)
     stress       :    274.44s CPU    281.94s WALL (       9 calls)

     Called by init_run:
     wfcinit      :     11.12s CPU      9.47s WALL (       2 calls)
     potinit      :      2.54s CPU      2.75s WALL (       2 calls)
     hinit0       :      3.86s CPU      3.96s WALL (       2 calls)

     Called by electrons:
     c_bands      :   3412.55s CPU   2697.10s WALL (     181 calls)
     sum_band     :   1042.55s CPU    934.85s WALL (     181 calls)
     v_of_rho     :    104.30s CPU    112.40s WALL (     186 calls)
     newd         :    331.61s CPU    398.78s WALL (     186 calls)
     PAW_pot      :     38.97s CPU     38.73s WALL (     193 calls)
     mix_rho      :      8.93s CPU      9.15s WALL (     181 calls)

     Called by c_bands:
     init_us_2    :    127.84s CPU     94.27s WALL (    3501 calls)
     cegterg      :   2885.57s CPU   2247.52s WALL (    1636 calls)

     Called by *egterg:
     cdiaghg      :     28.33s CPU     20.37s WALL (    9183 calls)
     h_psi        :   2310.28s CPU   1925.34s WALL (    9307 calls)
     s_psi        :    149.43s CPU     79.69s WALL (    9307 calls)
     g_psi        :     15.39s CPU     11.00s WALL (    7653 calls)

     Called by h_psi:
     h_psi:calbec :    158.81s CPU     87.43s WALL (    9307 calls)
     vloc_psi     :   1985.40s CPU   1746.61s WALL (    9307 calls)
     add_vuspsi   :    154.73s CPU     82.85s WALL (    9307 calls)

     General routines
     calbec       :    217.99s CPU    120.55s WALL (   11404 calls)
     fft          :     77.56s CPU     83.62s WALL (    2636 calls)
     ffts         :      4.78s CPU      4.14s WALL (     367 calls)
     fftw         :   1750.56s CPU   1535.18s WALL (  297979 calls)
     interpolate  :      9.69s CPU     10.12s WALL (     186 calls)

     Parallel routines

     PWSCF        :      1h28m CPU      1h15m WALL


   This run was terminated on:  10:14:32  14May2025            

=------------------------------------------------------------------------------=
   JOB DONE.
=------------------------------------------------------------------------------=
