
     Program PWSCF v.7.3.1 starts on 14May2025 at 10:43: 3 

     This program is part of the open-source Quantum ESPRESSO suite
     for quantum simulation of materials; please cite
         "P. Giannozzi et al., J. Phys.:Condens. Matter 21 395502 (2009);
         "P. Giannozzi et al., J. Phys.:Condens. Matter 29 465901 (2017);
         "P. Giannozzi et al., J. Chem. Phys. 152 154105 (2020);
          URL http://www.quantum-espresso.org", 
     in publications or presentations arising from this work. More details at
     http://www.quantum-espresso.org/quote

     Parallel version (MPI), running on     8 processors

     MPI processes distributed on     1 nodes
     58429 MiB available memory on the printing compute node when the environment starts

     Waiting for input...
     Reading input from standard input

     Current dimensions of program PWSCF are:
     Max number of different atomic species (ntypx) = 10
     Max number of k-points (npk) = 120000
     Max angular momentum in pseudopotentials (lmaxx) =  4
     file Cs.pbe-spn-rrkjus_psl.1.0.0.UPF: wavefunction(s)  5S 6S renormalized
     file Hg.pbe-n-rrkjus_psl.1.0.0.UPF: wavefunction(s)  6S renormalized
     file I.pbe-n-kjpaw_psl.1.0.0.UPF: wavefunction(s)  5S renormalized

     IMPORTANT: XC functional enforced from input :
     Exchange-correlation= PBE
                           (   1   4   3   4   0   0   0)
     Any further DFT definition will be discarded
     Please, verify this is what you really want

     Message from routine setup:
     using ibrav=0 with symmetry is DISCOURAGED, use correct ibrav instead

     K-points division:     npool     =       4
     R & G space division:  proc/nbgrp/npool/nimage =       2
     Subspace diagonalization in iterative solution of the eigenvalue problem:
     a serial algorithm will be used


     Parallelization info
     --------------------
     sticks:   dense  smooth     PW     G-vecs:    dense   smooth      PW
     Min        4206    2098    576               290489   102724   14710
     Max        4207    2099    577               290490   102729   14713
     Sum        8413    4197   1153               580979   205453   29423

     Using Slab Decomposition



     bravais-lattice index     =            0
     lattice parameter (alat)  =      11.4961  a.u.
     unit-cell volume          =    1519.3344 (a.u.)^3
     number of atoms/cell      =            5
     number of atomic types    =            3
     number of electrons       =        42.00
     number of Kohn-Sham states=           25
     kinetic-energy cutoff     =     100.0000  Ry
     charge density cutoff     =     800.0000  Ry
     scf convergence threshold =      1.0E-12
     mixing beta               =       0.3000
     number of iterations used =            8  plain     mixing
     Exchange-correlation= PBE
                           (   1   4   3   4   0   0   0)

     celldm(1)=  11.496116  celldm(2)=   0.000000  celldm(3)=   0.000000
     celldm(4)=   0.000000  celldm(5)=   0.000000  celldm(6)=   0.000000

     crystal axes: (cart. coord. in units of alat)
               a(1) = (   1.000000   0.000000   0.000000 )  
               a(2) = (   0.000000   1.000000   0.000000 )  
               a(3) = (   0.000000   0.000000   1.000000 )  

     reciprocal axes: (cart. coord. in units 2 pi/alat)
               b(1) = (  1.000000  0.000000  0.000000 )  
               b(2) = (  0.000000  1.000000  0.000000 )  
               b(3) = (  0.000000  0.000000  1.000000 )  


     PseudoPot. # 1 for Cs read from file:
     /home/administrator/Downloads/BURAI/BURAI1.3/pseudopot/Cs.pbe-spn-rrkjus_psl.1.0.0.UPF
     MD5 check sum: 0e4a2db85f86c9a13762b1b689b65a6d
     Pseudo is Ultrasoft + core correction, Zval =  9.0
     Generated using "atomic" code by A. Dal Corso  v.5.1.2
     Using radial grid of 1251 points,  9 beta functions with: 
                l(1) =   0
                l(2) =   0
                l(3) =   0
                l(4) =   1
                l(5) =   1
                l(6) =   2
                l(7) =   2
                l(8) =   3
                l(9) =   3
     Q(r) pseudized with 0 coefficients 


     PseudoPot. # 2 for Hg read from file:
     /home/administrator/Downloads/BURAI/BURAI1.3/pseudopot/Hg.pbe-n-rrkjus_psl.1.0.0.UPF
     MD5 check sum: f04d2c262d1abdd3305243a1878853ce
     Pseudo is Ultrasoft + core correction, Zval = 12.0
     Generated using "atomic" code by A. Dal Corso  v.5.1.2
     Using radial grid of 1279 points,  6 beta functions with: 
                l(1) =   0
                l(2) =   0
                l(3) =   1
                l(4) =   1
                l(5) =   2
                l(6) =   2
     Q(r) pseudized with 0 coefficients 


     PseudoPot. # 3 for I  read from file:
     /home/administrator/Downloads/BURAI/BURAI1.3/pseudopot/I.pbe-n-kjpaw_psl.1.0.0.UPF
     MD5 check sum: e1b2a55c91904a364f23c37cb15bc296
     Pseudo is Projector augmented-wave + core cor, Zval =  7.0
     Generated using "atomic" code by A. Dal Corso  v.5.1.2
     Shape of augmentation charge: PSQ
     Using radial grid of 1247 points,  6 beta functions with: 
                l(1) =   0
                l(2) =   0
                l(3) =   1
                l(4) =   1
                l(5) =   2
                l(6) =   2
     Q(r) pseudized with 0 coefficients 


     atomic species   valence    mass     pseudopotential
     Cs                9.00   132.90550     Cs( 1.00)
     Hg               12.00   200.59200     Hg( 1.00)
     I                 7.00   126.90450     I ( 1.00)

     48 Sym. Ops., with inversion, found



   Cartesian axes

     site n.     atom                  positions (alat units)
         1        Cs     tau(   1) = (   0.0000000   0.0000000   0.0000000  )
         2        Hg     tau(   2) = (   0.5000000   0.5000000   0.5000000  )
         3        I      tau(   3) = (   0.5000000   0.5000000   0.0000000  )
         4        I      tau(   4) = (   0.5000000   0.0000000   0.5000000  )
         5        I      tau(   5) = (   0.0000000   0.5000000   0.5000000  )

     number of k points=    35  Gaussian smearing, width (Ry)=  0.0050
                       cart. coord. in units 2pi/alat
        k(    1) = (   0.0000000   0.0000000   0.0000000), wk =   0.0039062
        k(    2) = (   0.0000000   0.0000000   0.1250000), wk =   0.0234375
        k(    3) = (   0.0000000   0.0000000   0.2500000), wk =   0.0234375
        k(    4) = (   0.0000000   0.0000000   0.3750000), wk =   0.0234375
        k(    5) = (   0.0000000   0.0000000  -0.5000000), wk =   0.0117188
        k(    6) = (   0.0000000   0.1250000   0.1250000), wk =   0.0468750
        k(    7) = (   0.0000000   0.1250000   0.2500000), wk =   0.0937500
        k(    8) = (   0.0000000   0.1250000   0.3750000), wk =   0.0937500
        k(    9) = (   0.0000000   0.1250000  -0.5000000), wk =   0.0468750
        k(   10) = (   0.0000000   0.2500000   0.2500000), wk =   0.0468750
        k(   11) = (   0.0000000   0.2500000   0.3750000), wk =   0.0937500
        k(   12) = (   0.0000000   0.2500000  -0.5000000), wk =   0.0468750
        k(   13) = (   0.0000000   0.3750000   0.3750000), wk =   0.0468750
        k(   14) = (   0.0000000   0.3750000  -0.5000000), wk =   0.0468750
        k(   15) = (   0.0000000  -0.5000000  -0.5000000), wk =   0.0117188
        k(   16) = (   0.1250000   0.1250000   0.1250000), wk =   0.0312500
        k(   17) = (   0.1250000   0.1250000   0.2500000), wk =   0.0937500
        k(   18) = (   0.1250000   0.1250000   0.3750000), wk =   0.0937500
        k(   19) = (   0.1250000   0.1250000  -0.5000000), wk =   0.0468750
        k(   20) = (   0.1250000   0.2500000   0.2500000), wk =   0.0937500
        k(   21) = (   0.1250000   0.2500000   0.3750000), wk =   0.1875000
        k(   22) = (   0.1250000   0.2500000  -0.5000000), wk =   0.0937500
        k(   23) = (   0.1250000   0.3750000   0.3750000), wk =   0.0937500
        k(   24) = (   0.1250000   0.3750000  -0.5000000), wk =   0.0937500
        k(   25) = (   0.1250000  -0.5000000  -0.5000000), wk =   0.0234375
        k(   26) = (   0.2500000   0.2500000   0.2500000), wk =   0.0312500
        k(   27) = (   0.2500000   0.2500000   0.3750000), wk =   0.0937500
        k(   28) = (   0.2500000   0.2500000  -0.5000000), wk =   0.0468750
        k(   29) = (   0.2500000   0.3750000   0.3750000), wk =   0.0937500
        k(   30) = (   0.2500000   0.3750000  -0.5000000), wk =   0.0937500
        k(   31) = (   0.2500000  -0.5000000  -0.5000000), wk =   0.0234375
        k(   32) = (   0.3750000   0.3750000   0.3750000), wk =   0.0312500
        k(   33) = (   0.3750000   0.3750000  -0.5000000), wk =   0.0468750
        k(   34) = (   0.3750000  -0.5000000  -0.5000000), wk =   0.0234375
        k(   35) = (  -0.5000000  -0.5000000  -0.5000000), wk =   0.0039062

     Dense  grid:   580979 G-vectors     FFT dimensions: ( 108, 108, 108)

     Smooth grid:   205453 G-vectors     FFT dimensions: (  75,  75,  75)

     Estimated max dynamical RAM per process >     928.46 MB

     Estimated total dynamical RAM >       6.84 GB

     Initial potential from superposition of free atoms

     starting charge      41.9590, renormalised to      42.0000
     Starting wfcs are   26 randomized atomic wfcs
     Checking if some PAW data can be deallocated... 

     total cpu time spent up to now is       12.6 secs

     Self-consistent Calculation

     iteration #  1     ecut=   100.00 Ry     beta= 0.30
     Davidson diagonalization with overlap
     ethr =  1.00E-02,  avg # of iterations =  6.3

     Threshold (ethr) on eigenvalues was too large:
     Diagonalizing with lowered threshold

     Davidson diagonalization with overlap
     c_bands:  1 eigenvalues not converged
     ethr =  3.99E-04,  avg # of iterations =  7.9

     total cpu time spent up to now is       64.8 secs

     total energy              =   -1291.07304751 Ry
     estimated scf accuracy    <       0.16017146 Ry

     iteration #  2     ecut=   100.00 Ry     beta= 0.30
     Davidson diagonalization with overlap
     ethr =  3.81E-04,  avg # of iterations =  2.2

     total cpu time spent up to now is       88.4 secs

     total energy              =   -1291.08458118 Ry
     estimated scf accuracy    <       0.02027699 Ry

     iteration #  3     ecut=   100.00 Ry     beta= 0.30
     Davidson diagonalization with overlap
     ethr =  4.83E-05,  avg # of iterations = 10.7

     total cpu time spent up to now is      124.4 secs

     total energy              =   -1291.09336073 Ry
     estimated scf accuracy    <       0.00247266 Ry

     iteration #  4     ecut=   100.00 Ry     beta= 0.30
     Davidson diagonalization with overlap
     ethr =  5.89E-06,  avg # of iterations = 12.2

     total cpu time spent up to now is      165.1 secs

     total energy              =   -1291.09567763 Ry
     estimated scf accuracy    <       0.00029660 Ry

     iteration #  5     ecut=   100.00 Ry     beta= 0.30
     Davidson diagonalization with overlap
     ethr =  7.06E-07,  avg # of iterations = 10.1

     total cpu time spent up to now is      202.3 secs

     total energy              =   -1291.09596066 Ry
     estimated scf accuracy    <       0.00005287 Ry

     iteration #  6     ecut=   100.00 Ry     beta= 0.30
     Davidson diagonalization with overlap
     ethr =  1.26E-07,  avg # of iterations =  7.2

     total cpu time spent up to now is      235.0 secs

     total energy              =   -1291.09599576 Ry
     estimated scf accuracy    <       0.00000300 Ry

     iteration #  7     ecut=   100.00 Ry     beta= 0.30
     Davidson diagonalization with overlap
     ethr =  7.14E-09,  avg # of iterations =  9.9

     total cpu time spent up to now is      276.6 secs

     total energy              =   -1291.09600205 Ry
     estimated scf accuracy    <       0.00000049 Ry

     iteration #  8     ecut=   100.00 Ry     beta= 0.30
     Davidson diagonalization with overlap
     ethr =  1.16E-09,  avg # of iterations =  6.9

     total cpu time spent up to now is      307.2 secs

     total energy              =   -1291.09600314 Ry
     estimated scf accuracy    <       0.00000022 Ry

     iteration #  9     ecut=   100.00 Ry     beta= 0.30
     Davidson diagonalization with overlap
     ethr =  5.31E-10,  avg # of iterations =  3.9

     total cpu time spent up to now is      333.4 secs

     total energy              =   -1291.09600366 Ry
     estimated scf accuracy    <       0.00000005 Ry

     iteration # 10     ecut=   100.00 Ry     beta= 0.30
     Davidson diagonalization with overlap
     ethr =  1.14E-10,  avg # of iterations =  6.5

     total cpu time spent up to now is      363.0 secs

     total energy              =   -1291.09600388 Ry
     estimated scf accuracy    <       0.00000002 Ry

     iteration # 11     ecut=   100.00 Ry     beta= 0.30
     Davidson diagonalization with overlap
     ethr =  3.82E-11,  avg # of iterations =  6.1

     total cpu time spent up to now is      394.1 secs

     total energy              =   -1291.09600399 Ry
     estimated scf accuracy    <          7.2E-10 Ry

     iteration # 12     ecut=   100.00 Ry     beta= 0.30
     Davidson diagonalization with overlap
     ethr =  1.72E-12,  avg # of iterations = 11.1

     total cpu time spent up to now is      440.6 secs

     total energy              =   -1291.09600404 Ry
     estimated scf accuracy    <          4.9E-10 Ry

     iteration # 13     ecut=   100.00 Ry     beta= 0.30
     Davidson diagonalization with overlap
     ethr =  1.18E-12,  avg # of iterations =  3.9

     total cpu time spent up to now is      467.8 secs

     total energy              =   -1291.09600407 Ry
     estimated scf accuracy    <          1.5E-10 Ry

     iteration # 14     ecut=   100.00 Ry     beta= 0.30
     Davidson diagonalization with overlap
     ethr =  3.61E-13,  avg # of iterations =  3.0

     total cpu time spent up to now is      492.8 secs

     total energy              =   -1291.09600408 Ry
     estimated scf accuracy    <          1.1E-10 Ry

     iteration # 15     ecut=   100.00 Ry     beta= 0.30
     Davidson diagonalization with overlap
     ethr =  2.60E-13,  avg # of iterations =  1.6

     total cpu time spent up to now is      514.7 secs

     total energy              =   -1291.09600409 Ry
     estimated scf accuracy    <          4.8E-11 Ry

     iteration # 16     ecut=   100.00 Ry     beta= 0.30
     Davidson diagonalization with overlap
     ethr =  1.13E-13,  avg # of iterations =  5.5

     total cpu time spent up to now is      543.8 secs

     total energy              =   -1291.09600409 Ry
     estimated scf accuracy    <          6.1E-12 Ry

     iteration # 17     ecut=   100.00 Ry     beta= 0.30
     Davidson diagonalization with overlap
     ethr =  1.00E-13,  avg # of iterations =  1.3

     total cpu time spent up to now is      564.9 secs

     total energy              =   -1291.09600409 Ry
     estimated scf accuracy    <          6.1E-12 Ry

     iteration # 18     ecut=   100.00 Ry     beta= 0.30
     Davidson diagonalization with overlap
     ethr =  1.00E-13,  avg # of iterations =  1.1

     total cpu time spent up to now is      585.6 secs

     End of self-consistent calculation

          k = 0.0000 0.0000 0.0000 ( 25677 PWs)   bands (ev):

   -17.5782  -8.6962  -8.1632  -8.1632  -4.3805  -4.3805  -4.3805  -2.8118
    -2.8118  -2.8118  -2.6498  -2.6498   0.3717   0.3717   0.3717   1.2831
     2.2527   2.2527   2.2527   2.5335   2.5335   2.5335   6.9274   7.7164
     7.7164

          k = 0.0000 0.0000 0.1250 ( 25665 PWs)   bands (ev):

   -17.5781  -8.6770  -8.1710  -8.1627  -4.3793  -4.3793  -4.3768  -2.8158
    -2.8158  -2.8118  -2.7398  -2.6497   0.1666   0.3926   0.3926   1.5094
     2.2232   2.2357   2.2357   2.5077   2.5077   2.7149   7.1016   7.8145
     7.8613

          k = 0.0000 0.0000 0.2500 ( 25665 PWs)   bands (ev):

   -17.5779  -8.6270  -8.1928  -8.1613  -4.3764  -4.3764  -4.3679  -2.9492
    -2.8252  -2.8252  -2.8116  -2.6496  -0.0766   0.4447   0.4447   1.6346
     2.1546   2.1933   2.1933   2.4460   2.4460   3.3977   7.5640   8.0850
     8.2498

          k = 0.0000 0.0000 0.3750 ( 25668 PWs)   bands (ev):

   -17.5777  -8.5699  -8.2207  -8.1600  -4.3735  -4.3735  -4.3590  -3.1476
    -2.8345  -2.8345  -2.8115  -2.6494  -0.2041   0.4999   0.4999   1.5935
     2.0896   2.1484   2.1484   2.3855   2.3855   4.3231   8.1062   8.4168
     8.7284

          k = 0.0000 0.0000-0.5000 ( 25628 PWs)   bands (ev):

   -17.5776  -8.5429  -8.2354  -8.1595  -4.3723  -4.3723  -4.3554  -3.2268
    -2.8383  -2.8383  -2.8115  -2.6494  -0.2410   0.5237   0.5237   1.5634
     2.0636   2.1288   2.1288   2.3609   2.3609   4.8316   8.1294   8.6688
     8.9755

          k = 0.0000 0.1250 0.1250 ( 25624 PWs)   bands (ev):

   -17.5780  -8.6576  -8.1742  -8.1664  -4.3801  -4.3781  -4.3724  -2.8199
    -2.8160  -2.8155  -2.7764  -2.6980  -0.1478   0.4148   0.6666   1.5730
     2.1365   2.2195   2.2775   2.4797   2.5781   2.8354   7.2581   7.9358
     7.9505

          k = 0.0000 0.1250 0.2500 ( 25667 PWs)   bands (ev):

   -17.5778  -8.6072  -8.1936  -8.1666  -4.3782  -4.3752  -4.3658  -2.9596
    -2.8298  -2.8253  -2.8158  -2.7162  -0.4251   0.4705   0.8716   1.5973
     2.0379   2.1790   2.2919   2.4125   2.5533   3.4797   7.6804   8.1920
     8.2917

          k = 0.0000 0.1250 0.3750 ( 25651 PWs)   bands (ev):

   -17.5776  -8.5493  -8.2209  -8.1654  -4.3747  -4.3723  -4.3606  -3.1516
    -2.8396  -2.8347  -2.8158  -2.7185  -0.5644   0.5298   0.9821   1.5438
     1.9640   2.1356   2.3139   2.3462   2.4696   4.3824   8.2041   8.5120
     8.7439

          k = 0.0000 0.1250-0.5000 ( 25676 PWs)   bands (ev):

   -17.5775  -8.5216  -8.2357  -8.1648  -4.3730  -4.3710  -4.3587  -3.2294
    -2.8437  -2.8386  -2.8158  -2.7189  -0.6046   0.5556   1.0207   1.5133
     1.9362   2.1163   2.3193   2.3486   2.4049   4.8879   8.1984   8.7503
     8.8776

          k = 0.0000 0.2500 0.2500 ( 25736 PWs)   bands (ev):

   -17.5776  -8.5553  -8.2006  -8.1775  -4.3791  -4.3722  -4.3638  -3.0254
    -2.8441  -2.8367  -2.8262  -2.8252  -0.7616   0.5359   1.3390   1.5098
     1.9513   2.1436   2.3304   2.3650   2.7272   3.8687   8.0008   8.4271
     8.5421

          k = 0.0000 0.2500 0.3750 ( 25669 PWs)   bands (ev):

   -17.5774  -8.4947  -8.2219  -8.1818  -4.3769  -4.3692  -4.3648  -3.1701
    -2.8849  -2.8519  -2.8354  -2.8260  -0.9327   0.6069   1.4255   1.5734
     1.9117   2.1048   2.2474   2.4729   2.7295   4.6153   8.4405   8.7427
     8.7876

          k = 0.0000 0.2500-0.5000 ( 25630 PWs)   bands (ev):

   -17.5773  -8.4649  -8.2363  -8.1824  -4.3747  -4.3679  -4.3665  -3.2405
    -2.8920  -2.8567  -2.8394  -2.8262  -0.9823   0.6383   1.3928   1.6323
     1.9026   2.0864   2.2137   2.6091   2.6201   5.0929   8.1997   8.8988
     8.9362

          k = 0.0000 0.3750 0.3750 ( 25642 PWs)   bands (ev):

   -17.5772  -8.4287  -8.2266  -8.2048  -4.3776  -4.3701  -4.3661  -3.2255
    -3.0192  -2.8645  -2.8364  -2.8359  -1.1220   0.6929   1.3257   1.8349
     1.9095   2.0730   2.1418   2.6937   2.9552   5.1218   8.5891   8.6288
     8.7184

          k = 0.0000 0.3750-0.5000 ( 25698 PWs)   bands (ev):

   -17.5771  -8.3939  -8.2370  -8.2130  -4.3762  -4.3739  -4.3648  -3.2707
    -3.0528  -2.8697  -2.8402  -2.8364  -1.1770   0.7321   1.2877   1.8826
     1.9191   2.0571   2.0976   2.8104   3.0156   5.5250   8.0148   8.5433
     9.0193

          k = 0.0000-0.5000-0.5000 ( 25708 PWs)   bands (ev):

   -17.5770  -8.3525  -8.2373  -8.2373  -4.3768  -4.3768  -4.3636  -3.2989
    -3.1042  -2.8750  -2.8406  -2.8406  -1.2335   0.7753   1.2486   1.9303
     1.9303   2.0451   2.0451   2.8871   3.1987   5.8991   7.9253   7.9253
     8.9715

          k = 0.1250 0.1250 0.1250 ( 25668 PWs)   bands (ev):

   -17.5779  -8.6381  -8.1735  -8.1735  -4.3798  -4.3798  -4.3677  -2.8200
    -2.8200  -2.8198  -2.7763  -2.7763  -0.4165   0.6904   0.6904   1.5840
     2.1145   2.1145   2.3367   2.5656   2.5656   2.9498   7.3937   8.0307
     8.0307

          k = 0.1250 0.1250 0.2500 ( 25649 PWs)   bands (ev):

   -17.5777  -8.5874  -8.1938  -8.1718  -4.3790  -4.3781  -4.3620  -2.9668
    -2.8303  -2.8295  -2.8200  -2.7763  -0.7057   0.7510   0.9771   1.5667
     1.9736   2.1048   2.3717   2.5281   2.5462   3.5537   7.7645   8.2670
     8.3216

          k = 0.1250 0.1250 0.3750 ( 25671 PWs)   bands (ev):

   -17.5775  -8.5289  -8.2209  -8.1701  -4.3782  -4.3723  -4.3604  -3.1551
    -2.8407  -2.8388  -2.8201  -2.7763  -0.8559   0.8173   1.1279   1.5148
     1.8619   2.1545   2.3877   2.4210   2.4756   4.4360   8.2433   8.5716
     8.7592

          k = 0.1250 0.1250-0.5000 ( 25660 PWs)   bands (ev):

   -17.5774  -8.5008  -8.2357  -8.1694  -4.3778  -4.3674  -4.3622  -3.2319
    -2.8450  -2.8426  -2.8201  -2.7763  -0.8995   0.8469   1.1759   1.4877
     1.8186   2.2443   2.2990   2.4017   2.4416   4.9399   8.2208   8.7176
     8.7745

          k = 0.1250 0.2500 0.2500 ( 25665 PWs)   bands (ev):

   -17.5775  -8.5358  -8.1995  -8.1823  -4.3808  -4.3790  -4.3592  -3.0255
    -2.8896  -2.8408  -2.8301  -2.8299  -1.0385   0.9033   1.3643   1.4956
     1.8865   2.0414   2.4497   2.4847   2.7223   3.9228   8.0025   8.4584
     8.5195

          k = 0.1250 0.2500 0.3750 ( 25658 PWs)   bands (ev):

   -17.5773  -8.4752  -8.2211  -8.1847  -4.3814  -4.3760  -4.3615  -3.1717
    -2.9219  -2.8519  -2.8398  -2.8302  -1.2169   0.9926   1.4280   1.5794
     1.7949   2.1298   2.4009   2.5202   2.7236   4.6563   8.3496   8.6911
     8.7757

          k = 0.1250 0.2500-0.5000 ( 25654 PWs)   bands (ev):

   -17.5772  -8.4453  -8.2357  -8.1846  -4.3819  -4.3706  -4.3664  -3.2420
    -2.9263  -2.8565  -2.8438  -2.8303  -1.2691   1.0317   1.4018   1.6243
     1.7499   2.2797   2.2853   2.6163   2.6234   5.1354   8.1420   8.6357
     8.8090

          k = 0.1250 0.3750 0.3750 ( 25665 PWs)   bands (ev):

   -17.5771  -8.4104  -8.2251  -8.2054  -4.3816  -4.3797  -4.3654  -3.2255
    -3.0436  -2.8637  -2.8402  -2.8401  -1.4132   1.1042   1.3451   1.7317
     1.7780   2.2047   2.3431   2.7049   2.9542   5.1549   8.4583   8.4751
     8.6092

          k = 0.1250 0.3750-0.5000 ( 25666 PWs)   bands (ev):

   -17.5770  -8.3759  -8.2357  -8.2124  -4.3826  -4.3786  -4.3686  -3.2709
    -3.0731  -2.8687  -2.8443  -2.8403  -1.4707   1.1553   1.3124   1.7449
     1.7572   2.2794   2.2822   2.8131   3.0145   5.5626   7.9256   8.4172
     8.7082

          k = 0.1250-0.5000-0.5000 ( 25676 PWs)   bands (ev):

   -17.5769  -8.3350  -8.2357  -8.2357  -4.3818  -4.3818  -4.3706  -3.2988
    -3.1206  -2.8737  -2.8444  -2.8444  -1.5296   1.2142   1.2778   1.7480
     1.7480   2.2786   2.2786   2.8899   3.2004   5.9449   7.8281   7.8281
     8.7094

          k = 0.2500 0.2500 0.2500 ( 25683 PWs)   bands (ev):

   -17.5773  -8.4847  -8.1969  -8.1969  -4.3852  -4.3852  -4.3584  -3.0256
    -3.0256  -2.8426  -2.8395  -2.8395  -1.4089   1.4328   1.4328   1.4584
     1.8867   1.8867   2.5539   2.7091   2.7091   4.2016   8.0487   8.5772
     8.5772

          k = 0.2500 0.2500 0.3750 ( 25664 PWs)   bands (ev):

   -17.5771  -8.4243  -8.2194  -8.1942  -4.3895  -4.3844  -4.3643  -3.1807
    -3.0258  -2.8530  -2.8489  -2.8401  -1.6190   1.4210   1.5262   1.5942
     1.7501   2.1820   2.6186   2.6891   2.7203   4.8387   8.1963   8.4785
     8.7699

          k = 0.2500 0.2500-0.5000 ( 25624 PWs)   bands (ev):

   -17.5770  -8.3936  -8.2341  -8.1931  -4.3913  -4.3803  -4.3705  -3.2488
    -3.0259  -2.8576  -2.8527  -2.8401  -1.6813   1.4062   1.6036   1.6145
     1.6505   2.5002   2.5267   2.6502   2.6687   5.3038   7.9297   8.3944
     8.5673

          k = 0.2500 0.3750 0.3750 ( 25636 PWs)   bands (ev):

   -17.5769  -8.3632  -8.2216  -8.2087  -4.3930  -4.3913  -4.3732  -3.2255
    -3.1199  -2.8620  -2.8502  -2.8495  -1.8546   1.3899   1.5697   1.6037
     1.9381   2.3997   2.6577   2.7383   2.9489   5.2940   8.1236   8.1759
     8.3697

          k = 0.2500 0.3750-0.5000 ( 25638 PWs)   bands (ev):

   -17.5768  -8.3300  -8.2325  -8.2121  -4.3954  -4.3899  -4.3801  -3.2719
    -3.1374  -2.8663  -2.8538  -2.8497  -1.9247   1.3719   1.5817   1.5903
     1.9827   2.5642   2.5842   2.8209   3.0072   5.7024   7.6740   8.1262
     8.2615

          k = 0.2500-0.5000-0.5000 ( 25628 PWs)   bands (ev):

   -17.5768  -8.2913  -8.2318  -8.2318  -4.3937  -4.3937  -4.3874  -3.2987
    -3.1739  -2.8706  -2.8536  -2.8536  -1.9971   1.3498   1.5843   1.5843
     2.0771   2.5726   2.5726   2.8964   3.2044   6.0998   7.5666   7.5666
     8.4215

          k = 0.3750 0.3750 0.3750 ( 25650 PWs)   bands (ev):

   -17.5767  -8.3081  -8.2181  -8.2181  -4.4010  -4.4010  -4.3862  -3.2255
    -3.2255  -2.8617  -2.8587  -2.8587  -2.1296   1.4224   1.5219   1.5219
     2.5389   2.5389   2.7962   2.9319   2.9319   5.6556   7.9073   7.9074
     7.9332

          k = 0.3750 0.3750-0.5000 ( 25626 PWs)   bands (ev):

   -17.5767  -8.2775  -8.2293  -8.2166  -4.4050  -4.4011  -4.3947  -3.2785
    -3.2255  -2.8649  -2.8625  -2.8589  -2.2133   1.4231   1.4943   1.5145
     2.5831   2.7761   2.8453   2.9079   3.0263   6.0358   7.4009   7.8053
     7.9404

          k = 0.3750-0.5000-0.5000 ( 25632 PWs)   bands (ev):

   -17.5766  -8.2458  -8.2279  -8.2279  -4.4057  -4.4057  -4.4039  -3.2985
    -3.2546  -2.8676  -2.8627  -2.8627  -2.3019   1.4239   1.4872   1.4872
     2.8112   2.8112   2.8742   2.9030   3.2084   6.4312   7.2857   7.2857
     7.8142

          k =-0.5000-0.5000-0.5000 ( 25768 PWs)   bands (ev):

   -17.5765  -8.2263  -8.2263  -8.2263  -4.4107  -4.4107  -4.4107  -3.2984
    -3.2984  -2.8664  -2.8664  -2.8664  -2.3968   1.4554   1.4554   1.4554
     2.9058   2.9058   2.9058   3.2101   3.2101   6.9357   7.1663   7.1663
     7.1663

     the Fermi energy is     3.0911 ev

!    total energy              =   -1291.09600409 Ry
     estimated scf accuracy    <          7.1E-14 Ry
     smearing contrib. (-TS)   =      -0.00012653 Ry
     internal energy E=F+TS    =   -1291.09587756 Ry

     The total energy is F=E-TS. E is the sum of the following terms:
     one-electron contribution =     -54.71646056 Ry
     hartree contribution      =      48.84989127 Ry
     xc contribution           =    -100.65365729 Ry
     ewald contribution        =    -145.13573441 Ry
     one-center paw contrib.   =   -1039.43991657 Ry

     convergence has been achieved in  18 iterations

     Writing all to output data dir ./tmp/CsHgI3.save/ :
     XML data file, charge density, pseudopotentials, collected wavefunctions

     init_run     :     12.11s CPU     11.85s WALL (       1 calls)
     electrons    :    666.57s CPU    573.13s WALL (       1 calls)

     Called by init_run:
     wfcinit      :      6.12s CPU      5.22s WALL (       1 calls)
     potinit      :      1.21s CPU      1.38s WALL (       1 calls)
     hinit0       :      1.75s CPU      1.80s WALL (       1 calls)

     Called by electrons:
     c_bands      :    472.13s CPU    380.76s WALL (      19 calls)
     sum_band     :    135.93s CPU    124.48s WALL (      19 calls)
     v_of_rho     :     12.98s CPU     14.17s WALL (      19 calls)
     newd         :     41.77s CPU     50.47s WALL (      19 calls)
     PAW_pot      :      3.89s CPU      3.89s WALL (      19 calls)
     mix_rho      :      1.16s CPU      1.19s WALL (      19 calls)

     Called by c_bands:
     init_us_2    :     15.12s CPU     11.52s WALL (     351 calls)
     cegterg      :    391.59s CPU    308.53s WALL (     171 calls)

     Called by *egterg:
     cdiaghg      :      3.64s CPU      2.60s WALL (    1192 calls)
     h_psi        :    317.09s CPU    267.98s WALL (    1210 calls)
     s_psi        :     20.07s CPU     10.72s WALL (    1210 calls)
     g_psi        :      2.01s CPU      1.43s WALL (    1030 calls)

     Called by h_psi:
     h_psi:calbec :     21.55s CPU     11.85s WALL (    1210 calls)
     vloc_psi     :    272.71s CPU    243.52s WALL (    1210 calls)
     add_vuspsi   :     21.35s CPU     11.47s WALL (    1210 calls)

     General routines
     calbec       :     27.29s CPU     15.05s WALL (    1381 calls)
     fft          :      8.00s CPU      8.68s WALL (     246 calls)
     ffts         :      0.63s CPU      0.59s WALL (      38 calls)
     fftw         :    239.18s CPU    213.20s WALL (   32041 calls)
     interpolate  :      1.21s CPU      1.28s WALL (      19 calls)

     Parallel routines

     PWSCF        :  11m19.51s CPU   9m45.99s WALL


   This run was terminated on:  10:52:49  14May2025            

=------------------------------------------------------------------------------=
   JOB DONE.
=------------------------------------------------------------------------------=
