
     Program PWSCF v.7.3.1 starts on 16May2025 at 14:18:45 

     This program is part of the open-source Quantum ESPRESSO suite
     for quantum simulation of materials; please cite
         "P. Giannozzi et al., J. Phys.:Condens. Matter 21 395502 (2009);
         "P. Giannozzi et al., J. Phys.:Condens. Matter 29 465901 (2017);
         "P. Giannozzi et al., J. Chem. Phys. 152 154105 (2020);
          URL http://www.quantum-espresso.org", 
     in publications or presentations arising from this work. More details at
     http://www.quantum-espresso.org/quote

     Parallel version (MPI), running on     8 processors

     MPI processes distributed on     1 nodes
     54419 MiB available memory on the printing compute node when the environment starts

     Waiting for input...
     Reading input from standard input

     Current dimensions of program PWSCF are:
     Max number of different atomic species (ntypx) = 10
     Max number of k-points (npk) = 120000
     Max angular momentum in pseudopotentials (lmaxx) =  4
     file Ag.pbe-spn-kjpaw_psl.1.0.0.UPF: wavefunction(s)  4S 5S 4P 4D renormalized
     file Br.pbe-n-kjpaw_psl.1.0.0.UPF: wavefunction(s)  4S 4P renormalized

     IMPORTANT: XC functional enforced from input :
     Exchange-correlation= PBE
                           (   1   4   3   4   0   0   0)
     Any further DFT definition will be discarded
     Please, verify this is what you really want

     Message from routine setup:
     using ibrav=0 with symmetry is DISCOURAGED, use correct ibrav instead

     K-points division:     npool     =       4
     R & G space division:  proc/nbgrp/npool/nimage =       2
     Subspace diagonalization in iterative solution of the eigenvalue problem:
     a serial algorithm will be used


     Parallelization info
     --------------------
     sticks:   dense  smooth     PW     G-vecs:    dense   smooth      PW
     Min        3320    1658    466               204134    72198   10539
     Max        3321    1659    467               204135    72199   10540
     Sum        6641    3317    933               408269   144397   21079

     Using Slab Decomposition



     bravais-lattice index     =            0
     lattice parameter (alat)  =      10.2239  a.u.
     unit-cell volume          =    1068.6804 (a.u.)^3
     number of atoms/cell      =            5
     number of atomic types    =            3
     number of electrons       =        44.00
     number of Kohn-Sham states=           26
     kinetic-energy cutoff     =     100.0000  Ry
     charge density cutoff     =     800.0000  Ry
     scf convergence threshold =      1.0E-12
     mixing beta               =       0.3000
     number of iterations used =            8  plain     mixing
     Exchange-correlation= PBE
                           (   1   4   3   4   0   0   0)

     celldm(1)=  10.223885  celldm(2)=   0.000000  celldm(3)=   0.000000
     celldm(4)=   0.000000  celldm(5)=   0.000000  celldm(6)=   0.000000

     crystal axes: (cart. coord. in units of alat)
               a(1) = (   1.000000   0.000000   0.000000 )  
               a(2) = (   0.000000   1.000000   0.000000 )  
               a(3) = (   0.000000   0.000000   1.000000 )  

     reciprocal axes: (cart. coord. in units 2 pi/alat)
               b(1) = (  1.000000  0.000000  0.000000 )  
               b(2) = (  0.000000  1.000000  0.000000 )  
               b(3) = (  0.000000  0.000000  1.000000 )  


     PseudoPot. # 1 for Ag read from file:
     /home/administrator/Downloads/BURAI/BURAI1.3/pseudopot/Ag.pbe-spn-kjpaw_psl.1.0.0.UPF
     MD5 check sum: 4bb6ed288085a1d2cdc62c229711c47d
     Pseudo is Projector augmented-wave + core cor, Zval = 19.0
     Generated using "atomic" code by A. Dal Corso  v.5.1.2
     Shape of augmentation charge: PSQ
     Using radial grid of 1237 points,  6 beta functions with: 
                l(1) =   0
                l(2) =   0
                l(3) =   1
                l(4) =   1
                l(5) =   2
                l(6) =   2
     Q(r) pseudized with 0 coefficients 


     PseudoPot. # 2 for Ge read from file:
     /home/administrator/Downloads/BURAI/BURAI1.3/pseudopot/Ge.pbe-n-kjpaw_psl.1.0.0.UPF
     MD5 check sum: 4aa708d04ebeac8ef886ea6b7189f44d
     Pseudo is Projector augmented-wave + core cor, Zval =  4.0
     Generated using "atomic" code by A. Dal Corso  v.5.1.2
     Shape of augmentation charge: PSQ
     Using radial grid of 1207 points,  4 beta functions with: 
                l(1) =   0
                l(2) =   0
                l(3) =   1
                l(4) =   1
     Q(r) pseudized with 0 coefficients 


     PseudoPot. # 3 for Br read from file:
     /home/administrator/Downloads/BURAI/BURAI1.3/pseudopot/Br.pbe-n-kjpaw_psl.1.0.0.UPF
     MD5 check sum: 4e719ecb11afb5eb9a83625d9f5c08f4
     Pseudo is Projector augmented-wave + core cor, Zval =  7.0
     Generated using "atomic" code by A. Dal Corso  v.5.1.2
     Shape of augmentation charge: PSQ
     Using radial grid of 1213 points,  4 beta functions with: 
                l(1) =   0
                l(2) =   0
                l(3) =   1
                l(4) =   1
     Q(r) pseudized with 0 coefficients 


     atomic species   valence    mass     pseudopotential
     Ag               19.00   107.86820     Ag( 1.00)
     Ge                4.00    72.63000     Ge( 1.00)
     Br                7.00    79.90400     Br( 1.00)

     48 Sym. Ops., with inversion, found



   Cartesian axes

     site n.     atom                  positions (alat units)
         1        Ag     tau(   1) = (   0.0000000   0.0000000   0.0000000  )
         2        Ge     tau(   2) = (   0.5000000   0.5000000   0.5000000  )
         3        Br     tau(   3) = (   0.5000000   0.5000000   0.0000000  )
         4        Br     tau(   4) = (   0.5000000   0.0000000   0.5000000  )
         5        Br     tau(   5) = (   0.0000000   0.5000000   0.5000000  )

     number of k points=    56  Gaussian smearing, width (Ry)=  0.0050
                       cart. coord. in units 2pi/alat
        k(    1) = (   0.0000000   0.0000000   0.0000000), wk =   0.0020000
        k(    2) = (   0.0000000   0.0000000   0.1000000), wk =   0.0120000
        k(    3) = (   0.0000000   0.0000000   0.2000000), wk =   0.0120000
        k(    4) = (   0.0000000   0.0000000   0.3000000), wk =   0.0120000
        k(    5) = (   0.0000000   0.0000000   0.4000000), wk =   0.0120000
        k(    6) = (   0.0000000   0.0000000  -0.5000000), wk =   0.0060000
        k(    7) = (   0.0000000   0.1000000   0.1000000), wk =   0.0240000
        k(    8) = (   0.0000000   0.1000000   0.2000000), wk =   0.0480000
        k(    9) = (   0.0000000   0.1000000   0.3000000), wk =   0.0480000
        k(   10) = (   0.0000000   0.1000000   0.4000000), wk =   0.0480000
        k(   11) = (   0.0000000   0.1000000  -0.5000000), wk =   0.0240000
        k(   12) = (   0.0000000   0.2000000   0.2000000), wk =   0.0240000
        k(   13) = (   0.0000000   0.2000000   0.3000000), wk =   0.0480000
        k(   14) = (   0.0000000   0.2000000   0.4000000), wk =   0.0480000
        k(   15) = (   0.0000000   0.2000000  -0.5000000), wk =   0.0240000
        k(   16) = (   0.0000000   0.3000000   0.3000000), wk =   0.0240000
        k(   17) = (   0.0000000   0.3000000   0.4000000), wk =   0.0480000
        k(   18) = (   0.0000000   0.3000000  -0.5000000), wk =   0.0240000
        k(   19) = (   0.0000000   0.4000000   0.4000000), wk =   0.0240000
        k(   20) = (   0.0000000   0.4000000  -0.5000000), wk =   0.0240000
        k(   21) = (   0.0000000  -0.5000000  -0.5000000), wk =   0.0060000
        k(   22) = (   0.1000000   0.1000000   0.1000000), wk =   0.0160000
        k(   23) = (   0.1000000   0.1000000   0.2000000), wk =   0.0480000
        k(   24) = (   0.1000000   0.1000000   0.3000000), wk =   0.0480000
        k(   25) = (   0.1000000   0.1000000   0.4000000), wk =   0.0480000
        k(   26) = (   0.1000000   0.1000000  -0.5000000), wk =   0.0240000
        k(   27) = (   0.1000000   0.2000000   0.2000000), wk =   0.0480000
        k(   28) = (   0.1000000   0.2000000   0.3000000), wk =   0.0960000
        k(   29) = (   0.1000000   0.2000000   0.4000000), wk =   0.0960000
        k(   30) = (   0.1000000   0.2000000  -0.5000000), wk =   0.0480000
        k(   31) = (   0.1000000   0.3000000   0.3000000), wk =   0.0480000
        k(   32) = (   0.1000000   0.3000000   0.4000000), wk =   0.0960000
        k(   33) = (   0.1000000   0.3000000  -0.5000000), wk =   0.0480000
        k(   34) = (   0.1000000   0.4000000   0.4000000), wk =   0.0480000
        k(   35) = (   0.1000000   0.4000000  -0.5000000), wk =   0.0480000
        k(   36) = (   0.1000000  -0.5000000  -0.5000000), wk =   0.0120000
        k(   37) = (   0.2000000   0.2000000   0.2000000), wk =   0.0160000
        k(   38) = (   0.2000000   0.2000000   0.3000000), wk =   0.0480000
        k(   39) = (   0.2000000   0.2000000   0.4000000), wk =   0.0480000
        k(   40) = (   0.2000000   0.2000000  -0.5000000), wk =   0.0240000
        k(   41) = (   0.2000000   0.3000000   0.3000000), wk =   0.0480000
        k(   42) = (   0.2000000   0.3000000   0.4000000), wk =   0.0960000
        k(   43) = (   0.2000000   0.3000000  -0.5000000), wk =   0.0480000
        k(   44) = (   0.2000000   0.4000000   0.4000000), wk =   0.0480000
        k(   45) = (   0.2000000   0.4000000  -0.5000000), wk =   0.0480000
        k(   46) = (   0.2000000  -0.5000000  -0.5000000), wk =   0.0120000
        k(   47) = (   0.3000000   0.3000000   0.3000000), wk =   0.0160000
        k(   48) = (   0.3000000   0.3000000   0.4000000), wk =   0.0480000
        k(   49) = (   0.3000000   0.3000000  -0.5000000), wk =   0.0240000
        k(   50) = (   0.3000000   0.4000000   0.4000000), wk =   0.0480000
        k(   51) = (   0.3000000   0.4000000  -0.5000000), wk =   0.0480000
        k(   52) = (   0.3000000  -0.5000000  -0.5000000), wk =   0.0120000
        k(   53) = (   0.4000000   0.4000000   0.4000000), wk =   0.0160000
        k(   54) = (   0.4000000   0.4000000  -0.5000000), wk =   0.0240000
        k(   55) = (   0.4000000  -0.5000000  -0.5000000), wk =   0.0120000
        k(   56) = (  -0.5000000  -0.5000000  -0.5000000), wk =   0.0020000

     Dense  grid:   408269 G-vectors     FFT dimensions: (  96,  96,  96)

     Smooth grid:   144397 G-vectors     FFT dimensions: (  72,  72,  72)

     Estimated max dynamical RAM per process >     343.60 MB

     Estimated total dynamical RAM >       2.39 GB

     Check: negative core charge=   -0.000001

     Initial potential from superposition of free atoms

     starting charge      43.9989, renormalised to      44.0000
     Starting wfcs are   26 randomized atomic wfcs
     Checking if some PAW data can be deallocated... 

     total cpu time spent up to now is       10.0 secs

     Self-consistent Calculation

     iteration #  1     ecut=   100.00 Ry     beta= 0.30
     Davidson diagonalization with overlap
     ethr =  1.00E-02,  avg # of iterations =  2.2

     Threshold (ethr) on eigenvalues was too large:
     Diagonalizing with lowered threshold

     Davidson diagonalization with overlap
     ethr =  5.41E-04,  avg # of iterations =  3.9

     total cpu time spent up to now is       47.4 secs

     total energy              =   -1334.68191359 Ry
     estimated scf accuracy    <       0.22615334 Ry

     iteration #  2     ecut=   100.00 Ry     beta= 0.30
     Davidson diagonalization with overlap
     ethr =  5.14E-04,  avg # of iterations =  2.1

     total cpu time spent up to now is       66.4 secs

     total energy              =   -1334.69668294 Ry
     estimated scf accuracy    <       0.03143392 Ry

     iteration #  3     ecut=   100.00 Ry     beta= 0.30
     Davidson diagonalization with overlap
     ethr =  7.14E-05,  avg # of iterations =  4.3

     total cpu time spent up to now is       88.7 secs

     total energy              =   -1334.70035690 Ry
     estimated scf accuracy    <       0.00536893 Ry

     iteration #  4     ecut=   100.00 Ry     beta= 0.30
     Davidson diagonalization with overlap
     ethr =  1.22E-05,  avg # of iterations =  3.2

     total cpu time spent up to now is      107.9 secs

     total energy              =   -1334.70059459 Ry
     estimated scf accuracy    <       0.00051020 Ry

     iteration #  5     ecut=   100.00 Ry     beta= 0.30
     Davidson diagonalization with overlap
     ethr =  1.16E-06,  avg # of iterations =  4.1

     total cpu time spent up to now is      129.6 secs

     total energy              =   -1334.70065722 Ry
     estimated scf accuracy    <       0.00003144 Ry

     iteration #  6     ecut=   100.00 Ry     beta= 0.30
     Davidson diagonalization with overlap
     ethr =  7.15E-08,  avg # of iterations =  2.2

     total cpu time spent up to now is      150.6 secs

     total energy              =   -1334.70066625 Ry
     estimated scf accuracy    <       0.00000567 Ry

     iteration #  7     ecut=   100.00 Ry     beta= 0.30
     Davidson diagonalization with overlap
     ethr =  1.29E-08,  avg # of iterations =  2.0

     total cpu time spent up to now is      170.8 secs

     total energy              =   -1334.70066677 Ry
     estimated scf accuracy    <       0.00000056 Ry

     iteration #  8     ecut=   100.00 Ry     beta= 0.30
     Davidson diagonalization with overlap
     ethr =  1.27E-09,  avg # of iterations =  2.2

     total cpu time spent up to now is      190.0 secs

     total energy              =   -1334.70066681 Ry
     estimated scf accuracy    <       0.00000012 Ry

     iteration #  9     ecut=   100.00 Ry     beta= 0.30
     Davidson diagonalization with overlap
     ethr =  2.68E-10,  avg # of iterations =  2.0

     total cpu time spent up to now is      211.0 secs

     total energy              =   -1334.70066684 Ry
     estimated scf accuracy    <       0.00000002 Ry

     iteration # 10     ecut=   100.00 Ry     beta= 0.30
     Davidson diagonalization with overlap
     ethr =  4.42E-11,  avg # of iterations =  2.2

     total cpu time spent up to now is      231.0 secs

     total energy              =   -1334.70066685 Ry
     estimated scf accuracy    <          1.2E-09 Ry

     iteration # 11     ecut=   100.00 Ry     beta= 0.30
     Davidson diagonalization with overlap
     ethr =  2.82E-12,  avg # of iterations =  2.0

     total cpu time spent up to now is      252.0 secs

     total energy              =   -1334.70066685 Ry
     estimated scf accuracy    <          1.4E-10 Ry

     iteration # 12     ecut=   100.00 Ry     beta= 0.30
     Davidson diagonalization with overlap
     ethr =  3.15E-13,  avg # of iterations =  2.0

     total cpu time spent up to now is      270.9 secs

     total energy              =   -1334.70066685 Ry
     estimated scf accuracy    <          2.6E-11 Ry

     iteration # 13     ecut=   100.00 Ry     beta= 0.30
     Davidson diagonalization with overlap
     ethr =  1.00E-13,  avg # of iterations =  2.0

     total cpu time spent up to now is      290.9 secs

     total energy              =   -1334.70066685 Ry
     estimated scf accuracy    <          1.6E-12 Ry

     iteration # 14     ecut=   100.00 Ry     beta= 0.30
     Davidson diagonalization with overlap
     ethr =  1.00E-13,  avg # of iterations =  1.0

     total cpu time spent up to now is      307.7 secs

     End of self-consistent calculation

          k = 0.0000 0.0000 0.0000 ( 17941 PWs)   bands (ev):

   -87.2321 -50.7679 -50.7679 -50.7679 -11.3094 -10.3944 -10.3944  -2.4154
    -1.0685  -1.0685  -1.0685   0.3624   0.3624   0.3741   0.3741   0.3741
     1.9294   1.9294   1.9294   1.9942   1.9942   1.9942   3.6932   9.9892
    10.2530  10.2541

          k = 0.0000 0.0000 0.1000 ( 18017 PWs)   bands (ev):

   -87.2321 -50.7679 -50.7679 -50.7679 -11.2915 -10.4129 -10.3939  -2.6432
    -1.0544  -1.0544  -0.7476   0.3533   0.3650   0.3710   0.3710   0.3743
     1.9064   1.9064   1.9264   1.9316   1.9878   1.9878   3.8396   9.6385
     9.7887   9.7887

          k = 0.0000 0.0000 0.2000 ( 18041 PWs)   bands (ev):

   -87.2321 -50.7679 -50.7679 -50.7679 -11.2403 -10.4657 -10.3926  -3.0255
    -1.0165  -1.0165  -0.1280   0.3295   0.3643   0.3643   0.3720   0.3748
     1.8036   1.8036   1.8534   1.9189   2.0130   2.0130   4.1914   8.6898
     9.1477   9.5981

          k = 0.0000 0.0000 0.3000 ( 18056 PWs)   bands (ev):

   -87.2321 -50.7679 -50.7679 -50.7679 -11.1645 -10.5436 -10.3911  -3.3428
    -0.9673  -0.9673   0.3003   0.3598   0.3598   0.3754   0.3762   0.4100
     1.6633   1.6633   1.9101   1.9974   2.0545   2.0545   4.5954   7.5813
     8.3969   9.4752

          k = 0.0000 0.0000 0.4000 ( 18072 PWs)   bands (ev):

   -87.2321 -50.7679 -50.7679 -50.7679 -11.0846 -10.6256 -10.3899  -3.5424
    -0.9254  -0.9254   0.2769   0.3601   0.3601   0.3760   0.3867   0.6296
     1.5454   1.5454   1.9033   2.0891   2.0891   2.4795   4.8511   6.7039
     7.8028   9.4031

          k = 0.0000 0.0000-0.5000 ( 18080 PWs)   bands (ev):

   -87.2321 -50.7679 -50.7679 -50.7679 -11.0449 -10.6660 -10.3894  -3.6100
    -0.9088  -0.9088   0.2680   0.3613   0.3613   0.3762   0.3895   0.6686
     1.4992   1.4992   1.9008   2.1023   2.1023   2.8146   4.8384   6.4242
     7.5450   9.3784

          k = 0.0000 0.1000 0.1000 ( 18029 PWs)   bands (ev):

   -87.2321 -50.7679 -50.7679 -50.7679 -11.2737 -10.4211 -10.4032  -2.8320
    -1.0400  -0.9102  -0.5997   0.3458   0.3620   0.3635   0.3766   0.3775
     1.7783   1.9068   1.9371   1.9453   1.9593   2.0159   3.9655   9.3915
     9.6368   9.6713

          k = 0.0000 0.1000 0.2000 ( 18054 PWs)   bands (ev):

   -87.2321 -50.7679 -50.7679 -50.7679 -11.2228 -10.4687 -10.4057  -3.1781
    -1.0011  -0.8151  -0.0916   0.3235   0.3531   0.3657   0.3783   0.3887
     1.6376   1.8195   1.8964   1.9723   1.9779   2.0377   4.2791   8.6348
     9.1055   9.4745

          k = 0.0000 0.1000 0.3000 ( 18050 PWs)   bands (ev):

   -87.2321 -50.7679 -50.7679 -50.7679 -11.1476 -10.5444 -10.4047  -3.4794
    -0.9505  -0.7557   0.2938   0.3113   0.3468   0.3757   0.3767   0.4702
     1.5616   1.6822   1.9480   2.0155   2.0376   2.0821   4.6464   7.5547
     8.4082   9.3145

          k = 0.0000 0.1000 0.4000 ( 18094 PWs)   bands (ev):

   -87.2321 -50.7679 -50.7679 -50.7679 -11.0678 -10.6250 -10.4036  -3.6726
    -0.9072  -0.7109   0.2734   0.3487   0.3625   0.3694   0.3843   0.6081
     1.4948   1.5673   1.9978   2.0486   2.0516   2.5174   4.8743   6.6644
     7.8732   9.2941

          k = 0.0000 0.1000-0.5000 ( 18068 PWs)   bands (ev):

   -87.2321 -50.7679 -50.7679 -50.7679 -11.0279 -10.6652 -10.4032  -3.7385
    -0.8901  -0.6936   0.2649   0.3544   0.3630   0.3727   0.3854   0.6308
     1.4621   1.5224   2.0031   2.0565   2.0654   2.8485   4.8545   6.3621
     7.6505   9.5468

          k = 0.0000 0.2000 0.2000 ( 18031 PWs)   bands (ev):

   -87.2321 -50.7679 -50.7679 -50.7679 -11.1729 -10.4894 -10.4316  -3.4835
    -0.9594  -0.4630   0.0528   0.3061   0.3351   0.3633   0.3767   0.4538
     1.4919   1.8513   1.8752   1.8835   1.9851   2.1489   4.5060   8.4727
     8.5764   9.1504

          k = 0.0000 0.2000 0.3000 ( 18045 PWs)   bands (ev):

   -87.2321 -50.7679 -50.7679 -50.7679 -11.0989 -10.5491 -10.4419  -3.7652
    -0.9045  -0.2805   0.2614   0.2763   0.3216   0.3672   0.3682   0.5514
     1.4571   1.7309   1.8758   1.9141   2.1310   2.2330   4.7758   7.4814
     8.3188   8.7407

          k = 0.0000 0.2000 0.4000 ( 18046 PWs)   bands (ev):

   -87.2321 -50.7679 -50.7679 -50.7679 -11.0195 -10.6237 -10.4436  -3.9509
    -0.8571  -0.2100   0.2451   0.3202   0.3508   0.3733   0.3788   0.5834
     1.4263   1.6231   1.9193   1.9546   2.2095   2.6346   4.9312   6.5525
     8.0503   8.5963

          k = 0.0000 0.2000-0.5000 ( 18056 PWs)   bands (ev):

   -87.2321 -50.7679 -50.7679 -50.7679 -10.9789 -10.6630 -10.4438  -4.0150
    -0.8382  -0.1887   0.2319   0.3304   0.3339   0.3754   0.4173   0.5782
     1.4002   1.5815   1.9377   1.9701   2.2161   2.9624   4.8974   6.1975
     7.9254   8.5738

          k = 0.0000 0.3000 0.3000 ( 18025 PWs)   bands (ev):

   -87.2321 -50.7679 -50.7679 -50.7679 -11.0262 -10.5705 -10.4851  -4.0386
    -0.8433   0.1874   0.2134   0.2627   0.2986   0.3478   0.3695   0.5927
     1.4313   1.7890   1.7894   1.7902   2.3478   2.3974   4.9217   7.2778
     7.5459   8.4929

          k = 0.0000 0.3000 0.4000 ( 18056 PWs)   bands (ev):

   -87.2321 -50.7679 -50.7679 -50.7679 -10.9464 -10.6238 -10.5050  -4.2223
    -0.7893   0.1660   0.2504   0.2886   0.3219   0.3737   0.5083   0.5886
     1.3845   1.6899   1.7753   1.8367   2.4153   2.8737   4.9930   6.4014
     7.3866   8.3891

          k = 0.0000 0.3000-0.5000 ( 18058 PWs)   bands (ev):

   -87.2321 -50.7679 -50.7679 -50.7679 -10.9036 -10.6603 -10.5088  -4.2862
    -0.7675   0.1474   0.2524   0.2936   0.3026   0.3753   0.5762   0.6216
     1.3417   1.6519   1.7849   1.8545   2.4351   3.1999   4.9544   5.9865
     7.3609   8.3479

          k = 0.0000 0.4000 0.4000 ( 18073 PWs)   bands (ev):

   -87.2321 -50.7679 -50.7679 -50.7679 -10.8627 -10.6337 -10.5694  -4.4067
    -0.7283   0.0953   0.2679   0.2900   0.3413   0.3784   0.5976   0.8733
     1.3460   1.6632   1.7413   1.7443   2.5523   3.2942   5.0248   6.1934
     6.4322   8.6061

          k = 0.0000 0.4000-0.5000 ( 18028 PWs)   bands (ev):

   -87.2321 -50.7679 -50.7679 -50.7679 -10.8124 -10.6581 -10.5916  -4.4712
    -0.7031   0.0670   0.2661   0.2704   0.3575   0.3805   0.6009   1.0495
     1.2955   1.6287   1.7073   1.7628   2.5970   3.6028   5.0080   5.8040
     6.2811   8.6834

          k = 0.0000-0.5000-0.5000 ( 18056 PWs)   bands (ev):

   -87.2321 -50.7679 -50.7679 -50.7679 -10.7436 -10.6573 -10.6573  -4.5360
    -0.6763   0.0361   0.2560   0.2560   0.3775   0.3828   0.6145   1.2770
     1.2770   1.5170   1.7282   1.7282   2.6570   3.9113   5.0323   5.7291
     5.7291   8.6129

          k = 0.1000 0.1000 0.1000 ( 18022 PWs)   bands (ev):

   -87.2321 -50.7679 -50.7679 -50.7679 -11.2560 -10.4206 -10.4206  -2.9979
    -0.8959  -0.8959  -0.4786   0.3435   0.3435   0.3716   0.3716   0.3905
     1.7847   1.8003   1.8003   1.9890   2.0402   2.0402   4.0751   9.1438
     9.5781   9.5781

          k = 0.1000 0.1000 0.2000 ( 18037 PWs)   bands (ev):

   -87.2321 -50.7679 -50.7679 -50.7679 -11.2056 -10.4706 -10.4193  -3.3188
    -0.8571  -0.7557  -0.0595   0.3179   0.3403   0.3714   0.3738   0.4177
     1.6479   1.6595   1.8375   2.0211   2.0407   2.0796   4.3551   8.5549
     8.9702   9.3789

          k = 0.1000 0.1000 0.3000 ( 18057 PWs)   bands (ev):

   -87.2321 -50.7679 -50.7679 -50.7679 -11.1308 -10.5450 -10.4177  -3.6077
    -0.8064  -0.6804   0.2795   0.2923   0.3411   0.3683   0.3798   0.5135
     1.4920   1.6742   1.8811   2.0455   2.1077   2.1126   4.6872   7.5244
     8.3749   9.1552

          k = 0.1000 0.1000 0.4000 ( 18046 PWs)   bands (ev):

   -87.2321 -50.7679 -50.7679 -50.7679 -11.0513 -10.6244 -10.4164  -3.7958
    -0.7630  -0.6298   0.2733   0.3370   0.3527   0.3680   0.3856   0.6039
     1.3713   1.6877   1.9025   2.0574   2.1285   2.5469   4.8878   6.6229
     7.9268   9.0673

          k = 0.1000 0.1000-0.5000 ( 18046 PWs)   bands (ev):

   -87.2321 -50.7679 -50.7679 -50.7679 -11.0114 -10.6644 -10.4159  -3.8604
    -0.7458  -0.6109   0.2662   0.3384   0.3635   0.3688   0.3878   0.6144
     1.3250   1.6699   1.9148   2.0601   2.1370   2.8770   4.8620   6.2998
     7.7449   9.0449

          k = 0.1000 0.2000 0.2000 ( 18033 PWs)   bands (ev):

   -87.2321 -50.7679 -50.7679 -50.7679 -11.1563 -10.4888 -10.4459  -3.6085
    -0.7799  -0.4481   0.0610   0.3029   0.3212   0.3714   0.3779   0.4928
     1.4924   1.6600   1.7452   2.0405   2.1058   2.1580   4.5542   8.3357
     8.5317   8.9568

          k = 0.1000 0.2000 0.3000 ( 18053 PWs)   bands (ev):

   -87.2321 -50.7679 -50.7679 -50.7679 -11.0830 -10.5491 -10.4534  -3.8818
    -0.7220  -0.2574   0.2389   0.2783   0.3111   0.3710   0.3786   0.5836
     1.3821   1.6399   1.8210   2.0634   2.1831   2.2436   4.7897   7.4454
     8.2041   8.6803

          k = 0.1000 0.2000 0.4000 ( 18049 PWs)   bands (ev):

   -87.2321 -50.7679 -50.7679 -50.7679 -11.0042 -10.6232 -10.4539  -4.0640
    -0.6735  -0.1815   0.2507   0.3049   0.3407   0.3797   0.3841   0.5968
     1.2724   1.7011   1.8096   2.1130   2.2249   2.6518   4.9173   6.5088
     8.0448   8.5615

          k = 0.1000 0.2000-0.5000 ( 18050 PWs)   bands (ev):

   -87.2321 -50.7679 -50.7679 -50.7679 -10.9637 -10.6622 -10.4538  -4.1271
    -0.6541  -0.1584   0.2398   0.3032   0.3469   0.3838   0.4129   0.5846
     1.2259   1.7341   1.7770   2.1299   2.2294   2.9811   4.8795   6.1357
     7.9862   8.5317

          k = 0.1000 0.3000 0.3000 ( 18051 PWs)   bands (ev):

   -87.2321 -50.7679 -50.7679 -50.7679 -11.0115 -10.5699 -10.4943  -4.1485
    -0.6560   0.1998   0.2032   0.2598   0.2935   0.3647   0.3745   0.6134
     1.3261   1.5352   1.8922   2.0254   2.3502   2.4161   4.8989   7.2408
     7.5007   8.3141

          k = 0.1000 0.3000 0.4000 ( 18051 PWs)   bands (ev):

   -87.2321 -50.7679 -50.7679 -50.7679 -10.9330 -10.6232 -10.5117  -4.3295
    -0.5994   0.1724   0.2477   0.2848   0.3383   0.3780   0.5131   0.5982
     1.2337   1.5441   1.8666   2.0405   2.4166   2.8838   4.9399   6.3585
     7.3448   8.3190

          k = 0.1000 0.3000-0.5000 ( 18070 PWs)   bands (ev):

   -87.2321 -50.7679 -50.7679 -50.7679 -10.8906 -10.6596 -10.5147  -4.3927
    -0.5765   0.1597   0.2473   0.2866   0.3231   0.3799   0.5804   0.6277
     1.1757   1.5691   1.8334   2.0556   2.4360   3.2126   4.8972   5.9287
     7.3190   8.4009

          k = 0.1000 0.4000 0.4000 ( 18052 PWs)   bands (ev):

   -87.2321 -50.7679 -50.7679 -50.7679 -10.8516 -10.6330 -10.5725  -4.5115
    -0.5340   0.1120   0.2687   0.2874   0.3501   0.3806   0.5987   0.8573
     1.2038   1.4724   1.8946   1.9582   2.5510   3.3030   4.9365   6.1533
     6.3917   8.4958

          k = 0.1000 0.4000-0.5000 ( 18040 PWs)   bands (ev):

   -87.2321 -50.7679 -50.7679 -50.7679 -10.8024 -10.6574 -10.5931  -4.5754
    -0.5067   0.0870   0.2675   0.2731   0.3607   0.3824   0.5987   1.0116
     1.1476   1.4898   1.8675   1.9485   2.5952   3.6151   4.9101   5.7545
     6.2422   8.7340

          k = 0.1000-0.5000-0.5000 ( 18072 PWs)   bands (ev):

   -87.2321 -50.7679 -50.7679 -50.7679 -10.7351 -10.6566 -10.6566  -4.6396
    -0.4771   0.0590   0.2590   0.2590   0.3787   0.3843   0.6097   1.1370
     1.1370   1.5181   1.8799   1.8799   2.6548   3.9288   4.9153   5.6852
     5.6852   8.7700

          k = 0.2000 0.2000 0.2000 ( 18046 PWs)   bands (ev):

   -87.2321 -50.7679 -50.7679 -50.7679 -11.1086 -10.4874 -10.4874  -3.8767
    -0.4075  -0.4075   0.0990   0.2989   0.2989   0.3799   0.3799   0.5860
     1.4446   1.4446   1.7436   2.1516   2.1934   2.1934   4.6798   8.0860
     8.4295   8.4295

          k = 0.2000 0.2000 0.3000 ( 18053 PWs)   bands (ev):

   -87.2321 -50.7679 -50.7679 -50.7679 -11.0376 -10.5509 -10.4857  -4.1387
    -0.3535  -0.1391   0.2057   0.2804   0.2901   0.3832   0.3849   0.6455
     1.2482   1.4359   1.9402   2.1947   2.2534   2.2874   4.8183   7.3548
     8.0044   8.3293

          k = 0.2000 0.2000 0.4000 ( 18043 PWs)   bands (ev):

   -87.2321 -50.7679 -50.7679 -50.7679 -10.9606 -10.6220 -10.4842  -4.3168
    -0.3064  -0.0386   0.2580   0.2696   0.3488   0.3875   0.3903   0.6193
     1.1039   1.4850   2.0076   2.2225   2.2849   2.7212   4.8718   6.3930
     8.0323   8.2648

          k = 0.2000 0.2000-0.5000 ( 18060 PWs)   bands (ev):

   -87.2321 -50.7679 -50.7679 -50.7679 -10.9201 -10.6602 -10.4837  -4.3791
    -0.2875  -0.0093   0.2424   0.2663   0.3892   0.3938   0.4082   0.5911
     1.0490   1.5085   1.9956   2.2342   2.2924   3.0592   4.8251   5.9766
     8.1188   8.2434

          k = 0.2000 0.3000 0.3000 ( 18037 PWs)   bands (ev):

   -87.2321 -50.7679 -50.7679 -50.7679 -10.9698 -10.5683 -10.5219  -4.3963
    -0.2061   0.1831   0.2302   0.2678   0.2853   0.3890   0.3898   0.6614
     1.1524   1.2862   2.1180   2.2223   2.3565   2.4431   4.8297   7.1442
     7.3924   8.0267

          k = 0.2000 0.3000 0.4000 ( 18049 PWs)   bands (ev):

   -87.2321 -50.7679 -50.7679 -50.7679 -10.8950 -10.6219 -10.5318  -4.5741
    -0.1395   0.1849   0.2550   0.2778   0.3776   0.3875   0.5314   0.6238
     1.0226   1.3077   2.1220   2.2402   2.4223   2.9226   4.7973   6.2457
     7.2334   8.1254

          k = 0.2000 0.3000-0.5000 ( 18048 PWs)   bands (ev):

   -87.2321 -50.7679 -50.7679 -50.7679 -10.8538 -10.6577 -10.5329  -4.6367
    -0.1138   0.1886   0.2479   0.2765   0.3775   0.3876   0.5888   0.6472
     0.9538   1.3388   2.0990   2.2495   2.4422   3.2652   4.7444   5.7823
     7.2049   8.2249

          k = 0.2000 0.4000 0.4000 ( 18055 PWs)   bands (ev):

   -87.2321 -50.7679 -50.7679 -50.7679 -10.8203 -10.6314 -10.5824  -4.7534
    -0.0511   0.1586   0.2732   0.2886   0.3776   0.3855   0.6011   0.8013
     0.9825   1.3081   2.1519   2.1975   2.5478   3.3373   4.7174   6.0433
     6.2836   8.2073

          k = 0.2000 0.4000-0.5000 ( 18068 PWs)   bands (ev):

   -87.2321 -50.7679 -50.7679 -50.7679 -10.7745 -10.6557 -10.5982  -4.8168
    -0.0129   0.1422   0.2742   0.2869   0.3753   0.3871   0.5906   0.8962
     0.9186   1.3889   2.1310   2.1902   2.5907   3.6611   4.6700   5.6238
     6.1355   8.2350

          k = 0.2000-0.5000-0.5000 ( 18068 PWs)   bands (ev):

   -87.2321 -50.7679 -50.7679 -50.7679 -10.7124 -10.6549 -10.6549  -4.8807
     0.0350   0.1239   0.2698   0.2698   0.3849   0.3882   0.5939   0.9103
     0.9103   1.5209   2.1390   2.1390   2.6491   3.9899   4.6398   5.5623
     5.5623   8.2326

          k = 0.3000 0.3000 0.3000 ( 18007 PWs)   bands (ev):

   -87.2321 -50.7679 -50.7679 -50.7679 -10.9078 -10.5664 -10.5664  -4.6504
     0.1737   0.2545   0.2545   0.2856   0.2856   0.4246   0.4246   0.6823
     1.0620   1.0620   2.3626   2.3626   2.3679   2.5559   4.7246   7.0283
     7.0283   7.4972

          k = 0.3000 0.3000 0.4000 ( 18043 PWs)   bands (ev):

   -87.2321 -50.7679 -50.7679 -50.7679 -10.8387 -10.6212 -10.5648  -4.8284
     0.1914   0.2628   0.2737   0.2864   0.3850   0.4940   0.5867   0.6565
     0.8807   1.1316   2.3371   2.3716   2.4510   3.0652   4.6164   6.1015
     6.9387   7.3919

          k = 0.3000 0.3000-0.5000 ( 18028 PWs)   bands (ev):

   -87.2321 -50.7679 -50.7679 -50.7679 -10.7990 -10.6554 -10.5643  -4.8915
     0.2100   0.2616   0.2676   0.2822   0.3914   0.5465   0.5894   0.7012
     0.7925   1.1979   2.3078   2.3743   2.4789   3.4230   4.5533   5.6030
     6.9057   7.3760

          k = 0.3000 0.4000 0.4000 ( 18010 PWs)   bands (ev):

   -87.2321 -50.7679 -50.7679 -50.7679 -10.7753 -10.6293 -10.6005  -5.0082
     0.2071   0.2856   0.2865   0.3430   0.3881   0.5799   0.6245   0.7076
     0.8279   1.2233   2.3903   2.3989   2.5447   3.4480   4.4655   5.8990
     6.1277   7.1782

          k = 0.3000 0.4000-0.5000 ( 18030 PWs)   bands (ev):

   -87.2321 -50.7679 -50.7679 -50.7679 -10.7352 -10.6535 -10.6088  -5.0723
     0.2162   0.2829   0.2934   0.3510   0.3918   0.5733   0.6587   0.7198
     0.7631   1.3611   2.3761   2.4011   2.5861   3.7841   4.3993   5.4536
     5.9875   7.1423

          k = 0.3000-0.5000-0.5000 ( 18036 PWs)   bands (ev):

   -87.2321 -50.7679 -50.7679 -50.7679 -10.6837 -10.6528 -10.6528  -5.1367
     0.2187   0.2929   0.2929   0.3710   0.3930   0.5631   0.7050   0.7050
     0.7099   1.5245   2.3850   2.3850   2.6420   4.1296   4.3408   5.3945
     5.3945   7.1029

          k = 0.4000 0.4000 0.4000 ( 18030 PWs)   bands (ev):

   -87.2321 -50.7679 -50.7679 -50.7679 -10.7258 -10.6277 -10.6277  -5.1901
     0.2582   0.3088   0.3088   0.3811   0.3811   0.5817   0.6199   0.6199
     1.1925   1.1925   2.5207   2.5207   2.5575   3.7560   4.2727   5.7770
     5.7770   6.3623

          k = 0.4000 0.4000-0.5000 ( 18050 PWs)   bands (ev):

   -87.2321 -50.7679 -50.7679 -50.7679 -10.6931 -10.6518 -10.6270  -5.2552
     0.2818   0.3176   0.3293   0.3677   0.3933   0.5423   0.5850   0.6039
     1.1855   1.4013   2.5314   2.5418   2.5950   4.0822   4.1956   5.3052
     5.7292   6.2038

          k = 0.4000-0.5000-0.5000 ( 18004 PWs)   bands (ev):

   -87.2321 -50.7679 -50.7679 -50.7679 -10.6598 -10.6511 -10.6511  -5.3208
     0.3240   0.3345   0.3345   0.3776   0.3969   0.5125   0.5451   0.5451
     1.2876   1.5274   2.5659   2.5659   2.6363   4.1206   4.4347   5.2453
     5.2453   5.9934

          k =-0.5000-0.5000-0.5000 ( 18048 PWs)   bands (ev):

   -87.2321 -50.7679 -50.7679 -50.7679 -10.6505 -10.6505 -10.6505  -5.3869
     0.3788   0.3788   0.3788   0.3984   0.3984   0.4599   0.4599   0.4599
     1.5285   1.5285   2.6341   2.6341   2.6341   4.0403   4.9250   5.1846
     5.1846   5.1846

     the Fermi energy is     4.0518 ev

!    total energy              =   -1334.70066685 Ry
     total all-electron energy =    -30469.182464 Ry
     estimated scf accuracy    <          1.3E-13 Ry
     smearing contrib. (-TS)   =      -0.00007675 Ry
     internal energy E=F+TS    =   -1334.70059010 Ry

     The total energy is F=E-TS. E is the sum of the following terms:
     one-electron contribution =    -240.87153871 Ry
     hartree contribution      =     135.35224772 Ry
     xc contribution           =     -81.28139622 Ry
     ewald contribution        =    -221.13592934 Ry
     one-center paw contrib.   =    -926.76397355 Ry

     convergence has been achieved in  14 iterations

     Writing all to output data dir ./tmp/AgGeBr3.save/ :
     XML data file, charge density, pseudopotentials, collected wavefunctions

     init_run     :     10.42s CPU      9.61s WALL (       1 calls)
     electrons    :    361.63s CPU    297.72s WALL (       1 calls)

     Called by init_run:
     wfcinit      :      6.25s CPU      5.30s WALL (       1 calls)
     potinit      :      1.27s CPU      1.38s WALL (       1 calls)
     hinit0       :      1.34s CPU      1.38s WALL (       1 calls)

     Called by electrons:
     c_bands      :    266.20s CPU    216.18s WALL (      15 calls)
     sum_band     :     77.35s CPU     63.16s WALL (      15 calls)
     v_of_rho     :      7.85s CPU      8.12s WALL (      15 calls)
     newd         :      7.57s CPU      7.67s WALL (      15 calls)
     PAW_pot      :      2.18s CPU      2.20s WALL (      15 calls)
     mix_rho      :      0.66s CPU      0.67s WALL (      15 calls)

     Called by c_bands:
     init_us_2    :      7.75s CPU      5.50s WALL (     434 calls)
     cegterg      :    238.41s CPU    195.27s WALL (     210 calls)

     Called by *egterg:
     cdiaghg      :      2.37s CPU      1.70s WALL (     768 calls)
     h_psi        :    204.02s CPU    177.30s WALL (     796 calls)
     s_psi        :      5.69s CPU      3.04s WALL (     796 calls)
     g_psi        :      1.22s CPU      0.88s WALL (     572 calls)

     Called by h_psi:
     h_psi:calbec :      7.23s CPU      4.03s WALL (     796 calls)
     vloc_psi     :    189.60s CPU    169.15s WALL (     796 calls)
     add_vuspsi   :      5.80s CPU      3.13s WALL (     796 calls)

     General routines
     calbec       :     10.18s CPU      5.70s WALL (    1006 calls)
     fft          :      5.89s CPU      6.14s WALL (     194 calls)
     ffts         :      0.70s CPU      0.67s WALL (      30 calls)
     fftw         :    172.40s CPU    151.80s WALL (   32132 calls)
     interpolate  :      1.08s CPU      1.11s WALL (      15 calls)

     Parallel routines

     PWSCF        :   6m12.60s CPU   5m 8.02s WALL


   This run was terminated on:  14:23:53  16May2025            

=------------------------------------------------------------------------------=
   JOB DONE.
=------------------------------------------------------------------------------=
