
     Program PWSCF v.7.3.1 starts on 10May2025 at 13:36:42 

     This program is part of the open-source Quantum ESPRESSO suite
     for quantum simulation of materials; please cite
         "P. Giannozzi et al., J. Phys.:Condens. Matter 21 395502 (2009);
         "P. Giannozzi et al., J. Phys.:Condens. Matter 29 465901 (2017);
         "P. Giannozzi et al., J. Chem. Phys. 152 154105 (2020);
          URL http://www.quantum-espresso.org", 
     in publications or presentations arising from this work. More details at
     http://www.quantum-espresso.org/quote

     Parallel version (MPI), running on     8 processors

     MPI processes distributed on     1 nodes
     42657 MiB available memory on the printing compute node when the environment starts

     Waiting for input...
     Reading input from standard input

     Current dimensions of program PWSCF are:
     Max number of different atomic species (ntypx) = 10
     Max number of k-points (npk) = 120000
     Max angular momentum in pseudopotentials (lmaxx) =  4

     File ./tmp/RbSbSe3.update deleted, as requested

     File ./tmp/RbSbSe3.bfgs deleted, as requested
     file Rb.pbe-spn-kjpaw_psl.1.0.0.UPF: wavefunction(s)  4S renormalized
     file Sb.pbe-n-kjpaw_psl.1.0.0.UPF: wavefunction(s)  5S renormalized
     file Se.pbe-n-kjpaw_psl.1.0.0.UPF: wavefunction(s)  4S renormalized

     IMPORTANT: XC functional enforced from input :
     Exchange-correlation= PBE
                           (   1   4   3   4   0   0   0)
     Any further DFT definition will be discarded
     Please, verify this is what you really want

     Message from routine setup:
     using ibrav=0 with symmetry is DISCOURAGED, use correct ibrav instead

     K-points division:     npool     =       2
     R & G space division:  proc/nbgrp/npool/nimage =       4
     Subspace diagonalization in iterative solution of the eigenvalue problem:
     a serial algorithm will be used


     Parallelization info
     --------------------
     sticks:   dense  smooth     PW     G-vecs:    dense   smooth      PW
     Min        1469     734    205                84400    29830    4389
     Max        1470     736    206                84401    29831    4390
     Sum        5877    2941    821               337603   119321   17557

     Using Slab Decomposition



     bravais-lattice index     =            0
     lattice parameter (alat)  =       9.5942  a.u.
     unit-cell volume          =     883.1306 (a.u.)^3
     number of atoms/cell      =            5
     number of atomic types    =            3
     number of electrons       =        32.00
     number of Kohn-Sham states=           20
     kinetic-energy cutoff     =     100.0000  Ry
     charge density cutoff     =     800.0000  Ry
     scf convergence threshold =      1.0E-12
     mixing beta               =       0.3000
     number of iterations used =            8  plain     mixing
     energy convergence thresh.=      1.0E-07
     force convergence thresh. =      1.0E-05
     press convergence thresh. =      1.0E-01
     Exchange-correlation= PBE
                           (   1   4   3   4   0   0   0)
     nstep                     =           50


     celldm(1)=   9.594190  celldm(2)=   0.000000  celldm(3)=   0.000000
     celldm(4)=   0.000000  celldm(5)=   0.000000  celldm(6)=   0.000000

     crystal axes: (cart. coord. in units of alat)
               a(1) = (   1.000000   0.000000   0.000000 )  
               a(2) = (   0.000000   1.000000   0.000000 )  
               a(3) = (   0.000000   0.000000   1.000000 )  

     reciprocal axes: (cart. coord. in units 2 pi/alat)
               b(1) = (  1.000000  0.000000  0.000000 )  
               b(2) = (  0.000000  1.000000  0.000000 )  
               b(3) = (  0.000000  0.000000  1.000000 )  


     PseudoPot. # 1 for Rb read from file:
     /home/administrator/Downloads/BURAI/BURAI1.3/pseudopot/Rb.pbe-spn-kjpaw_psl.1.0.0.UPF
     MD5 check sum: 2771e311bc20ea25cdd5c0a9866b789c
     Pseudo is Projector augmented-wave + core cor, Zval =  9.0
     Generated using "atomic" code by A. Dal Corso  v.5.1.2
     Shape of augmentation charge: PSQ
     Using radial grid of 1219 points,  6 beta functions with: 
                l(1) =   0
                l(2) =   0
                l(3) =   1
                l(4) =   1
                l(5) =   2
                l(6) =   2
     Q(r) pseudized with 0 coefficients 


     PseudoPot. # 2 for Sb read from file:
     /home/administrator/Downloads/BURAI/BURAI1.3/pseudopot/Sb.pbe-n-kjpaw_psl.1.0.0.UPF
     MD5 check sum: f1c885dedccffa706451a3b39fc4a741
     Pseudo is Projector augmented-wave + core cor, Zval =  5.0
     Generated using "atomic" code by A. Dal Corso  v.5.1.2
     Shape of augmentation charge: PSQ
     Using radial grid of 1243 points,  6 beta functions with: 
                l(1) =   0
                l(2) =   0
                l(3) =   1
                l(4) =   1
                l(5) =   2
                l(6) =   2
     Q(r) pseudized with 0 coefficients 


     PseudoPot. # 3 for Se read from file:
     /home/administrator/Downloads/BURAI/BURAI1.3/pseudopot/Se.pbe-n-kjpaw_psl.1.0.0.UPF
     MD5 check sum: a24196f260b4188fa853fb27ef2f7c98
     Pseudo is Projector augmented-wave + core cor, Zval =  6.0
     Generated using "atomic" code by A. Dal Corso  v.5.1.2
     Shape of augmentation charge: PSQ
     Using radial grid of 1211 points,  4 beta functions with: 
                l(1) =   0
                l(2) =   0
                l(3) =   1
                l(4) =   1
     Q(r) pseudized with 0 coefficients 


     atomic species   valence    mass     pseudopotential
     Rb                9.00    85.46780     Rb( 1.00)
     Sb                5.00   121.76000     Sb( 1.00)
     Se                6.00    78.97100     Se( 1.00)

     48 Sym. Ops., with inversion, found



   Cartesian axes

     site n.     atom                  positions (alat units)
         1        Rb     tau(   1) = (   0.0000000   0.0000000   0.0000000  )
         2        Sb     tau(   2) = (   0.5000000   0.5000000   0.5000000  )
         3        Se     tau(   3) = (   0.5000000   0.5000000   0.0000000  )
         4        Se     tau(   4) = (   0.5000000   0.0000000   0.5000000  )
         5        Se     tau(   5) = (   0.0000000   0.5000000   0.5000000  )

     number of k points=    35  Gaussian smearing, width (Ry)=  0.0100
                       cart. coord. in units 2pi/alat
        k(    1) = (   0.0000000   0.0000000   0.0000000), wk =   0.0039062
        k(    2) = (   0.0000000   0.0000000   0.1250000), wk =   0.0234375
        k(    3) = (   0.0000000   0.0000000   0.2500000), wk =   0.0234375
        k(    4) = (   0.0000000   0.0000000   0.3750000), wk =   0.0234375
        k(    5) = (   0.0000000   0.0000000  -0.5000000), wk =   0.0117188
        k(    6) = (   0.0000000   0.1250000   0.1250000), wk =   0.0468750
        k(    7) = (   0.0000000   0.1250000   0.2500000), wk =   0.0937500
        k(    8) = (   0.0000000   0.1250000   0.3750000), wk =   0.0937500
        k(    9) = (   0.0000000   0.1250000  -0.5000000), wk =   0.0468750
        k(   10) = (   0.0000000   0.2500000   0.2500000), wk =   0.0468750
        k(   11) = (   0.0000000   0.2500000   0.3750000), wk =   0.0937500
        k(   12) = (   0.0000000   0.2500000  -0.5000000), wk =   0.0468750
        k(   13) = (   0.0000000   0.3750000   0.3750000), wk =   0.0468750
        k(   14) = (   0.0000000   0.3750000  -0.5000000), wk =   0.0468750
        k(   15) = (   0.0000000  -0.5000000  -0.5000000), wk =   0.0117188
        k(   16) = (   0.1250000   0.1250000   0.1250000), wk =   0.0312500
        k(   17) = (   0.1250000   0.1250000   0.2500000), wk =   0.0937500
        k(   18) = (   0.1250000   0.1250000   0.3750000), wk =   0.0937500
        k(   19) = (   0.1250000   0.1250000  -0.5000000), wk =   0.0468750
        k(   20) = (   0.1250000   0.2500000   0.2500000), wk =   0.0937500
        k(   21) = (   0.1250000   0.2500000   0.3750000), wk =   0.1875000
        k(   22) = (   0.1250000   0.2500000  -0.5000000), wk =   0.0937500
        k(   23) = (   0.1250000   0.3750000   0.3750000), wk =   0.0937500
        k(   24) = (   0.1250000   0.3750000  -0.5000000), wk =   0.0937500
        k(   25) = (   0.1250000  -0.5000000  -0.5000000), wk =   0.0234375
        k(   26) = (   0.2500000   0.2500000   0.2500000), wk =   0.0312500
        k(   27) = (   0.2500000   0.2500000   0.3750000), wk =   0.0937500
        k(   28) = (   0.2500000   0.2500000  -0.5000000), wk =   0.0468750
        k(   29) = (   0.2500000   0.3750000   0.3750000), wk =   0.0937500
        k(   30) = (   0.2500000   0.3750000  -0.5000000), wk =   0.0937500
        k(   31) = (   0.2500000  -0.5000000  -0.5000000), wk =   0.0234375
        k(   32) = (   0.3750000   0.3750000   0.3750000), wk =   0.0312500
        k(   33) = (   0.3750000   0.3750000  -0.5000000), wk =   0.0468750
        k(   34) = (   0.3750000  -0.5000000  -0.5000000), wk =   0.0234375
        k(   35) = (  -0.5000000  -0.5000000  -0.5000000), wk =   0.0039062

     Dense  grid:   337603 G-vectors     FFT dimensions: (  90,  90,  90)

     Smooth grid:   119321 G-vectors     FFT dimensions: (  64,  64,  64)

     Estimated max dynamical RAM per process >     221.01 MB

     Estimated total dynamical RAM >       1.65 GB

     Initial potential from superposition of free atoms

     starting charge      31.9763, renormalised to      32.0000
     Starting wfcs are   24 randomized atomic wfcs
     Checking if some PAW data can be deallocated... 

     total cpu time spent up to now is        5.8 secs

     Self-consistent Calculation

     iteration #  1     ecut=   100.00 Ry     beta= 0.30
     Davidson diagonalization with overlap
     ethr =  1.00E-02,  avg # of iterations =  4.2

     Threshold (ethr) on eigenvalues was too large:
     Diagonalizing with lowered threshold

     Davidson diagonalization with overlap
     ethr =  5.82E-04,  avg # of iterations =  2.2

     total cpu time spent up to now is       20.9 secs

     total energy              =   -1155.56990708 Ry
     estimated scf accuracy    <       0.17868114 Ry

     iteration #  2     ecut=   100.00 Ry     beta= 0.30
     Davidson diagonalization with overlap
     ethr =  5.58E-04,  avg # of iterations =  2.0

     total cpu time spent up to now is       28.5 secs

     total energy              =   -1155.59160905 Ry
     estimated scf accuracy    <       0.01072771 Ry

     iteration #  3     ecut=   100.00 Ry     beta= 0.30
     Davidson diagonalization with overlap
     ethr =  3.35E-05,  avg # of iterations =  8.3

     total cpu time spent up to now is       39.3 secs

     total energy              =   -1155.59419019 Ry
     estimated scf accuracy    <       0.00176697 Ry

     iteration #  4     ecut=   100.00 Ry     beta= 0.30
     Davidson diagonalization with overlap
     ethr =  5.52E-06,  avg # of iterations =  3.9

     total cpu time spent up to now is       47.4 secs

     total energy              =   -1155.59436808 Ry
     estimated scf accuracy    <       0.00021670 Ry

     iteration #  5     ecut=   100.00 Ry     beta= 0.30
     Davidson diagonalization with overlap
     ethr =  6.77E-07,  avg # of iterations =  4.9

     total cpu time spent up to now is       56.1 secs

     total energy              =   -1155.59438766 Ry
     estimated scf accuracy    <       0.00000605 Ry

     iteration #  6     ecut=   100.00 Ry     beta= 0.30
     Davidson diagonalization with overlap
     ethr =  1.89E-08,  avg # of iterations =  3.6

     total cpu time spent up to now is       65.5 secs

     total energy              =   -1155.59439230 Ry
     estimated scf accuracy    <       0.00000114 Ry

     iteration #  7     ecut=   100.00 Ry     beta= 0.30
     Davidson diagonalization with overlap
     ethr =  3.56E-09,  avg # of iterations =  3.2

     total cpu time spent up to now is       73.9 secs

     total energy              =   -1155.59439319 Ry
     estimated scf accuracy    <       0.00000106 Ry

     iteration #  8     ecut=   100.00 Ry     beta= 0.30
     Davidson diagonalization with overlap
     ethr =  3.32E-09,  avg # of iterations =  2.0

     total cpu time spent up to now is       81.7 secs

     total energy              =   -1155.59439375 Ry
     estimated scf accuracy    <          4.6E-09 Ry

     iteration #  9     ecut=   100.00 Ry     beta= 0.30
     Davidson diagonalization with overlap
     ethr =  1.45E-11,  avg # of iterations =  5.2

     total cpu time spent up to now is       93.0 secs

     total energy              =   -1155.59439392 Ry
     estimated scf accuracy    <          2.7E-09 Ry

     iteration # 10     ecut=   100.00 Ry     beta= 0.30
     Davidson diagonalization with overlap
     ethr =  8.33E-12,  avg # of iterations =  3.7

     total cpu time spent up to now is      102.7 secs

     total energy              =   -1155.59439400 Ry
     estimated scf accuracy    <       0.00000001 Ry

     iteration # 11     ecut=   100.00 Ry     beta= 0.30
     Davidson diagonalization with overlap
     ethr =  8.33E-12,  avg # of iterations =  2.0

     total cpu time spent up to now is      110.9 secs

     total energy              =   -1155.59439404 Ry
     estimated scf accuracy    <          4.6E-10 Ry

     iteration # 12     ecut=   100.00 Ry     beta= 0.30
     Davidson diagonalization with overlap
     ethr =  1.45E-12,  avg # of iterations =  3.1

     total cpu time spent up to now is      119.3 secs

     total energy              =   -1155.59439405 Ry
     estimated scf accuracy    <          6.7E-12 Ry

     iteration # 13     ecut=   100.00 Ry     beta= 0.30
     Davidson diagonalization with overlap
     ethr =  1.00E-13,  avg # of iterations =  2.8

     total cpu time spent up to now is      127.4 secs

     End of self-consistent calculation

          k = 0.0000 0.0000 0.0000 ( 14939 PWs)   bands (ev):

   -19.5981  -8.7577  -5.6785  -5.6785  -3.7809  -3.7809  -3.7809  -0.0069
    -0.0069  -0.0069   0.2562   5.2233   5.2233   5.2233   5.5339   5.5339
     5.5339  10.3557  10.6648  10.6648

          k = 0.0000 0.0000 0.1250 ( 14939 PWs)   bands (ev):

   -19.5978  -8.7053  -5.8175  -5.6752  -3.7761  -3.7761  -3.7521  -0.7290
     0.0112   0.0112   1.2736   5.1285   5.1291   5.1291   5.4159   5.4629
     5.4629  10.6579  10.7405  10.9761

          k = 0.0000 0.0000 0.2500 ( 14939 PWs)   bands (ev):

   -19.5970  -8.5613  -6.1510  -5.6673  -3.7646  -3.7646  -3.7167  -1.2265
     0.0564   0.0564   2.5341   4.8770   4.8770   4.9204   5.2820   5.3493
     5.3493  10.9603  11.2476  11.3285

          k = 0.0000 0.0000 0.3750 ( 14906 PWs)   bands (ev):

   -19.5962  -8.3790  -6.5036  -5.6593  -3.7530  -3.7530  -3.7186  -1.4410
     0.1039   0.1039   3.4227   4.6282   4.6282   4.7349   5.2664   5.2664
     5.7457   9.6131  11.2879  11.8884

          k = 0.0000 0.0000-0.5000 ( 14862 PWs)   bands (ev):

   -19.5959  -8.2840  -6.6649  -5.6560  -3.7482  -3.7482  -3.7278  -1.4920
     0.1243   0.1243   3.6200   4.5290   4.5290   4.6633   5.2355   5.2355
     6.6623   8.2382  11.5169  12.2354

          k = 0.0000 0.1250 0.1250 ( 14929 PWs)   bands (ev):

   -19.5975  -8.6517  -5.8730  -5.7461  -3.7717  -3.7529  -3.7486  -1.2118
     0.0311   0.4476   1.6235   4.7793   5.0577   5.2323   5.2757   5.3682
     5.5787  10.8904  10.9802  11.0020

          k = 0.0000 0.1250 0.2500 ( 14917 PWs)   bands (ev):

   -19.5967  -8.5039  -6.1643  -5.7645  -3.7608  -3.7473  -3.7215  -1.6821
     0.0810   0.7141   2.6065   4.3909   4.8383   5.1209   5.2185   5.2698
     5.5755  11.2522  11.3562  11.5031

          k = 0.0000 0.1250 0.3750 ( 14933 PWs)   bands (ev):

   -19.5959  -8.3152  -6.5073  -5.7580  -3.7499  -3.7437  -3.7306  -1.8987
     0.1336   0.8192   3.3470   4.2464   4.5975   5.1130   5.1228   5.2890
     5.8606   9.6222  11.5728  12.0400

          k = 0.0000 0.1250-0.5000 ( 14882 PWs)   bands (ev):

   -19.5956  -8.2157  -6.6683  -5.7545  -3.7454  -3.7437  -3.7420  -1.9514
     0.1564   0.8531   3.4462   4.2642   4.4988   5.0892   5.1733   5.1945
     6.7036   8.2629  11.8025  12.4240

          k = 0.0000 0.2500 0.2500 ( 14932 PWs)   bands (ev):

   -19.5960  -8.3440  -6.2593  -5.9568  -3.7516  -3.7388  -3.7182  -2.2005
     0.1430   1.6347   2.8895   3.9653   4.7180   4.9587   5.1526   5.3321
     5.8437  11.2659  11.5184  11.9371

          k = 0.0000 0.2500 0.3750 ( 14902 PWs)   bands (ev):

   -19.5952  -8.1340  -6.5203  -6.0327  -3.7529  -3.7423  -3.7190  -2.4670
     0.2091   2.0779   3.1156   4.0446   4.5236   4.8024   5.1007   5.6983
     6.0993   9.5650  11.5856  12.2581

          k = 0.0000 0.2500-0.5000 ( 14928 PWs)   bands (ev):

   -19.5949  -8.0189  -6.6767  -6.0439  -3.7594  -3.7385  -3.7263  -2.5386
     0.2379   2.1824   3.0721   4.2314   4.4276   4.7595   5.0905   5.7863
     6.8402   8.2451  11.5781  12.4996

          k = 0.0000 0.3750 0.3750 ( 14904 PWs)   bands (ev):

   -19.5945  -7.8834  -6.5730  -6.3522  -3.7499  -3.7347  -3.7050  -2.8083
     0.2906   2.8689   3.1813   4.0966   4.4356   4.5227   5.0022   6.2559
     6.3736   9.1558  10.0024  12.5559

          k = 0.0000 0.3750-0.5000 ( 14930 PWs)   bands (ev):

   -19.5942  -7.7327  -6.6851  -6.4445  -3.7330  -3.7316  -3.7098  -2.9197
     0.3263   2.7719   3.5304   4.2814   4.3585   4.4530   4.9321   6.3250
     7.1822   8.0797   9.6662  13.1777

          k = 0.0000-0.5000-0.5000 ( 14932 PWs)   bands (ev):

   -19.5939  -7.5405  -6.6886  -6.6886  -3.7287  -3.7028  -3.7028  -3.0605
     0.3653   2.6623   4.3083   4.3083   4.3305   4.3305   4.7056   6.5794
     7.9415   7.9415   8.2127  12.7480

          k = 0.1250 0.1250 0.1250 ( 14939 PWs)   bands (ev):

   -19.5972  -8.5970  -5.8670  -5.8670  -3.7542  -3.7542  -3.7407  -1.6094
     0.4690   0.4690   1.8740   4.7405   4.7405   4.9547   5.3890   5.5623
     5.5623  11.0116  11.0265  11.0265

          k = 0.1250 0.1250 0.2500 ( 14907 PWs)   bands (ev):

   -19.5964  -8.4457  -6.1700  -5.8525  -3.7573  -3.7387  -3.7257  -2.0717
     0.5228   0.8790   2.6695   4.3431   4.4862   4.9019   5.4149   5.5054
     5.6010  11.2903  11.4781  11.4926

          k = 0.1250 0.1250 0.3750 ( 14906 PWs)   bands (ev):

   -19.5956  -8.2509  -6.5082  -5.8378  -3.7607  -3.7484  -3.7269  -2.2949
     0.5801   1.0432   3.2933   4.0541   4.5313   4.9475   5.3725   5.4152
     5.9110   9.6140  11.6316  12.2561

          k = 0.1250 0.1250-0.5000 ( 14898 PWs)   bands (ev):

   -19.5953  -8.1470  -6.6695  -5.8317  -3.7676  -3.7622  -3.7227  -2.3491
     0.6049   1.0912   3.3657   3.9491   4.7869   4.7884   5.3447   5.3765
     6.7200   8.2686  11.8138  12.5927

          k = 0.1250 0.2500 0.2500 ( 14923 PWs)   bands (ev):

   -19.5957  -8.2830  -6.2498  -6.0256  -3.7632  -3.7300  -3.7292  -2.5822
     0.7138   1.6629   2.9067   3.9767   4.3577   4.7575   5.4829   5.5629
     5.8321  11.2428  11.5342  11.6184

          k = 0.1250 0.2500 0.3750 ( 14911 PWs)   bands (ev):

   -19.5949  -8.0680  -6.5146  -6.0714  -3.7876  -3.7538  -3.7168  -2.8531
     0.7956   2.1270   3.1165   3.8491   4.3140   4.8778   5.4411   5.7677
     6.0951   9.5297  11.4759  11.9504

          k = 0.1250 0.2500-0.5000 ( 14908 PWs)   bands (ev):

   -19.5946  -7.9487  -6.6723  -6.0741  -3.8054  -3.7678  -3.7109  -2.9234
     0.8284   2.2404   3.0899   3.8125   4.4307   4.8926   5.4181   5.8356
     6.8242   8.2191  11.4542  12.1255

          k = 0.1250 0.3750 0.3750 ( 14924 PWs)   bands (ev):

   -19.5942  -7.8137  -6.5616  -6.3589  -3.8020  -3.7391  -3.7228  -3.2062
     0.8961   2.9100   3.1905   3.8093   4.1496   4.8882   5.3530   6.2640
     6.3713   9.1073   9.9554  12.1780

          k = 0.1250 0.3750-0.5000 ( 14934 PWs)   bands (ev):

   -19.5939  -7.6587  -6.6754  -6.4392  -3.7858  -3.7581  -3.7139  -3.3256
     0.9368   2.8266   3.4913   3.8073   4.2509   4.9176   5.2664   6.3417
     7.1598   8.0382   9.6227  12.4234

          k = 0.1250-0.5000-0.5000 ( 14912 PWs)   bands (ev):

   -19.5937  -7.4601  -6.6767  -6.6767  -3.7461  -3.7230  -3.7230  -3.5095
     0.9812   2.7282   3.8123   3.8123   4.7103   4.9254   4.9254   6.5879
     7.8962   7.8962   8.2083  12.2192

          k = 0.2500 0.2500 0.2500 ( 14868 PWs)   bands (ev):

   -19.5950  -8.1116  -6.2264  -6.2264  -3.7700  -3.7564  -3.7564  -3.1330
     1.7363   1.7363   2.9823   3.9149   3.9149   4.7883   5.7908   5.7908
     5.8354  11.0942  11.0942  11.4370

          k = 0.2500 0.2500 0.3750 ( 14896 PWs)   bands (ev):

   -19.5943  -7.8797  -6.5039  -6.2025  -3.8979  -3.7843  -3.7330  -3.4114
     1.8198   2.4004   3.0888   3.6026   3.9394   5.1905   5.7722   5.9903
     6.0965   9.3982  10.9729  11.4447

          k = 0.2500 0.2500-0.5000 ( 14894 PWs)   bands (ev):

   -19.5940  -7.7455  -6.6620  -6.1923  -3.9767  -3.7961  -3.7163  -3.4745
     1.8584   2.5670   3.0813   3.4882   4.0596   5.3313   5.7611   6.0298
     6.8232   8.1104  10.9362  11.5191

          k = 0.2500 0.3750 0.3750 ( 14911 PWs)   bands (ev):

   -19.5936  -7.6134  -6.5337  -6.3953  -4.1366  -3.7873  -3.7665  -3.6463
     2.1613   3.0045   3.2101   3.4994   3.8066   5.4589   5.8573   6.2892
     6.3280   8.9590   9.6982  11.3346

          k = 0.2500 0.3750-0.5000 ( 14912 PWs)   bands (ev):

   -19.5933  -7.4440  -6.6517  -6.4381  -4.2494  -3.8018  -3.7442  -3.7148
     2.2326   2.9590   3.3798   3.4274   4.0935   5.5318   5.8014   6.3885
     7.0723   7.8916   9.4081  11.4020

          k = 0.2500-0.5000-0.5000 ( 14908 PWs)   bands (ev):

   -19.5930  -7.2243  -6.6474  -6.6474  -4.3630  -3.7875  -3.7724  -3.7724
     2.3158   2.8918   3.4379   3.4379   4.7217   5.5802   5.5802   6.6085
     7.7338   7.7338   8.1199  11.4144

          k = 0.3750 0.3750 0.3750 ( 14901 PWs)   bands (ev):

   -19.5930  -7.3234  -6.5048  -6.5048  -4.6815  -3.8113  -3.8113  -3.7412
     3.0712   3.2219   3.2219   3.5970   3.5970   6.1537   6.1941   6.1941
     6.3744   8.7624   8.7624  10.7381

          k = 0.3750 0.3750-0.5000 ( 14916 PWs)   bands (ev):

   -19.5927  -7.1231  -6.6274  -6.4926  -4.8970  -3.8301  -3.7966  -3.7900
     3.0709   3.2216   3.2542   3.5324   4.1968   6.0443   6.2492   6.4855
     6.9854   7.6250   8.6646  10.6256

          k = 0.3750-0.5000-0.5000 ( 14956 PWs)   bands (ev):

   -19.5924  -6.8661  -6.6171  -6.6171  -5.1665  -3.8278  -3.8230  -3.8230
     3.0625   3.2112   3.2112   3.8237   4.7331   6.2196   6.2196   6.6296
     7.4214   7.4214   7.6779  10.4459

          k =-0.5000-0.5000-0.5000 ( 15000 PWs)   bands (ev):

   -19.5922  -6.6043  -6.6043  -6.6043  -5.5847  -3.8442  -3.8442  -3.8442
     3.1358   3.1358   3.1358   4.7379   4.7379   6.6384   6.6384   6.6384
     7.1143   7.1143   7.1143  10.1244

     the Fermi energy is     6.0673 ev

!    total energy              =   -1155.59439407 Ry
     total all-electron energy =    -33506.270863 Ry
     estimated scf accuracy    <          2.3E-13 Ry
     smearing contrib. (-TS)   =      -0.00191681 Ry
     internal energy E=F+TS    =   -1155.59247726 Ry

     The total energy is F=E-TS. E is the sum of the following terms:
     one-electron contribution =       5.68880553 Ry
     hartree contribution      =      14.11180907 Ry
     xc contribution           =     -51.23313363 Ry
     ewald contribution        =    -105.39559286 Ry
     one-center paw contrib.   =   -1018.76436537 Ry

     convergence has been achieved in  13 iterations

     Forces acting on atoms (cartesian axes, Ry/au):

     atom    1 type  1   force =     0.00000000    0.00000000    0.00000000
     atom    2 type  2   force =     0.00000000    0.00000000    0.00000000
     atom    3 type  3   force =     0.00000000    0.00000000    0.00000000
     atom    4 type  3   force =     0.00000000    0.00000000    0.00000000
     atom    5 type  3   force =     0.00000000    0.00000000    0.00000000

     Total force =     0.000000     Total SCF correction =     0.000000


     Computing stress (Cartesian axis) and pressure

          total   stress  (Ry/bohr**3)                   (kbar)     P=      121.83
   0.00082818   0.00000000   0.00000000          121.83        0.00        0.00
   0.00000000   0.00082818   0.00000000            0.00      121.83        0.00
   0.00000000   0.00000000   0.00082818            0.00        0.00      121.83


     BFGS Geometry Optimization
     Energy error            =      0.0E+00 Ry
     Gradient error          =      0.0E+00 Ry/Bohr
     Cell gradient error     =      1.2E+02 kbar

     number of scf cycles    =   1
     number of bfgs steps    =   0

     enthalpy           new  =   -1155.5943940719 Ry

     new trust radius        =       0.1230576634 bohr
     new conv_thr            =            1.0E-12 Ry

     new unit-cell volume =    939.12871 a.u.^3 (   139.16452 Ang^3 )
     density =      5.29958 g/cm^3

CELL_PARAMETERS (angstrom)
   5.182144339   0.000000000   0.000000000
   0.000000000   5.182144339   0.000000000
   0.000000000   0.000000000   5.182144339

ATOMIC_POSITIONS (crystal)
Rb               0.0000000000        0.0000000000        0.0000000000
Sb               0.5000000000        0.5000000000        0.5000000000
Se               0.5000000000        0.5000000000        0.0000000000
Se               0.5000000000        0.0000000000        0.5000000000
Se               0.0000000000        0.5000000000        0.5000000000



     Writing config-only to output data dir ./tmp/RbSbSe3.save/ :
     XML data file
     NEW-OLD atomic charge density approx. for the potential

     total cpu time spent up to now is      140.9 secs

     Self-consistent Calculation

     iteration #  1     ecut=   100.00 Ry     beta= 0.30
     Davidson diagonalization with overlap
     c_bands:  1 eigenvalues not converged
     ethr =  1.00E-06,  avg # of iterations = 10.2

     total cpu time spent up to now is      156.6 secs

     total energy              =   -1155.63200063 Ry
     estimated scf accuracy    <       0.00008708 Ry

     iteration #  2     ecut=   100.00 Ry     beta= 0.30
     Davidson diagonalization with overlap
     ethr =  2.72E-07,  avg # of iterations =  2.1

     total cpu time spent up to now is      164.3 secs

     total energy              =   -1155.63151945 Ry
     estimated scf accuracy    <       0.00003523 Ry

     iteration #  3     ecut=   100.00 Ry     beta= 0.30
     Davidson diagonalization with overlap
     ethr =  1.10E-07,  avg # of iterations =  2.0

     total cpu time spent up to now is      172.9 secs

     total energy              =   -1155.63145238 Ry
     estimated scf accuracy    <       0.00001057 Ry

     iteration #  4     ecut=   100.00 Ry     beta= 0.30
     Davidson diagonalization with overlap
     ethr =  3.30E-08,  avg # of iterations =  2.0

     total cpu time spent up to now is      181.5 secs

     total energy              =   -1155.63145480 Ry
     estimated scf accuracy    <       0.00000103 Ry

     iteration #  5     ecut=   100.00 Ry     beta= 0.30
     Davidson diagonalization with overlap
     ethr =  3.22E-09,  avg # of iterations =  2.0

     total cpu time spent up to now is      190.6 secs

     total energy              =   -1155.63145753 Ry
     estimated scf accuracy    <       0.00000028 Ry

     iteration #  6     ecut=   100.00 Ry     beta= 0.30
     Davidson diagonalization with overlap
     ethr =  8.71E-10,  avg # of iterations =  2.0

     total cpu time spent up to now is      198.8 secs

     total energy              =   -1155.63145894 Ry
     estimated scf accuracy    <       0.00000003 Ry

     iteration #  7     ecut=   100.00 Ry     beta= 0.30
     Davidson diagonalization with overlap
     ethr =  9.21E-11,  avg # of iterations =  2.0

     total cpu time spent up to now is      207.3 secs

     total energy              =   -1155.63145963 Ry
     estimated scf accuracy    <          5.7E-09 Ry

     iteration #  8     ecut=   100.00 Ry     beta= 0.30
     Davidson diagonalization with overlap
     ethr =  1.78E-11,  avg # of iterations =  3.1

     total cpu time spent up to now is      216.1 secs

     total energy              =   -1155.63145996 Ry
     estimated scf accuracy    <          1.1E-09 Ry

     iteration #  9     ecut=   100.00 Ry     beta= 0.30
     Davidson diagonalization with overlap
     ethr =  3.36E-12,  avg # of iterations =  2.5

     total cpu time spent up to now is      224.0 secs

     total energy              =   -1155.63146013 Ry
     estimated scf accuracy    <          5.5E-10 Ry

     iteration # 10     ecut=   100.00 Ry     beta= 0.30
     Davidson diagonalization with overlap
     ethr =  1.73E-12,  avg # of iterations =  2.0

     total cpu time spent up to now is      231.8 secs

     total energy              =   -1155.63146021 Ry
     estimated scf accuracy    <          4.7E-11 Ry

     iteration # 11     ecut=   100.00 Ry     beta= 0.30
     Davidson diagonalization with overlap
     ethr =  1.45E-13,  avg # of iterations =  2.7

     total cpu time spent up to now is      240.2 secs

     End of self-consistent calculation

          k = 0.0000 0.0000 0.0000 ( 14939 PWs)   bands (ev):

   -20.3291  -9.0141  -6.2794  -6.2794  -4.4806  -4.4806  -4.4806  -0.6628
    -0.3418  -0.3418  -0.3418   4.6110   4.6110   4.6110   4.8626   4.8626
     4.8626   9.4747  10.1135  10.1135

          k = 0.0000 0.0000 0.1225 ( 14939 PWs)   bands (ev):

   -20.3289  -8.9646  -6.3926  -6.2768  -4.4774  -4.4774  -4.4605  -1.3683
    -0.3232  -0.3232   0.6331   4.5268   4.5268   4.5297   4.7581   4.8019
     4.8019   9.7586  10.1859  10.3660

          k = 0.0000 0.0000 0.2449 ( 14939 PWs)   bands (ev):

   -20.3284  -8.8287  -6.6717  -6.2705  -4.4696  -4.4696  -4.4334  -1.9009
    -0.2767  -0.2767   1.8737   4.2949   4.2949   4.3493   4.6304   4.7095
     4.7095  10.3844  10.3963  10.5257

          k = 0.0000 0.0000 0.3674 ( 14906 PWs)   bands (ev):

   -20.3278  -8.6565  -6.9762  -6.2642  -4.4618  -4.4618  -4.4317  -2.1603
    -0.2277  -0.2277   2.8113   4.0632   4.0632   4.1868   4.6436   4.6436
     5.0008   8.7038  10.7094  11.0904

          k = 0.0000 0.0000-0.4899 ( 14862 PWs)   bands (ev):

   -20.3276  -8.5667  -7.1184  -6.2616  -4.4585  -4.4585  -4.4372  -2.2314
    -0.2065  -0.2065   3.0525   3.9703   3.9703   4.1238   4.6190   4.6190
     5.7839   7.4355  10.9279  11.4237

          k = 0.0000 0.1225 0.1225 ( 14929 PWs)   bands (ev):

   -20.3287  -8.9141  -6.4384  -6.3344  -4.4744  -4.4616  -4.4576  -1.8007
    -0.3032   0.0717   0.9512   4.2071   4.4652   4.6184   4.6418   4.7179
     4.9071   9.9935  10.3775  10.4220

          k = 0.0000 0.1225 0.2449 ( 14917 PWs)   bands (ev):

   -20.3282  -8.7748  -6.6831  -6.3497  -4.4670  -4.4573  -4.4368  -2.2861
    -0.2531   0.2989   1.9433   3.8473   4.2638   4.5110   4.5925   4.6392
     4.9094  10.5291  10.6337  10.6588

          k = 0.0000 0.1225 0.3674 ( 14933 PWs)   bands (ev):

   -20.3276  -8.5970  -6.9792  -6.3448  -4.4595  -4.4547  -4.4397  -2.5408
    -0.2000   0.3878   2.7661   3.6993   4.0386   4.5110   4.5164   4.6586
     5.1155   8.7026  10.9621  11.2489

          k = 0.0000 0.1225-0.4899 ( 14882 PWs)   bands (ev):

   -20.3274  -8.5031  -7.1211  -6.3420  -4.4565  -4.4536  -4.4475  -2.6120
    -0.1771   0.4181   2.9182   3.7157   3.9460   4.4898   4.5748   4.5768
     5.8239   7.4468  11.1763  11.5977

          k = 0.0000 0.2449 0.2449 ( 14932 PWs)   bands (ev):

   -20.3277  -8.6248  -6.7644  -6.5084  -4.4605  -4.4482  -4.4359  -2.7889
    -0.1935   1.1660   2.2493   3.4358   4.1616   4.3593   4.5335   4.6720
     5.1623  10.2927  10.7253  11.0577

          k = 0.0000 0.2449 0.3674 ( 14902 PWs)   bands (ev):

   -20.3271  -8.4281  -6.9903  -6.5718  -4.4558  -4.4541  -4.4354  -3.0775
    -0.1300   1.5614   2.6133   3.4629   3.9791   4.2296   4.4804   5.0020
     5.3587   8.6340  10.5677  11.5537

          k = 0.0000 0.2449-0.4899 ( 14928 PWs)   bands (ev):

   -20.3269  -8.3201  -7.1279  -6.5812  -4.4580  -4.4514  -4.4412  -3.1629
    -0.1024   1.6517   2.6077   3.6543   3.8885   4.1959   4.4688   5.1267
     5.9572   7.4065  10.5414  11.7585

          k = 0.0000 0.3674 0.3674 ( 14904 PWs)   bands (ev):

   -20.3267  -8.1949  -7.0362  -6.8423  -4.4534  -4.4486  -4.4250  -3.4199
    -0.0547   2.4251   2.6146   3.4943   3.9055   3.9776   4.3765   5.5451
     5.5649   8.2543   9.0082  11.8536

          k = 0.0000 0.3674-0.4899 ( 14930 PWs)   bands (ev):

   -20.3265  -8.0544  -7.1347  -6.9222  -4.4463  -4.4414  -4.4283  -3.5334
    -0.0217   2.3466   2.9393   3.6850   3.8324   3.9202   4.3021   5.6103
     6.2935   7.2400   8.6945  12.2533

          k = 0.0000-0.4899-0.4899 ( 14932 PWs)   bands (ev):

   -20.3263  -7.8749  -7.1376  -7.1376  -4.4442  -4.4229  -4.4229  -3.6658
     0.0138   2.2500   3.7050   3.7050   3.8096   3.8096   4.0592   5.8371
     7.1119   7.1119   7.2090  12.0054

          k = 0.1225 0.1225 0.1225 ( 14939 PWs)   bands (ev):

   -20.3285  -8.8626  -6.4338  -6.4338  -4.4626  -4.4626  -4.4516  -2.1607
     0.0928   0.0928   1.1869   4.1741   4.1741   4.3446   4.7627   4.8959
     4.8959  10.1521  10.4389  10.4389

          k = 0.1225 0.1225 0.2449 ( 14907 PWs)   bands (ev):

   -20.3280  -8.7202  -6.6882  -6.4226  -4.4651  -4.4509  -4.4394  -2.6272
     0.1460   0.4464   2.0083   3.8070   3.9276   4.2956   4.7866   4.8575
     4.9290  10.5735  10.5909  10.8516

          k = 0.1225 0.1225 0.3674 ( 14906 PWs)   bands (ev):

   -20.3274  -8.5370  -6.9800  -6.4112  -4.4678  -4.4508  -4.4421  -2.8845
     0.2026   0.5808   2.7319   3.5367   3.9530   4.3313   4.7538   4.7844
     5.1623   8.6876  10.9534  11.4250

          k = 0.1225 0.1225-0.4899 ( 14898 PWs)   bands (ev):

   -20.3272  -8.4392  -7.1221  -6.4064  -4.4690  -4.4622  -4.4391  -2.9572
     0.2272   0.6218   2.8513   3.4378   4.1864   4.2081   4.7355   4.7481
     5.8402   7.4430  11.1162  11.8391

          k = 0.1225 0.2449 0.2449 ( 14923 PWs)   bands (ev):

   -20.3275  -8.5679  -6.7568  -6.5670  -4.4679  -4.4442  -4.4416  -3.1204
     0.3149   1.1927   2.2815   3.4506   3.8192   4.1314   4.8416   4.9021
     5.1539  10.2476  10.6512  10.8797

          k = 0.1225 0.2449 0.3674 ( 14911 PWs)   bands (ev):

   -20.3270  -8.3668  -6.9857  -6.6059  -4.4790  -4.4590  -4.4344  -3.4154
     0.3911   1.6069   2.6142   3.3197   3.7688   4.2416   4.8021   5.0822
     5.3553   8.5967  10.4684  11.1752

          k = 0.1225 0.2449-0.4899 ( 14908 PWs)   bands (ev):

   -20.3267  -8.2550  -7.1244  -6.6084  -4.4840  -4.4731  -4.4299  -3.5026
     0.4221   1.7049   2.6222   3.2954   3.8762   4.2831   4.7816   5.1733
     5.9431   7.3771  10.4373  11.3199

          k = 0.1225 0.3674 0.3674 ( 14924 PWs)   bands (ev):

   -20.3265  -8.1305  -7.0270  -6.8494  -4.4857  -4.4483  -4.4385  -3.7718
     0.4819   2.4596   2.6275   3.2681   3.6170   4.2631   4.7135   5.5525
     5.5696   8.2047   8.9626  11.3516

          k = 0.1225 0.3674-0.4899 ( 14934 PWs)   bands (ev):

   -20.3263  -7.9863  -7.1268  -6.9189  -4.4694  -4.4658  -4.4319  -3.8938
     0.5192   2.3929   2.9179   3.2823   3.6942   4.3073   4.6285   5.6250
     6.2742   7.1966   8.6507  11.5269

          k = 0.1225-0.4899-0.4899 ( 14912 PWs)   bands (ev):

   -20.3261  -7.8012  -7.1279  -7.1279  -4.4571  -4.4382  -4.4382  -4.0481
     0.5594   2.3056   3.2857   3.2857   4.0632   4.3143   4.3143   5.8442
     7.0641   7.0641   7.2068  11.4580

          k = 0.2449 0.2449 0.2449 ( 14868 PWs)   bands (ev):

   -20.3270  -8.4081  -6.7383  -6.7383  -4.4646  -4.4646  -4.4579  -3.6475
     1.2625   1.2625   2.4084   3.4016   3.4016   4.0918   5.1157   5.1157
     5.1689  10.1033  10.1033  10.5795

          k = 0.2449 0.2449 0.3674 ( 14896 PWs)   bands (ev):

   -20.3265  -8.1923  -6.9774  -6.7194  -4.5206  -4.4854  -4.4454  -3.9763
     1.3418   1.8641   2.5970   3.1047   3.4148   4.4714   5.1060   5.3112
     5.3521   8.4669   9.9843  10.5557

          k = 0.2449 0.2449-0.4899 ( 14894 PWs)   bands (ev):

   -20.3263  -8.0673  -7.1159  -6.7114  -4.5636  -4.4942  -4.4339  -4.0701
     1.3784   2.0112   2.6134   2.9955   3.5197   4.6745   5.0979   5.3496
     5.9444   7.2624   9.9458  10.5919

          k = 0.2449 0.3674 0.3674 ( 14911 PWs)   bands (ev):

   -20.3260  -7.9466  -7.0044  -6.8842  -4.6315  -4.4854  -4.4716  -4.3136
     1.6511   2.5389   2.6617   2.9956   3.2702   4.7430   5.1767   5.5498
     5.5759   8.0579   8.7320  10.4030

          k = 0.2449 0.3674-0.4899 ( 14912 PWs)   bands (ev):

   -20.3258  -7.7904  -7.1075  -6.9212  -4.7125  -4.4984  -4.4548  -4.4019
     1.7156   2.5047   2.8486   2.9295   3.5015   4.8620   5.1215   5.6663
     6.1971   7.0478   8.4552  10.4112

          k = 0.2449-0.4899-0.4899 ( 14908 PWs)   bands (ev):

   -20.3256  -7.5878  -7.1040  -7.1040  -4.8049  -4.4878  -4.4758  -4.4758
     1.7896   2.4433   2.9357   2.9357   4.0729   4.9089   4.9089   5.8616
     6.8991   6.8991   7.1427  10.4006

          k = 0.3674 0.3674 0.3674 ( 14901 PWs)   bands (ev):

   -20.3256  -7.6830  -6.9811  -6.9811  -5.0772  -4.5055  -4.5055  -4.4459
     2.5965   2.7061   2.7061   3.0338   3.0338   5.3240   5.4833   5.4833
     5.6530   7.8691   7.8691   9.6608

          k = 0.3674 0.3674-0.4899 ( 14916 PWs)   bands (ev):

   -20.3254  -7.5025  -7.0878  -6.9713  -5.2754  -4.5197  -4.4922  -4.4893
     2.5980   2.7341   2.7554   2.9424   3.5713   5.3279   5.5353   5.7523
     6.1240   6.7878   7.7763   9.5079

          k = 0.3674-0.4899-0.4899 ( 14956 PWs)   bands (ev):

   -20.3252  -7.2758  -7.0795  -7.0795  -5.5198  -4.5179  -4.5141  -4.5141
     2.5871   2.7209   2.7209   3.2128   4.0827   5.4928   5.4928   5.8793
     6.5934   6.5934   6.7909   9.2884

          k =-0.4899-0.4899-0.4899 ( 15000 PWs)   bands (ev):

   -20.3250  -7.0691  -7.0691  -7.0691  -5.8693  -4.5303  -4.5303  -4.5303
     2.6487   2.6487   2.6487   4.0868   4.0868   5.8867   5.8867   5.8867
     6.2931   6.2931   6.2931   8.8896

     the Fermi energy is     5.3419 ev

!    total energy              =   -1155.63146028 Ry
     total all-electron energy =    -33506.307929 Ry
     estimated scf accuracy    <          9.4E-13 Ry
     smearing contrib. (-TS)   =      -0.00220846 Ry
     internal energy E=F+TS    =   -1155.62925182 Ry

     The total energy is F=E-TS. E is the sum of the following terms:
     one-electron contribution =       2.54416437 Ry
     hartree contribution      =      14.89222585 Ry
     xc contribution           =     -51.07229900 Ry
     ewald contribution        =    -103.25768693 Ry
     one-center paw contrib.   =   -1018.73565611 Ry

     convergence has been achieved in  11 iterations

     Forces acting on atoms (cartesian axes, Ry/au):

     atom    1 type  1   force =     0.00000000    0.00000000    0.00000000
     atom    2 type  2   force =     0.00000000    0.00000000    0.00000000
     atom    3 type  3   force =     0.00000000    0.00000000    0.00000000
     atom    4 type  3   force =     0.00000000    0.00000000    0.00000000
     atom    5 type  3   force =     0.00000000    0.00000000    0.00000000

     Total force =     0.000000     Total SCF correction =     0.000000


     Computing stress (Cartesian axis) and pressure

          total   stress  (Ry/bohr**3)                   (kbar)     P=       75.31
   0.00051196   0.00000000   0.00000000           75.31        0.00        0.00
   0.00000000   0.00051196   0.00000000            0.00       75.31        0.00
   0.00000000   0.00000000   0.00051196            0.00        0.00       75.31

     Energy error            =      3.7E-02 Ry
     Gradient error          =      0.0E+00 Ry/Bohr
     Cell gradient error     =      7.5E+01 kbar

     number of scf cycles    =   2
     number of bfgs steps    =   1

     enthalpy           old  =   -1155.5943940719 Ry
     enthalpy           new  =   -1155.6314602827 Ry

     CASE: enthalpy          _new < enthalpy          _old

     new trust radius        =       0.1367575712 bohr
     new conv_thr            =            1.0E-14 Ry

     new unit-cell volume =   1003.40630 a.u.^3 (   148.68947 Ang^3 )
     density =      4.96009 g/cm^3

CELL_PARAMETERS (angstrom)
   5.297773755   0.000000000   0.000000000
   0.000000000   5.297773755   0.000000000
   0.000000000   0.000000000   5.297773755

ATOMIC_POSITIONS (crystal)
Rb               0.0000000000        0.0000000000        0.0000000000
Sb               0.5000000000        0.5000000000        0.5000000000
Se               0.5000000000        0.5000000000        0.0000000000
Se               0.5000000000        0.0000000000        0.5000000000
Se               0.0000000000        0.5000000000        0.5000000000



     Writing config-only to output data dir ./tmp/RbSbSe3.save/ :
     XML data file
     NEW-OLD atomic charge density approx. for the potential

     total cpu time spent up to now is      253.8 secs

     Self-consistent Calculation

     iteration #  1     ecut=   100.00 Ry     beta= 0.30
     Davidson diagonalization with overlap
     c_bands:  1 eigenvalues not converged
     ethr =  1.00E-06,  avg # of iterations =  9.9

     total cpu time spent up to now is      269.8 secs

     total energy              =   -1155.65610964 Ry
     estimated scf accuracy    <       0.00009785 Ry

     iteration #  2     ecut=   100.00 Ry     beta= 0.30
     Davidson diagonalization with overlap
     ethr =  3.06E-07,  avg # of iterations =  2.5

     total cpu time spent up to now is      277.5 secs

     total energy              =   -1155.65556766 Ry
     estimated scf accuracy    <       0.00003691 Ry

     iteration #  3     ecut=   100.00 Ry     beta= 0.30
     Davidson diagonalization with overlap
     ethr =  1.15E-07,  avg # of iterations =  2.0

     total cpu time spent up to now is      286.3 secs

     total energy              =   -1155.65545322 Ry
     estimated scf accuracy    <       0.00001267 Ry

     iteration #  4     ecut=   100.00 Ry     beta= 0.30
     Davidson diagonalization with overlap
     ethr =  3.96E-08,  avg # of iterations =  2.0

     total cpu time spent up to now is      294.3 secs

     total energy              =   -1155.65544451 Ry
     estimated scf accuracy    <       0.00000173 Ry

     iteration #  5     ecut=   100.00 Ry     beta= 0.30
     Davidson diagonalization with overlap
     ethr =  5.40E-09,  avg # of iterations =  2.0

     total cpu time spent up to now is      302.8 secs

     total energy              =   -1155.65544589 Ry
     estimated scf accuracy    <       0.00000046 Ry

     iteration #  6     ecut=   100.00 Ry     beta= 0.30
     Davidson diagonalization with overlap
     ethr =  1.44E-09,  avg # of iterations =  2.0

     total cpu time spent up to now is      310.3 secs

     total energy              =   -1155.65544649 Ry
     estimated scf accuracy    <       0.00000003 Ry

     iteration #  7     ecut=   100.00 Ry     beta= 0.30
     Davidson diagonalization with overlap
     ethr =  1.04E-10,  avg # of iterations =  2.1

     total cpu time spent up to now is      318.9 secs

     total energy              =   -1155.65544678 Ry
     estimated scf accuracy    <       0.00000001 Ry

     iteration #  8     ecut=   100.00 Ry     beta= 0.30
     Davidson diagonalization with overlap
     ethr =  3.61E-11,  avg # of iterations =  2.2

     total cpu time spent up to now is      327.2 secs

     total energy              =   -1155.65544692 Ry
     estimated scf accuracy    <          1.4E-09 Ry

     iteration #  9     ecut=   100.00 Ry     beta= 0.30
     Davidson diagonalization with overlap
     ethr =  4.22E-12,  avg # of iterations =  3.6

     total cpu time spent up to now is      336.3 secs

     total energy              =   -1155.65544698 Ry
     estimated scf accuracy    <          3.6E-10 Ry

     iteration # 10     ecut=   100.00 Ry     beta= 0.30
     Davidson diagonalization with overlap
     ethr =  1.11E-12,  avg # of iterations =  1.1

     total cpu time spent up to now is      344.3 secs

     total energy              =   -1155.65544702 Ry
     estimated scf accuracy    <          1.9E-10 Ry

     iteration # 11     ecut=   100.00 Ry     beta= 0.30
     Davidson diagonalization with overlap
     ethr =  5.87E-13,  avg # of iterations =  2.0

     total cpu time spent up to now is      353.1 secs

     total energy              =   -1155.65544703 Ry
     estimated scf accuracy    <          1.1E-11 Ry

     iteration # 12     ecut=   100.00 Ry     beta= 0.30
     Davidson diagonalization with overlap
     ethr =  1.00E-13,  avg # of iterations =  2.2

     total cpu time spent up to now is      362.1 secs

     total energy              =   -1155.65544704 Ry
     estimated scf accuracy    <          5.9E-12 Ry

     iteration # 13     ecut=   100.00 Ry     beta= 0.30
     Davidson diagonalization with overlap
     ethr =  1.00E-13,  avg # of iterations =  1.0

     total cpu time spent up to now is      369.5 secs

     total energy              =   -1155.65544704 Ry
     estimated scf accuracy    <          7.2E-13 Ry

     iteration # 14     ecut=   100.00 Ry     beta= 0.30
     Davidson diagonalization with overlap
     ethr =  1.00E-13,  avg # of iterations =  1.0

     total cpu time spent up to now is      377.1 secs

     End of self-consistent calculation

          k = 0.0000 0.0000 0.0000 ( 14939 PWs)   bands (ev):

   -21.0826  -9.2776  -6.8847  -6.8847  -5.2079  -5.2079  -5.2079  -1.5972
    -0.6700  -0.6700  -0.6700   3.9907   3.9907   3.9907   4.1896   4.1896
     4.1896   8.6060   9.5539   9.5539

          k = 0.0000 0.0000 0.1198 ( 14939 PWs)   bands (ev):

   -21.0825  -9.2314  -6.9755  -6.8827  -5.2058  -5.2058  -5.1939  -2.0927
    -0.6515  -0.6515   0.0706   3.9162   3.9162   3.9219   4.0977   4.1385
     4.1385   8.8687   9.6230   9.7459

          k = 0.0000 0.0000 0.2396 ( 14939 PWs)   bands (ev):

   -21.0821  -9.1047  -7.2048  -6.8778  -5.2006  -5.2006  -5.1734  -2.6117
    -0.6051  -0.6051   1.2452   3.7053   3.7053   3.7677   3.9763   4.0655
     4.0655   9.4446   9.6729   9.8239

          k = 0.0000 0.0000 0.3594 ( 14906 PWs)   bands (ev):

   -21.0818  -8.9442  -7.4626  -6.8729  -5.1955  -5.1955  -5.1696  -2.8950
    -0.5562  -0.5562   2.2067   3.4927   3.4927   3.6273   4.0143   4.0143
     4.2585   7.7756  10.1229  10.2437

          k = 0.0000 0.0000-0.4792 ( 14862 PWs)   bands (ev):

   -21.0816  -8.8604  -7.5855  -6.8709  -5.1933  -5.1933  -5.1722  -2.9796
    -0.5351  -0.5351   2.4881   3.4071   3.4071   3.5725   3.9952   3.9952
     4.9097   6.6153  10.3320  10.5982

          k = 0.0000 0.1198 0.1198 ( 14929 PWs)   bands (ev):

   -21.0824  -9.1844  -7.0127  -6.9288  -5.2037  -5.1951  -5.1916  -2.4569
    -0.6319  -0.2962   0.3381   3.6263   3.8640   3.9960   4.0036   4.0648
     4.2338   9.0911   9.7763   9.8314

          k = 0.0000 0.1198 0.2396 ( 14917 PWs)   bands (ev):

   -21.0820  -9.0547  -7.2144  -6.9414  -5.1988  -5.1920  -5.1758  -2.9306
    -0.5827  -0.1048   1.3083   3.2968   3.6809   3.8924   3.9619   4.0046
     4.2413   9.5563   9.7066  10.0540

          k = 0.0000 0.1198 0.3594 ( 14933 PWs)   bands (ev):

   -21.0817  -8.8893  -7.4651  -6.9377  -5.1939  -5.1902  -5.1748  -3.2071
    -0.5308  -0.0286   2.1848   3.1499   3.4733   3.8985   3.9030   4.0232
     4.3756   7.7655  10.3383  10.3731

          k = 0.0000 0.1198-0.4792 ( 14882 PWs)   bands (ev):

   -21.0815  -8.8019  -7.5877  -6.9356  -5.1918  -5.1894  -5.1789  -3.2912
    -0.5083  -0.0011   2.3879   3.1649   3.3879   3.8824   3.9523   3.9681
     4.9479   6.6148  10.5346  10.7502

          k = 0.0000 0.2396 0.2396 ( 14932 PWs)   bands (ev):

   -21.0817  -8.9158  -7.2827  -7.0701  -5.1945  -5.1830  -5.1765  -3.4018
    -0.5264   0.7057   1.6165   2.9067   3.5959   3.7547   3.9082   4.0128
     4.4770   9.2793   9.7456  10.1387

          k = 0.0000 0.2396 0.3594 ( 14902 PWs)   bands (ev):

   -21.0813  -8.7339  -7.4744  -7.1221  -5.1901  -5.1866  -5.1751  -3.6991
    -0.4664   1.0537   2.1011   2.8856   3.4265   3.6494   3.8547   4.2956
     4.6271   7.6881   9.5126  10.7277

          k = 0.0000 0.2396-0.4792 ( 14928 PWs)   bands (ev):

   -21.0812  -8.6339  -7.5932  -7.1299  -5.1883  -5.1859  -5.1798  -3.7932
    -0.4403   1.1307   2.1393   3.0773   3.3424   3.6235   3.8423   4.4593
     5.0751   6.5558   9.4787  10.9660

          k = 0.0000 0.3594 0.3594 ( 14904 PWs)   bands (ev):

   -21.0810  -8.5198  -7.5138  -7.3466  -5.1863  -5.1846  -5.1677  -4.0335
    -0.3973   1.9760   2.0540   2.8903   3.3663   3.4247   3.7485   4.7557
     4.8281   7.3408   7.9967  11.0736

          k = 0.0000 0.3594-0.4792 ( 14930 PWs)   bands (ev):

   -21.0809  -8.3906  -7.5987  -7.4146  -5.1847  -5.1764  -5.1699  -4.1469
    -0.3672   1.9178   2.3524   3.0890   3.2979   3.3785   3.6709   4.8886
     5.3974   6.3908   7.7090  11.2633

          k = 0.0000-0.4792-0.4792 ( 14932 PWs)   bands (ev):

   -21.0807  -8.2255  -7.6010  -7.6010  -5.1832  -5.1658  -5.1658  -4.2721
    -0.3351   1.8344   3.1024   3.1024   3.2797   3.2797   3.4162   5.0887
     6.1931   6.2726   6.2726  11.2252

          k = 0.1198 0.1198 0.1198 ( 14939 PWs)   bands (ev):

   -21.0822  -9.1364  -7.0092  -7.0092  -5.1959  -5.1959  -5.1871  -2.7701
    -0.2757  -0.2757   0.5476   3.5993   3.5993   3.7306   4.1284   4.2267
     4.2267   9.2589   9.8388   9.8388

          k = 0.1198 0.1198 0.2396 ( 14907 PWs)   bands (ev):

   -21.0819  -9.0041  -7.2189  -7.0007  -5.1979  -5.1874  -5.1774  -3.2222
    -0.2242   0.0244   1.3702   3.2641   3.3623   3.6880   4.1486   4.2058
     4.2545   9.5514   9.7267  10.1262

          k = 0.1198 0.1198 0.3594 ( 14906 PWs)   bands (ev):

   -21.0815  -8.8340  -7.4658  -6.9920  -5.2000  -5.1824  -5.1804  -3.4986
    -0.1692   0.1343   2.1676   3.0144   3.3687   3.7152   4.1221   4.1502
     4.4179   7.7445  10.2059  10.5824

          k = 0.1198 0.1198-0.4792 ( 14898 PWs)   bands (ev):

   -21.0814  -8.7432  -7.5885  -6.9884  -5.2009  -5.1878  -5.1788  -3.5839
    -0.1453   0.1695   2.3344   2.9223   3.5847   3.6213   4.1123   4.1162
     4.9631   6.6026  10.3715  11.0053

          k = 0.1198 0.2396 0.2396 ( 14923 PWs)   bands (ev):

   -21.0815  -8.8633  -7.2769  -7.1191  -5.1991  -5.1826  -5.1781  -3.6844
    -0.0761   0.7310   1.6579   2.9224   3.2739   3.5120   4.1930   4.2379
     4.4713   9.2262   9.6528  10.0303

          k = 0.1198 0.2396 0.3594 ( 14911 PWs)   bands (ev):

   -21.0812  -8.6777  -7.4709  -7.1516  -5.2046  -5.1890  -5.1750  -3.9876
    -0.0058   1.0954   2.1035   2.7878   3.2174   3.6049   4.1562   4.3863
     4.6248   7.6495   9.4254  10.3281

          k = 0.1198 0.2396-0.4792 ( 14908 PWs)   bands (ev):

   -21.0811  -8.5744  -7.5904  -7.1538  -5.2038  -5.2005  -5.1718  -4.0846
     0.0232   1.1788   2.1509   2.7757   3.3167   3.6711   4.1380   4.5027
     5.0625   6.5232   9.3898  10.4604

          k = 0.1198 0.3594 0.3594 ( 14924 PWs)   bands (ev):

   -21.0809  -8.4613  -7.5065  -7.3538  -5.2071  -5.1825  -5.1777  -4.3348
     0.0758   2.0044   2.0696   2.7217   3.0799   3.6331   4.0695   4.7695
     4.8348   7.2908   7.9529  10.4630

          k = 0.1198 0.3594-0.4792 ( 14934 PWs)   bands (ev):

   -21.0807  -8.3291  -7.5924  -7.4128  -5.1985  -5.1921  -5.1729  -4.4554
     0.1096   1.9565   2.3444   2.7537   3.1371   3.6942   3.9861   4.9013
     5.3816   6.3457   7.6654  10.5670

          k = 0.1198-0.4792-0.4792 ( 14912 PWs)   bands (ev):

   -21.0806  -8.1594  -7.5933  -7.5933  -5.1925  -5.1772  -5.1772  -4.5930
     0.1457   1.8807   2.7546   2.7546   3.4196   3.7005   3.7005   5.0947
     6.1934   6.2229   6.2229  10.6744

          k = 0.2396 0.2396 0.2396 ( 14868 PWs)   bands (ev):

   -21.0812  -8.7162  -7.2625  -7.2625  -5.1976  -5.1976  -5.1841  -4.1702
     0.7968   0.7968   1.8236   2.8847   2.8847   3.4140   4.4356   4.4356
     4.4945   9.0905   9.0905   9.6635

          k = 0.2396 0.2396 0.3594 ( 14896 PWs)   bands (ev):

   -21.0809  -8.5182  -7.4646  -7.2478  -5.2161  -5.2128  -5.1818  -4.5093
     0.8713   1.3346   2.0991   2.6060   2.8874   3.7506   4.4330   4.6127
     4.6239   7.5233   8.9772   9.5869

          k = 0.2396 0.2396-0.4792 ( 14894 PWs)   bands (ev):

   -21.0808  -8.4036  -7.5837  -7.2417  -5.2355  -5.2192  -5.1747  -4.6201
     0.9057   1.4615   2.1427   2.5030   2.9791   4.0154   4.4275   4.6607
     5.0641   6.4043   8.9385   9.5912

          k = 0.2396 0.3594 0.3594 ( 14911 PWs)   bands (ev):

   -21.0806  -8.2951  -7.4885  -7.3860  -5.2466  -5.2081  -5.2023  -4.8981
     1.1486   2.0703   2.1141   2.4916   2.7385   4.0143   4.4905   4.7786
     4.8560   7.1473   7.7507   9.3849

          k = 0.2396 0.3594-0.4792 ( 14912 PWs)   bands (ev):

   -21.0804  -8.1536  -7.5770  -7.4175  -5.2645  -5.2222  -5.1899  -5.0339
     1.2062   2.0499   2.3128   2.4323   2.9185   4.1882   4.4342   4.9374
     5.3165   6.1964   7.4900   9.3653

          k = 0.2396-0.4792-0.4792 ( 14908 PWs)   bands (ev):

   -21.0803  -7.9704  -7.5742  -7.5742  -5.2516  -5.2146  -5.2051  -5.2051
     1.2713   1.9957   2.4342   2.4342   3.4278   4.2331   4.2331   5.1092
     6.0573   6.0573   6.1527   9.3392

          k = 0.3594 0.3594 0.3594 ( 14901 PWs)   bands (ev):

   -21.0803  -8.0603  -7.4702  -7.4702  -5.4882  -5.2272  -5.2272  -5.1681
     2.1214   2.1831   2.1831   2.4861   2.4861   4.4915   4.7671   4.7671
     4.9251   6.9678   6.9678   8.5350

          k = 0.3594 0.3594-0.4792 ( 14916 PWs)   bands (ev):

   -21.0801  -7.9011  -7.5614  -7.4625  -5.6601  -5.2377  -5.2153  -5.2135
     2.1269   2.2502   2.2576   2.3581   2.9516   4.6077   4.8156   5.0129
     5.2558   5.9453   6.8806   8.3618

          k = 0.3594-0.4792-0.4792 ( 14956 PWs)   bands (ev):

   -21.0800  -7.7063  -7.5548  -7.5548  -5.8747  -5.2365  -5.2335  -5.2335
     2.1155   2.2343   2.2343   2.6071   3.4361   4.7613   4.7613   5.1239
     5.7613   5.7613   5.8923   8.1180

          k =-0.4792-0.4792-0.4792 ( 15000 PWs)   bands (ev):

   -21.0799  -7.5466  -7.5466  -7.5466  -6.1631  -5.2454  -5.2454  -5.2454
     2.1667   2.1667   2.1667   3.4395   3.4395   5.1300   5.1300   5.1300
     5.4695   5.4695   5.4695   7.6509

     the Fermi energy is     4.6213 ev

!    total energy              =   -1155.65544705 Ry
     total all-electron energy =    -33506.331916 Ry
     estimated scf accuracy    <          2.3E-15 Ry
     smearing contrib. (-TS)   =      -0.00259530 Ry
     internal energy E=F+TS    =   -1155.65285174 Ry

     The total energy is F=E-TS. E is the sum of the following terms:
     one-electron contribution =      -0.77748776 Ry
     hartree contribution      =      15.75124742 Ry
     xc contribution           =     -50.91331914 Ry
     ewald contribution        =    -101.00398065 Ry
     one-center paw contrib.   =   -1018.70931162 Ry

     convergence has been achieved in  14 iterations

     Forces acting on atoms (cartesian axes, Ry/au):

     atom    1 type  1   force =     0.00000000    0.00000000    0.00000000
     atom    2 type  2   force =     0.00000000    0.00000000    0.00000000
     atom    3 type  3   force =     0.00000000    0.00000000    0.00000000
     atom    4 type  3   force =     0.00000000    0.00000000    0.00000000
     atom    5 type  3   force =     0.00000000    0.00000000    0.00000000

     Total force =     0.000000     Total SCF correction =     0.000000


     Computing stress (Cartesian axis) and pressure

          total   stress  (Ry/bohr**3)                   (kbar)     P=       36.68
   0.00024934   0.00000000   0.00000000           36.68        0.00        0.00
   0.00000000   0.00024934   0.00000000            0.00       36.68        0.00
   0.00000000   0.00000000   0.00024934            0.00        0.00       36.68

     Energy error            =      2.4E-02 Ry
     Gradient error          =      0.0E+00 Ry/Bohr
     Cell gradient error     =      3.7E+01 kbar

     number of scf cycles    =   3
     number of bfgs steps    =   2

     enthalpy           old  =   -1155.6314602827 Ry
     enthalpy           new  =   -1155.6554470479 Ry

     CASE: enthalpy          _new < enthalpy          _old

     new trust radius        =       0.1433467053 bohr
     new conv_thr            =            1.0E-14 Ry

     new unit-cell volume =   1073.07007 a.u.^3 (   159.01258 Ang^3 )
     density =      4.63808 g/cm^3

CELL_PARAMETERS (angstrom)
   5.417644365   0.000000000   0.000000000
   0.000000000   5.417644365   0.000000000
   0.000000000   0.000000000   5.417644365

ATOMIC_POSITIONS (crystal)
Rb               0.0000000000        0.0000000000        0.0000000000
Sb               0.5000000000        0.5000000000        0.5000000000
Se               0.5000000000        0.5000000000        0.0000000000
Se               0.5000000000        0.0000000000        0.5000000000
Se               0.0000000000        0.5000000000        0.5000000000



     Writing config-only to output data dir ./tmp/RbSbSe3.save/ :
     XML data file
     NEW-OLD atomic charge density approx. for the potential

     total cpu time spent up to now is      390.7 secs

     Self-consistent Calculation

     iteration #  1     ecut=   100.00 Ry     beta= 0.30
     Davidson diagonalization with overlap
     ethr =  1.00E-06,  avg # of iterations =  8.3

     total cpu time spent up to now is      406.1 secs

     total energy              =   -1155.66612084 Ry
     estimated scf accuracy    <       0.00011342 Ry

     iteration #  2     ecut=   100.00 Ry     beta= 0.30
     Davidson diagonalization with overlap
     ethr =  3.54E-07,  avg # of iterations =  2.0

     total cpu time spent up to now is      414.1 secs

     total energy              =   -1155.66561135 Ry
     estimated scf accuracy    <       0.00003539 Ry

     iteration #  3     ecut=   100.00 Ry     beta= 0.30
     Davidson diagonalization with overlap
     ethr =  1.11E-07,  avg # of iterations =  2.0

     total cpu time spent up to now is      422.8 secs

     total energy              =   -1155.66545064 Ry
     estimated scf accuracy    <       0.00001332 Ry

     iteration #  4     ecut=   100.00 Ry     beta= 0.30
     Davidson diagonalization with overlap
     ethr =  4.16E-08,  avg # of iterations =  2.0

     total cpu time spent up to now is      431.0 secs

     total energy              =   -1155.66542889 Ry
     estimated scf accuracy    <       0.00000269 Ry

     iteration #  5     ecut=   100.00 Ry     beta= 0.30
     Davidson diagonalization with overlap
     ethr =  8.41E-09,  avg # of iterations =  2.0

     total cpu time spent up to now is      441.0 secs

     total energy              =   -1155.66543054 Ry
     estimated scf accuracy    <       0.00000049 Ry

     iteration #  6     ecut=   100.00 Ry     beta= 0.30
     Davidson diagonalization with overlap
     ethr =  1.52E-09,  avg # of iterations =  2.0

     total cpu time spent up to now is      449.5 secs

     total energy              =   -1155.66543094 Ry
     estimated scf accuracy    <       0.00000003 Ry

     iteration #  7     ecut=   100.00 Ry     beta= 0.30
     Davidson diagonalization with overlap
     ethr =  1.01E-10,  avg # of iterations =  2.0

     total cpu time spent up to now is      458.7 secs

     total energy              =   -1155.66543112 Ry
     estimated scf accuracy    <       0.00000001 Ry

     iteration #  8     ecut=   100.00 Ry     beta= 0.30
     Davidson diagonalization with overlap
     ethr =  3.25E-11,  avg # of iterations =  2.2

     total cpu time spent up to now is      468.0 secs

     total energy              =   -1155.66543121 Ry
     estimated scf accuracy    <          2.5E-09 Ry

     iteration #  9     ecut=   100.00 Ry     beta= 0.30
     Davidson diagonalization with overlap
     ethr =  7.93E-12,  avg # of iterations =  2.1

     total cpu time spent up to now is      475.5 secs

     total energy              =   -1155.66543125 Ry
     estimated scf accuracy    <          1.9E-10 Ry

     iteration # 10     ecut=   100.00 Ry     beta= 0.30
     Davidson diagonalization with overlap
     ethr =  5.89E-13,  avg # of iterations =  3.5

     total cpu time spent up to now is      483.5 secs

     total energy              =   -1155.66543128 Ry
     estimated scf accuracy    <          1.3E-10 Ry

     iteration # 11     ecut=   100.00 Ry     beta= 0.30
     Davidson diagonalization with overlap
     ethr =  4.20E-13,  avg # of iterations =  2.1

     total cpu time spent up to now is      491.8 secs

     total energy              =   -1155.66543129 Ry
     estimated scf accuracy    <          1.1E-12 Ry

     iteration # 12     ecut=   100.00 Ry     beta= 0.30
     Davidson diagonalization with overlap
     ethr =  1.00E-13,  avg # of iterations =  1.1

     total cpu time spent up to now is      498.8 secs

     total energy              =   -1155.66543129 Ry
     estimated scf accuracy    <          3.3E-13 Ry

     iteration # 13     ecut=   100.00 Ry     beta= 0.30
     Davidson diagonalization with overlap
     ethr =  1.00E-13,  avg # of iterations =  1.0

     total cpu time spent up to now is      505.7 secs

     total energy              =   -1155.66543129 Ry
     estimated scf accuracy    <          3.7E-13 Ry

     iteration # 14     ecut=   100.00 Ry     beta= 0.30
     Davidson diagonalization with overlap
     ethr =  1.00E-13,  avg # of iterations =  1.0

     total cpu time spent up to now is      512.5 secs

     total energy              =   -1155.66543129 Ry
     estimated scf accuracy    <          2.2E-14 Ry

     iteration # 15     ecut=   100.00 Ry     beta= 0.30
     Davidson diagonalization with overlap
     ethr =  1.00E-13,  avg # of iterations =  1.0

     total cpu time spent up to now is      519.4 secs

     End of self-consistent calculation

          k = 0.0000 0.0000 0.0000 ( 14939 PWs)   bands (ev):

   -21.8119  -9.5337  -7.4565  -7.4565  -5.9164  -5.9164  -5.9164  -2.4876
    -0.9726  -0.9726  -0.9726   3.4014   3.4014   3.4014   3.5566   3.5566
     3.5566   7.8011   9.0201   9.0201

          k = 0.0000 0.0000 0.1171 ( 14939 PWs)   bands (ev):

   -21.8118  -9.4909  -7.5292  -7.4550  -5.9150  -5.9150  -5.9066  -2.8423
    -0.9545  -0.9545  -0.3939   3.3357   3.3357   3.3435   3.4757   3.5141
     3.5141   8.0430   9.0860   9.1517

          k = 0.0000 0.0000 0.2343 ( 14939 PWs)   bands (ev):

   -21.8115  -9.3738  -7.7163  -7.4512  -5.9116  -5.9116  -5.8910  -3.3139
    -0.9095  -0.9095   0.6860   3.1450   3.1450   3.2124   3.3603   3.4572
     3.4572   8.5483   8.7489   9.2780

          k = 0.0000 0.0000 0.3514 ( 14906 PWs)   bands (ev):

   -21.8113  -9.2257  -7.9322  -7.4475  -5.9082  -5.9082  -5.8862  -3.6006
    -0.8620  -0.8620   1.6467   2.9519   2.9519   3.0917   3.4178   3.4178
     3.5657   6.8864   9.3994   9.5643

          k = 0.0000 0.0000-0.4686 ( 14862 PWs)   bands (ev):

   -21.8112  -9.1484  -8.0371  -7.4459  -5.9068  -5.9068  -5.8871  -3.6915
    -0.8415  -0.8415   1.9617   2.8739   2.8739   3.0444   3.4030   3.4030
     4.0954   5.8280   9.7656   9.8113

          k = 0.0000 0.1171 0.1171 ( 14929 PWs)   bands (ev):

   -21.8117  -9.4474  -7.5593  -7.4919  -5.9137  -5.9077  -5.9048  -3.1367
    -0.9357  -0.6347  -0.1808   3.0736   3.2917   3.4009   3.4043   3.4494
     3.6006   8.2512   9.1980   9.2641

          k = 0.0000 0.1171 0.2343 ( 14917 PWs)   bands (ev):

   -21.8115  -9.3278  -7.7243  -7.5022  -5.9104  -5.9055  -5.8927  -3.5752
    -0.8885  -0.4736   0.7411   2.7735   3.1262   3.3045   3.3660   3.4049
     3.6124   8.5870   8.8122   9.4714

          k = 0.0000 0.1171 0.3514 ( 14933 PWs)   bands (ev):

   -21.8112  -9.1755  -7.9343  -7.4995  -5.9072  -5.9043  -5.8897  -3.8559
    -0.8386  -0.4069   1.6411   2.6313   2.9369   3.3134   3.3209   3.4217
     3.6886   6.8692   9.4959   9.7324

          k = 0.0000 0.1171-0.4686 ( 14882 PWs)   bands (ev):

   -21.8111  -9.0950  -8.0390  -7.4979  -5.9058  -5.9038  -5.8914  -3.9464
    -0.8170  -0.3817   1.8888   2.6456   2.8589   3.3050   3.3601   3.3908
     4.1317   5.8181   9.9024   9.9036

          k = 0.0000 0.2343 0.2343 ( 14932 PWs)   bands (ev):

   -21.8112  -9.2003  -7.7813  -7.6061  -5.9075  -5.8972  -5.8942  -4.0037
    -0.8357   0.2816   1.0352   2.4088   3.0562   3.1825   3.3160   3.3944
     3.8302   8.2989   8.7370   9.2469

          k = 0.0000 0.2343 0.3514 ( 14902 PWs)   bands (ev):

   -21.8110  -9.0338  -7.9421  -7.6485  -5.9045  -5.8989  -5.8921  -4.2964
    -0.7797   0.5858   1.6107   2.3495   2.9003   3.0979   3.2629   3.6257
     3.9480   6.7864   8.4944   9.8402

          k = 0.0000 0.2343-0.4686 ( 14928 PWs)   bands (ev):

   -21.8109  -8.9423  -8.0435  -7.6549  -5.9033  -5.8963  -5.8963  -4.3939
    -0.7553   0.6511   1.6956   2.5366   2.8233   3.0782   3.2500   3.8259
     4.2508   5.7455   8.4585  10.1387

          k = 0.0000 0.3514 0.3514 ( 14904 PWs)   bands (ev):

   -21.8108  -8.8393  -7.9756  -7.8332  -5.9019  -5.8970  -5.8872  -4.6147
    -0.7166   1.5341   1.5481   2.3233   2.8516   2.8985   3.1573   3.9981
     4.1498   6.4717   7.0332  10.2330

          k = 0.0000 0.3514-0.4686 ( 14930 PWs)   bands (ev):

   -21.8107  -8.7221  -8.0480  -7.8903  -5.9008  -5.8914  -5.8887  -4.7253
    -0.6891   1.5118   1.8059   2.5306   2.7882   2.8616   3.0774   4.2054
     4.5518   5.5841   6.7732  10.2655

          k = 0.0000-0.4686-0.4686 ( 14932 PWs)   bands (ev):

   -21.8106  -8.5722  -8.0498  -8.0498  -5.8998  -5.8855  -5.8855  -4.8435
    -0.6602   1.4409   2.5379   2.5379   2.7739   2.7739   2.8163   4.3815
     5.2333   5.4753   5.4753  10.4496

          k = 0.1171 0.1171 0.1171 ( 14939 PWs)   bands (ev):

   -21.8116  -9.4032  -7.5567  -7.5567  -5.9084  -5.9084  -5.9014  -3.4002
    -0.6151  -0.6151  -0.0034   3.0521   3.0521   3.1506   3.5259   3.5964
     3.5964   8.4173   9.2606   9.2606

          k = 0.1171 0.1171 0.2343 ( 14907 PWs)   bands (ev):

   -21.8114  -9.2814  -7.7283  -7.5502  -5.9100  -5.9022  -5.8936  -3.8205
    -0.5658  -0.3617   0.7969   2.7480   2.8257   3.1158   3.5412   3.5908
     3.6194   8.5498   8.8740   9.5106

          k = 0.1171 0.1171 0.3514 ( 14906 PWs)   bands (ev):

   -21.8111  -9.1251  -7.9350  -7.5436  -5.9116  -5.8978  -5.8939  -4.1002
    -0.5132  -0.2709   1.6370   2.5192   2.8154   3.1365   3.5187   3.5508
     3.7244   6.8438   9.4073   9.8111

          k = 0.1171 0.1171-0.4686 ( 14898 PWs)   bands (ev):

   -21.8110  -9.0416  -8.0396  -7.5409  -5.9123  -5.8970  -5.8960  -4.1916
    -0.4904  -0.2401   1.8475   2.4343   3.0185   3.0645   3.5090   3.5259
     4.1451   5.7992   9.5982  10.1519

          k = 0.1171 0.2343 0.2343 ( 14923 PWs)   bands (ev):

   -21.8111  -9.1524  -7.7767  -7.6467  -5.9105  -5.8987  -5.8936  -4.2422
    -0.4363   0.3054   1.0800   2.4240   2.7555   2.9353   3.5782   3.6113
     3.8267   8.2458   8.6531   9.1775

          k = 0.1171 0.2343 0.3514 ( 14911 PWs)   bands (ev):

   -21.8109  -8.9828  -7.9394  -7.6735  -5.9138  -5.8998  -5.8928  -4.5398
    -0.3717   0.6237   1.6159   2.2869   2.6939   3.0084   3.5441   3.7256
     3.9473   6.7473   8.4188   9.4713

          k = 0.1171 0.2343-0.4686 ( 14908 PWs)   bands (ev):

   -21.8108  -8.8886  -8.0413  -7.6755  -5.9143  -5.9050  -5.8907  -4.6401
    -0.3448   0.6941   1.7048   2.2857   2.7866   3.0944   3.5274   3.8658
     4.2394   5.7103   8.3822   9.5751

          k = 0.1171 0.3514 0.3514 ( 14924 PWs)   bands (ev):

   -21.8107  -8.7868  -7.9698  -7.8400  -5.9143  -5.8962  -5.8946  -4.8685
    -0.2985   1.5514   1.5716   2.2042   2.5714   3.0378   3.4612   4.0226
     4.1558   6.4222   6.9916   9.5513

          k = 0.1171 0.3514-0.4686 ( 14934 PWs)   bands (ev):

   -21.8106  -8.6672  -8.0430  -7.8896  -5.9105  -5.9011  -5.8912  -4.9849
    -0.2678   1.5442   1.8073   2.2541   2.6129   3.1161   3.3789   4.2164
     4.5401   5.5381   6.7304   9.5983

          k = 0.1171-0.4686-0.4686 ( 14912 PWs)   bands (ev):

   -21.8105  -8.5137  -8.0437  -8.0437  -5.9064  -5.8939  -5.8939  -5.1112
    -0.2355   1.4796   2.2524   2.2524   2.8192   3.1220   3.1220   4.3864
     5.2358   5.4246   5.4246   9.9155

          k = 0.2343 0.2343 0.2343 ( 14868 PWs)   bands (ev):

   -21.8109  -9.0183  -7.7656  -7.7656  -5.9097  -5.9097  -5.8955  -4.6791
     0.3671   0.3671   1.2675   2.3957   2.3957   2.7954   3.7930   3.7930
     3.8547   8.1207   8.1207   8.7307

          k = 0.2343 0.2343 0.3514 ( 14896 PWs)   bands (ev):

   -21.8107  -8.8388  -7.9348  -7.7543  -5.9208  -5.9145  -5.8966  -5.0060
     0.4369   0.8442   1.6253   2.1364   2.3894   3.0765   3.7956   3.9232
     3.9718   6.6260   8.0146   8.6050

          k = 0.2343 0.2343-0.4686 ( 14894 PWs)   bands (ev):

   -21.8106  -8.7350  -8.0360  -7.7496  -5.9255  -5.9230  -5.8927  -5.1196
     0.4689   0.9520   1.6982   2.0403   2.4705   3.3950   3.7920   4.0066
     4.2392   5.5896   7.9770   8.5899

          k = 0.2343 0.3514 0.3514 ( 14911 PWs)   bands (ev):

   -21.8105  -8.6387  -7.9557  -7.8691  -5.9304  -5.9127  -5.9107  -5.3781
     0.6840   1.6018   1.6268   2.0181   2.2422   3.3202   3.8418   4.0624
     4.1749   6.2835   6.8159   8.3751

          k = 0.2343 0.3514-0.4686 ( 14912 PWs)   bands (ev):

   -21.8104  -8.5123  -8.0308  -7.8956  -5.9281  -5.9276  -5.9037  -5.5164
     0.7353   1.6222   1.8053   1.9658   2.3798   3.5527   3.7821   4.2479
     4.4876   5.3900   6.5735   8.3440

          k = 0.2343-0.4686-0.4686 ( 14908 PWs)   bands (ev):

   -21.8103  -8.3494  -8.0286  -8.0286  -5.9222  -5.9146  -5.9146  -5.6775
     0.7924   1.5756   1.9635   1.9635   2.8261   3.5951   3.5951   4.3985
     5.2146   5.2605   5.2605   8.3103

          k = 0.3514 0.3514 0.3514 ( 14901 PWs)   bands (ev):

   -21.8103  -8.4325  -7.9413  -7.9413  -5.9612  -5.9311  -5.9311  -5.7931
     1.6744   1.6845   1.6845   1.9870   1.9870   3.7089   4.0904   4.0904
     4.2365   6.1142   6.1142   7.4541

          k = 0.3514 0.3514-0.4686 ( 14916 PWs)   bands (ev):

   -21.8102  -8.2944  -8.0185  -7.9353  -6.0421  -5.9388  -5.9223  -5.9032
     1.6858   1.7900   1.7987   1.8154   2.3760   3.9286   4.1353   4.3139
     4.4351   5.1495   6.0328   7.2730

          k = 0.3514-0.4686-0.4686 ( 14956 PWs)   bands (ev):

   -21.8101  -8.1298  -8.0133  -8.0133  -6.2136  -5.9379  -5.9355  -5.9355
     1.6754   1.7804   1.7804   2.0436   2.8330   4.0709   4.0709   4.4107
     4.9764   4.9764   5.0368   7.0186

          k =-0.4686-0.4686-0.4686 ( 15000 PWs)   bands (ev):

   -21.8101  -8.0068  -8.0068  -8.0068  -6.4514  -5.9443  -5.9443  -5.9443
     1.7180   1.7180   1.7180   2.8359   2.8359   4.4158   4.4158   4.4158
     4.6942   4.6942   4.6942   6.4888

     the Fermi energy is     3.9459 ev

!    total energy              =   -1155.66543130 Ry
     total all-electron energy =    -33506.341900 Ry
     estimated scf accuracy    <          9.0E-16 Ry
     smearing contrib. (-TS)   =      -0.00316487 Ry
     internal energy E=F+TS    =   -1155.66226643 Ry

     The total energy is F=E-TS. E is the sum of the following terms:
     one-electron contribution =      -4.08109063 Ry
     hartree contribution      =      16.64119952 Ry
     xc contribution           =     -50.76633971 Ry
     ewald contribution        =     -98.76917010 Ry
     one-center paw contrib.   =   -1018.68686550 Ry

     convergence has been achieved in  15 iterations

     Forces acting on atoms (cartesian axes, Ry/au):

     atom    1 type  1   force =     0.00000000    0.00000000    0.00000000
     atom    2 type  2   force =     0.00000000    0.00000000    0.00000000
     atom    3 type  3   force =     0.00000000    0.00000000    0.00000000
     atom    4 type  3   force =     0.00000000    0.00000000    0.00000000
     atom    5 type  3   force =     0.00000000    0.00000000    0.00000000

     Total force =     0.000000     Total SCF correction =     0.000000


     Computing stress (Cartesian axis) and pressure

          total   stress  (Ry/bohr**3)                   (kbar)     P=        7.31
   0.00004971   0.00000000   0.00000000            7.31        0.00        0.00
   0.00000000   0.00004971   0.00000000            0.00        7.31        0.00
   0.00000000   0.00000000   0.00004971            0.00        0.00        7.31

     Energy error            =      1.0E-02 Ry
     Gradient error          =      0.0E+00 Ry/Bohr
     Cell gradient error     =      7.3E+00 kbar

     number of scf cycles    =   4
     number of bfgs steps    =   3

     enthalpy           old  =   -1155.6554470479 Ry
     enthalpy           new  =   -1155.6654312959 Ry

     CASE: enthalpy          _new < enthalpy          _old

     new trust radius        =       0.0381838160 bohr
     new conv_thr            =            1.0E-14 Ry

     new unit-cell volume =   1091.94187 a.u.^3 (   161.80909 Ang^3 )
     density =      4.55792 g/cm^3

CELL_PARAMETERS (angstrom)
   5.449219541   0.000000000   0.000000000
   0.000000000   5.449219541   0.000000000
   0.000000000   0.000000000   5.449219541

ATOMIC_POSITIONS (crystal)
Rb               0.0000000000        0.0000000000        0.0000000000
Sb               0.5000000000        0.5000000000        0.5000000000
Se               0.5000000000        0.5000000000        0.0000000000
Se               0.5000000000        0.0000000000        0.5000000000
Se               0.0000000000        0.5000000000        0.5000000000



     Writing config-only to output data dir ./tmp/RbSbSe3.save/ :
     XML data file
     NEW-OLD atomic charge density approx. for the potential

     total cpu time spent up to now is      533.0 secs

     Self-consistent Calculation

     iteration #  1     ecut=   100.00 Ry     beta= 0.30
     Davidson diagonalization with overlap
     ethr =  1.00E-06,  avg # of iterations =  5.6

     Threshold (ethr) on eigenvalues was too large:
     Diagonalizing with lowered threshold

     Davidson diagonalization with overlap
     ethr =  2.12E-08,  avg # of iterations =  3.5

     total cpu time spent up to now is      552.2 secs

     total energy              =   -1155.66598780 Ry
     estimated scf accuracy    <       0.00000823 Ry

     iteration #  2     ecut=   100.00 Ry     beta= 0.30
     Davidson diagonalization with overlap
     ethr =  2.57E-08,  avg # of iterations =  2.0

     total cpu time spent up to now is      560.5 secs

     total energy              =   -1155.66596489 Ry
     estimated scf accuracy    <       0.00000231 Ry

     iteration #  3     ecut=   100.00 Ry     beta= 0.30
     Davidson diagonalization with overlap
     ethr =  7.21E-09,  avg # of iterations =  2.0

     total cpu time spent up to now is      569.5 secs

     total energy              =   -1155.66595895 Ry
     estimated scf accuracy    <       0.00000085 Ry

     iteration #  4     ecut=   100.00 Ry     beta= 0.30
     Davidson diagonalization with overlap
     ethr =  2.66E-09,  avg # of iterations =  2.0

     total cpu time spent up to now is      578.7 secs

     total energy              =   -1155.66595986 Ry
     estimated scf accuracy    <       0.00000021 Ry

     iteration #  5     ecut=   100.00 Ry     beta= 0.30
     Davidson diagonalization with overlap
     ethr =  6.62E-10,  avg # of iterations =  2.0

     total cpu time spent up to now is      588.3 secs

     total energy              =   -1155.66596142 Ry
     estimated scf accuracy    <       0.00000001 Ry

     iteration #  6     ecut=   100.00 Ry     beta= 0.30
     Davidson diagonalization with overlap
     ethr =  3.40E-11,  avg # of iterations =  2.0

     total cpu time spent up to now is      596.7 secs

     total energy              =   -1155.66596215 Ry
     estimated scf accuracy    <          3.3E-09 Ry

     iteration #  7     ecut=   100.00 Ry     beta= 0.30
     Davidson diagonalization with overlap
     ethr =  1.03E-11,  avg # of iterations =  2.0

     total cpu time spent up to now is      605.1 secs

     total energy              =   -1155.66596251 Ry
     estimated scf accuracy    <          9.2E-11 Ry

     iteration #  8     ecut=   100.00 Ry     beta= 0.30
     Davidson diagonalization with overlap
     ethr =  2.86E-13,  avg # of iterations =  3.9

     total cpu time spent up to now is      614.0 secs

     total energy              =   -1155.66596268 Ry
     estimated scf accuracy    <          4.6E-11 Ry

     iteration #  9     ecut=   100.00 Ry     beta= 0.30
     Davidson diagonalization with overlap
     ethr =  1.44E-13,  avg # of iterations =  2.0

     total cpu time spent up to now is      622.7 secs

     total energy              =   -1155.66596277 Ry
     estimated scf accuracy    <          8.3E-12 Ry

     iteration # 10     ecut=   100.00 Ry     beta= 0.30
     Davidson diagonalization with overlap
     ethr =  1.00E-13,  avg # of iterations =  1.0

     total cpu time spent up to now is      629.8 secs

     total energy              =   -1155.66596281 Ry
     estimated scf accuracy    <          3.7E-13 Ry

     iteration # 11     ecut=   100.00 Ry     beta= 0.30
     Davidson diagonalization with overlap
     ethr =  1.00E-13,  avg # of iterations =  1.0

     total cpu time spent up to now is      636.7 secs

     total energy              =   -1155.66596283 Ry
     estimated scf accuracy    <          5.9E-13 Ry

     iteration # 12     ecut=   100.00 Ry     beta= 0.30
     Davidson diagonalization with overlap
     ethr =  1.00E-13,  avg # of iterations =  1.0

     total cpu time spent up to now is      643.7 secs

     total energy              =   -1155.66596284 Ry
     estimated scf accuracy    <          5.6E-14 Ry

     iteration # 13     ecut=   100.00 Ry     beta= 0.30
     Davidson diagonalization with overlap
     ethr =  1.00E-13,  avg # of iterations =  1.0

     total cpu time spent up to now is      650.6 secs

     total energy              =   -1155.66596285 Ry
     estimated scf accuracy    <          3.0E-14 Ry

     iteration # 14     ecut=   100.00 Ry     beta= 0.30
     Davidson diagonalization with overlap
     ethr =  1.00E-13,  avg # of iterations =  1.0

     total cpu time spent up to now is      657.6 secs

     End of self-consistent calculation

          k = 0.0000 0.0000 0.0000 ( 14939 PWs)   bands (ev):

   -21.9961  -9.5981  -7.5984  -7.5984  -6.0960  -6.0960  -6.0960  -2.7087
    -1.0459  -1.0459  -1.0459   3.2546   3.2546   3.2546   3.3999   3.3999
     3.3999   7.6032   8.8868   8.8868

          k = 0.0000 0.0000 0.1165 ( 14939 PWs)   bands (ev):

   -21.9960  -9.5563  -7.6670  -7.5970  -6.0948  -6.0948  -6.0870  -3.0355
    -1.0281  -1.0281  -0.5003   3.1909   3.1909   3.1992   3.3216   3.3594
     3.3594   7.8399   8.9520   9.0016

          k = 0.0000 0.0000 0.2329 ( 14939 PWs)   bands (ev):

   -21.9958  -9.4417  -7.8443  -7.5935  -6.0917  -6.0917  -6.0725  -3.4919
    -0.9835  -0.9835   0.5530   3.0054   3.0054   3.0735   3.2078   3.3062
     3.3062   8.3197   8.5150   9.1418

          k = 0.0000 0.0000 0.3494 ( 14906 PWs)   bands (ev):

   -21.9956  -9.2969  -8.0502  -7.5900  -6.0887  -6.0887  -6.0675  -3.7768
    -0.9364  -0.9364   1.5099   2.8173   2.8173   2.9576   3.2695   3.2695
     3.3954   6.6645   9.1842   9.4251

          k = 0.0000 0.0000-0.4658 ( 14862 PWs)   bands (ev):

   -21.9955  -9.2213  -8.1507  -7.5885  -6.0874  -6.0874  -6.0681  -3.8683
    -0.9162  -0.9162   1.8322   2.7413   2.7413   2.9120   3.2556   3.2556
     3.8959   5.6314   9.6147   9.6248

          k = 0.0000 0.1165 0.1165 ( 14929 PWs)   bands (ev):

   -21.9959  -9.5137  -7.6955  -7.6318  -6.0936  -6.0881  -6.0854  -3.3130
    -1.0095  -0.7168  -0.3004   2.9357   3.1489   3.2513   3.2568   3.2969
     3.4439   8.0444   9.0519   9.1214

          k = 0.0000 0.1165 0.2329 ( 14917 PWs)   bands (ev):

   -21.9957  -9.3968  -7.8519  -7.6415  -6.0906  -6.0861  -6.0740  -3.7398
    -0.9629  -0.5626   0.6059   2.6431   2.9878   3.1581   3.2180   3.2559
     3.4566   8.3391   8.5931   9.3241

          k = 0.0000 0.1165 0.3494 ( 14933 PWs)   bands (ev):

   -21.9955  -9.2479  -8.0522  -7.6391  -6.0877  -6.0850  -6.0708  -4.0191
    -0.9136  -0.4981   1.5074   2.5026   2.8032   3.1671   3.1760   3.2721
     3.5203   6.6458   9.2737   9.5773

          k = 0.0000 0.1165-0.4658 ( 14882 PWs)   bands (ev):

   -21.9954  -9.1693  -8.1525  -7.6376  -6.0865  -6.0846  -6.0720  -4.1103
    -0.8923  -0.4734   1.7653   2.5168   2.7272   3.1612   3.2128   3.2467
     3.9317   5.6194   9.6673   9.7391

          k = 0.0000 0.2329 0.2329 ( 14932 PWs)   bands (ev):

   -21.9955  -9.2723  -7.9062  -7.7398  -6.0880  -6.0780  -6.0757  -4.1560
    -0.9111   0.1786   0.8944   2.2853   2.9213   3.0403   3.1689   3.2415
     3.6696   8.0535   8.4804   9.0265

          k = 0.0000 0.2329 0.3494 ( 14902 PWs)   bands (ev):

   -21.9953  -9.1098  -8.0597  -7.7799  -6.0853  -6.0795  -6.0733  -4.4458
    -0.8560   0.4721   1.4882   2.2180   2.7690   2.9604   3.1159   3.4597
     3.7810   6.5621   8.2396   9.6164

          k = 0.0000 0.2329-0.4658 ( 14928 PWs)   bands (ev):

   -21.9952  -9.0205  -8.1568  -7.7860  -6.0842  -6.0776  -6.0765  -4.5433
    -0.8322   0.5346   1.5852   2.4031   2.6938   2.9421   3.1029   3.6682
     4.0485   5.5440   8.2037   9.9171

          k = 0.0000 0.3494 0.3494 ( 14904 PWs)   bands (ev):

   -21.9951  -8.9205  -8.0917  -7.9553  -6.0829  -6.0775  -6.0691  -4.7587
    -0.7945   1.4070   1.4411   2.1834   2.7230   2.7671   3.0110   3.8118
     3.9813   6.2557   6.7939  10.0143

          k = 0.0000 0.3494-0.4658 ( 14930 PWs)   bands (ev):

   -21.9950  -8.8064  -8.1611  -8.0099  -6.0819  -6.0724  -6.0704  -4.8683
    -0.7676   1.4107   1.6720   2.3927   2.6609   2.7324   2.9306   4.0356
     4.3430   5.3839   6.5412  10.0089

          k = 0.0000-0.4658-0.4658 ( 14932 PWs)   bands (ev):

   -21.9950  -8.6605  -8.1628  -8.1628  -6.0810  -6.0674  -6.0674  -4.9845
    -0.7394   1.3429   2.3985   2.3985   2.6474   2.6474   2.6691   4.2058
     4.9963   5.2775   5.2775  10.2501

          k = 0.1165 0.1165 0.1165 ( 14939 PWs)   bands (ev):

   -21.9958  -9.4705  -7.6930  -7.6930  -6.0887  -6.0887  -6.0822  -3.5639
    -0.6974  -0.6974  -0.1314   2.9156   2.9156   3.0067   3.3758   3.4401
     3.4401   8.2091   9.1144   9.1144

          k = 0.1165 0.1165 0.2329 ( 14907 PWs)   bands (ev):

   -21.9956  -9.3514  -7.8557  -7.6869  -6.0902  -6.0831  -6.0749  -3.9739
    -0.6487  -0.4551   0.6599   2.6194   2.6921   2.9740   3.3898   3.4381
     3.4621   8.2981   8.6613   9.3512

          k = 0.1165 0.1165 0.3494 ( 14906 PWs)   bands (ev):

   -21.9954  -9.1988  -8.0529  -7.6808  -6.0918  -6.0790  -6.0745  -4.2521
    -0.5969  -0.3684   1.5061   2.3959   2.6779   2.9933   3.3682   3.4016
     3.5541   6.6195   9.1967   9.6129

          k = 0.1165 0.1165-0.4658 ( 14898 PWs)   bands (ev):

   -21.9953  -9.1172  -8.1531  -7.6783  -6.0924  -6.0774  -6.0770  -4.3441
    -0.5743  -0.3385   1.7269   2.3129   2.8783   2.9259   3.3588   3.3785
     3.9445   5.5990   9.3906   9.9324

          k = 0.1165 0.2329 0.2329 ( 14923 PWs)   bands (ev):

   -21.9954  -9.2255  -7.9019  -7.7784  -6.0907  -6.0798  -6.0747  -4.3839
    -0.5237   0.2019   0.9393   2.3003   2.6263   2.7934   3.4252   3.4559
     3.6666   8.0010   8.3996   8.9637

          k = 0.1165 0.2329 0.3494 ( 14911 PWs)   bands (ev):

   -21.9952  -9.0602  -8.0571  -7.8039  -6.0937  -6.0800  -6.0743  -4.6783
    -0.4605   0.5090   1.4942   2.1628   2.5636   2.8614   3.3918   3.5616
     3.7807   6.5231   8.1669   9.2494

          k = 0.1165 0.2329-0.4658 ( 14908 PWs)   bands (ev):

   -21.9951  -8.9683  -8.1547  -7.8059  -6.0943  -6.0842  -6.0725  -4.7787
    -0.4341   0.5764   1.5939   2.1641   2.6548   2.9515   3.3755   3.7071
     4.0374   5.5083   8.1304   9.3422

          k = 0.1165 0.3494 0.3494 ( 14924 PWs)   bands (ev):

   -21.9950  -8.8695  -8.0863  -7.9620  -6.0939  -6.0770  -6.0759  -5.0011
    -0.3893   1.4246   1.4635   2.0756   2.4450   2.8902   3.3102   3.8392
     3.9871   6.2065   6.7528   9.3129

          k = 0.1165 0.3494-0.4658 ( 14934 PWs)   bands (ev):

   -21.9950  -8.7532  -8.1564  -8.0094  -6.0908  -6.0811  -6.0728  -5.1161
    -0.3594   1.4416   1.6753   2.1301   2.4830   2.9729   3.2282   4.0462
     4.3324   5.3377   6.4986   9.3491

          k = 0.1165-0.4658-0.4658 ( 14912 PWs)   bands (ev):

   -21.9949  -8.6040  -8.1570  -8.1570  -6.0870  -6.0752  -6.0752  -5.2397
    -0.3280   1.3799   2.1276   2.1276   2.6718   2.9786   2.9786   4.2106
     4.9992   5.2267   5.2267   9.7237

          k = 0.2329 0.2329 0.2329 ( 14868 PWs)   bands (ev):

   -21.9952  -9.0949  -7.8915  -7.8915  -6.0900  -6.0900  -6.0760  -4.8077
     0.2626   0.2626   1.1299   2.2741   2.2741   2.6454   3.6334   3.6334
     3.6954   7.8788   7.8788   8.4883

          k = 0.2329 0.2329 0.3494 ( 14896 PWs)   bands (ev):

   -21.9950  -8.9201  -8.0529  -7.8810  -6.1002  -6.0929  -6.0775  -5.1294
     0.3311   0.7246   1.5071   2.0199   2.2657   2.9112   3.6371   3.7535
     3.8094   6.4031   7.7747   8.3532

          k = 0.2329 0.2329-0.4658 ( 14894 PWs)   bands (ev):

   -21.9950  -8.8192  -8.1498  -7.8766  -6.1045  -6.0997  -6.0743  -5.2424
     0.3626   0.8277   1.5878   1.9257   2.3445   3.2414   3.6339   3.8437
     4.0363   5.3874   7.7375   8.3350

          k = 0.2329 0.3494 0.3494 ( 14911 PWs)   bands (ev):

   -21.9949  -8.7261  -8.0731  -7.9903  -6.1078  -6.0926  -6.0893  -5.4934
     0.5709   1.4760   1.5163   1.9009   2.1199   3.1479   3.6808   3.8867
     4.0056   6.0693   6.5835   8.1200

          k = 0.2329 0.3494-0.4658 ( 14912 PWs)   bands (ev):

   -21.9948  -8.6035  -8.1449  -8.0156  -6.1065  -6.1039  -6.0844  -5.6292
     0.6207   1.5161   1.6794   1.8504   2.2481   3.3952   3.6198   4.0765
     4.2833   5.1902   6.3461   8.0875

          k = 0.2329-0.4658-0.4658 ( 14908 PWs)   bands (ev):

   -21.9947  -8.4459  -8.1429  -8.1429  -6.1015  -6.0943  -6.0943  -5.7832
     0.6758   1.4715   1.8471   1.8471   2.6785   3.4370   3.4370   4.2221
     4.9824   5.0632   5.0632   8.0528

          k = 0.3494 0.3494 0.3494 ( 14901 PWs)   bands (ev):

   -21.9947  -8.5272  -8.0596  -8.0596  -6.1202  -6.1096  -6.1096  -5.9108
     1.5606   1.5606   1.5636   1.8659   1.8659   3.5162   3.9224   3.9224
     4.0653   5.9027   5.9027   7.1854

          k = 0.3494 0.3494-0.4658 ( 14916 PWs)   bands (ev):

   -21.9946  -8.3944  -8.1333  -8.0539  -6.1580  -6.1167  -6.1015  -6.0573
     1.5768   1.6742   1.6827   1.6872   2.2353   3.7604   3.9663   4.1403
     4.2322   4.9527   5.8229   7.0036

          k = 0.3494-0.4658-0.4658 ( 14956 PWs)   bands (ev):

   -21.9945  -8.2372  -8.1285  -8.1285  -6.2977  -6.1159  -6.1137  -6.1137
     1.5668   1.6684   1.6684   1.9056   2.6851   3.8998   3.8998   4.2337
     4.7824   4.7824   4.8241   6.7485

          k =-0.4658-0.4658-0.4658 ( 15000 PWs)   bands (ev):

   -21.9945  -8.1224  -8.1224  -8.1224  -6.5239  -6.1218  -6.1218  -6.1218
     1.6075   1.6075   1.6075   2.6879   2.6879   4.2385   4.2385   4.2385
     4.5030   4.5030   4.5030   6.2027

     the Fermi energy is     3.7783 ev

!    total energy              =   -1155.66596285 Ry
     total all-electron energy =    -33506.342432 Ry
     estimated scf accuracy    <          1.2E-15 Ry
     smearing contrib. (-TS)   =      -0.00334291 Ry
     internal energy E=F+TS    =   -1155.66261994 Ry

     The total energy is F=E-TS. E is the sum of the following terms:
     one-electron contribution =      -4.92917080 Ry
     hartree contribution      =      16.87557786 Ry
     xc contribution           =     -50.73045781 Ry
     ewald contribution        =     -98.19685806 Ry
     one-center paw contrib.   =   -1018.68171112 Ry

     convergence has been achieved in  14 iterations

     Forces acting on atoms (cartesian axes, Ry/au):

     atom    1 type  1   force =     0.00000000    0.00000000    0.00000000
     atom    2 type  2   force =     0.00000000    0.00000000    0.00000000
     atom    3 type  3   force =     0.00000000    0.00000000    0.00000000
     atom    4 type  3   force =     0.00000000    0.00000000    0.00000000
     atom    5 type  3   force =     0.00000000    0.00000000    0.00000000

     Total force =     0.000000     Total SCF correction =     0.000000


     Computing stress (Cartesian axis) and pressure

          total   stress  (Ry/bohr**3)                   (kbar)     P=        1.09
   0.00000739   0.00000000   0.00000000            1.09        0.00        0.00
   0.00000000   0.00000739   0.00000000            0.00        1.09        0.00
   0.00000000   0.00000000   0.00000739            0.00        0.00        1.09

     Energy error            =      5.3E-04 Ry
     Gradient error          =      0.0E+00 Ry/Bohr
     Cell gradient error     =      1.1E+00 kbar

     number of scf cycles    =   5
     number of bfgs steps    =   4

     enthalpy           old  =   -1155.6654312959 Ry
     enthalpy           new  =   -1155.6659628510 Ry

     CASE: enthalpy          _new < enthalpy          _old

     new trust radius        =       0.0067772001 bohr
     new conv_thr            =            1.0E-14 Ry

     new unit-cell volume =   1095.30455 a.u.^3 (   162.30739 Ang^3 )
     density =      4.54393 g/cm^3

CELL_PARAMETERS (angstrom)
   5.454807522   0.000000000   0.000000000
   0.000000000   5.454807522   0.000000000
   0.000000000   0.000000000   5.454807522

ATOMIC_POSITIONS (crystal)
Rb               0.0000000000        0.0000000000        0.0000000000
Sb               0.5000000000        0.5000000000        0.5000000000
Se               0.5000000000        0.5000000000        0.0000000000
Se               0.5000000000        0.0000000000        0.5000000000
Se               0.0000000000        0.5000000000        0.5000000000



     Writing config-only to output data dir ./tmp/RbSbSe3.save/ :
     XML data file
     NEW-OLD atomic charge density approx. for the potential

     total cpu time spent up to now is      671.1 secs

     Self-consistent Calculation

     iteration #  1     ecut=   100.00 Ry     beta= 0.30
     Davidson diagonalization with overlap
     ethr =  1.00E-06,  avg # of iterations =  2.0

     Threshold (ethr) on eigenvalues was too large:
     Diagonalizing with lowered threshold

     Davidson diagonalization with overlap
     ethr =  7.55E-10,  avg # of iterations =  5.3

     total cpu time spent up to now is      690.2 secs

     total energy              =   -1155.66597650 Ry
     estimated scf accuracy    <       0.00000025 Ry

     iteration #  2     ecut=   100.00 Ry     beta= 0.30
     Davidson diagonalization with overlap
     ethr =  7.95E-10,  avg # of iterations =  2.0

     total cpu time spent up to now is      698.5 secs

     total energy              =   -1155.66597575 Ry
     estimated scf accuracy    <       0.00000007 Ry

     iteration #  3     ecut=   100.00 Ry     beta= 0.30
     Davidson diagonalization with overlap
     ethr =  2.25E-10,  avg # of iterations =  2.0

     total cpu time spent up to now is      707.2 secs

     total energy              =   -1155.66597557 Ry
     estimated scf accuracy    <       0.00000003 Ry

     iteration #  4     ecut=   100.00 Ry     beta= 0.30
     Davidson diagonalization with overlap
     ethr =  8.03E-11,  avg # of iterations =  2.0

     total cpu time spent up to now is      715.6 secs

     total energy              =   -1155.66597560 Ry
     estimated scf accuracy    <          6.3E-09 Ry

     iteration #  5     ecut=   100.00 Ry     beta= 0.30
     Davidson diagonalization with overlap
     ethr =  1.96E-11,  avg # of iterations =  2.0

     total cpu time spent up to now is      724.1 secs

     total energy              =   -1155.66597565 Ry
     estimated scf accuracy    <          3.9E-10 Ry

     iteration #  6     ecut=   100.00 Ry     beta= 0.30
     Davidson diagonalization with overlap
     ethr =  1.21E-12,  avg # of iterations =  2.0

     total cpu time spent up to now is      732.7 secs

     total energy              =   -1155.66597567 Ry
     estimated scf accuracy    <          1.3E-10 Ry

     iteration #  7     ecut=   100.00 Ry     beta= 0.30
     Davidson diagonalization with overlap
     ethr =  4.17E-13,  avg # of iterations =  2.0

     total cpu time spent up to now is      741.2 secs

     total energy              =   -1155.66597568 Ry
     estimated scf accuracy    <          4.0E-12 Ry

     iteration #  8     ecut=   100.00 Ry     beta= 0.30
     Davidson diagonalization with overlap
     ethr =  1.00E-13,  avg # of iterations =  1.0

     total cpu time spent up to now is      748.1 secs

     total energy              =   -1155.66597569 Ry
     estimated scf accuracy    <          7.8E-13 Ry

     iteration #  9     ecut=   100.00 Ry     beta= 0.30
     Davidson diagonalization with overlap
     ethr =  1.00E-13,  avg # of iterations =  1.0

     total cpu time spent up to now is      755.0 secs

     total energy              =   -1155.66597569 Ry
     estimated scf accuracy    <          1.6E-13 Ry

     iteration # 10     ecut=   100.00 Ry     beta= 0.30
     Davidson diagonalization with overlap
     ethr =  1.00E-13,  avg # of iterations =  1.0

     total cpu time spent up to now is      762.0 secs

     total energy              =   -1155.66597569 Ry
     estimated scf accuracy    <          6.9E-14 Ry

     iteration # 11     ecut=   100.00 Ry     beta= 0.30
     Davidson diagonalization with overlap
     ethr =  1.00E-13,  avg # of iterations =  1.0

     total cpu time spent up to now is      769.1 secs

     End of self-consistent calculation

          k = 0.0000 0.0000 0.0000 ( 14939 PWs)   bands (ev):

   -22.0284  -9.6094  -7.6232  -7.6232  -6.1275  -6.1275  -6.1275  -2.7473
    -1.0586  -1.0586  -1.0586   3.2290   3.2290   3.2290   3.3726   3.3726
     3.3726   7.5687   8.8636   8.8636

          k = 0.0000 0.0000 0.1163 ( 14939 PWs)   bands (ev):

   -22.0283  -9.5677  -7.6910  -7.6217  -6.1263  -6.1263  -6.1186  -3.0694
    -1.0409  -1.0409  -0.5185   3.1657   3.1657   3.1740   3.2948   3.3324
     3.3324   7.8045   8.9286   8.9749

          k = 0.0000 0.0000 0.2327 ( 14939 PWs)   bands (ev):

   -22.0281  -9.4535  -7.8667  -7.6183  -6.1233  -6.1233  -6.1043  -3.5230
    -0.9963  -0.9963   0.5301   2.9810   2.9810   3.0492   3.1812   3.2798
     3.2798   8.2794   8.4744   9.1180

          k = 0.0000 0.0000 0.3490 ( 14906 PWs)   bands (ev):

   -22.0279  -9.3093  -8.0708  -7.6148  -6.1203  -6.1203  -6.0993  -3.8076
    -0.9494  -0.9494   1.4861   2.7938   2.7938   2.9342   3.2436   3.2436
     3.3658   6.6258   9.1465   9.4008

          k = 0.0000 0.0000-0.4654 ( 14862 PWs)   bands (ev):

   -22.0278  -9.2341  -8.1706  -7.6134  -6.1191  -6.1191  -6.0998  -3.8992
    -0.9291  -0.9291   1.8097   2.7181   2.7181   2.8889   3.2299   3.2299
     3.8613   5.5970   9.5804   9.6002

          k = 0.0000 0.1163 0.1163 ( 14929 PWs)   bands (ev):

   -22.0282  -9.5253  -7.7192  -7.6562  -6.1251  -6.1198  -6.1170  -3.3440
    -1.0223  -0.7310  -0.3208   2.9116   3.1240   3.2252   3.2311   3.2703
     3.4166   8.0084   9.0263   9.0964

          k = 0.0000 0.1163 0.2327 ( 14917 PWs)   bands (ev):

   -22.0280  -9.4088  -7.8742  -7.6658  -6.1222  -6.1177  -6.1058  -3.7687
    -0.9758  -0.5780   0.5826   2.6203   2.9636   3.1326   3.1922   3.2299
     3.4294   8.2957   8.5550   9.2983

          k = 0.0000 0.1163 0.3490 ( 14933 PWs)   bands (ev):

   -22.0278  -9.2606  -8.0728  -7.6634  -6.1194  -6.1167  -6.1025  -4.0476
    -0.9266  -0.5138   1.4842   2.4801   2.7799   3.1415   3.1507   3.2459
     3.4911   6.6068   9.2347   9.5499

          k = 0.0000 0.1163-0.4654 ( 14882 PWs)   bands (ev):

   -22.0277  -9.1823  -8.1723  -7.6620  -6.1182  -6.1163  -6.1036  -4.1389
    -0.9054  -0.4892   1.7437   2.4943   2.7042   3.1360   3.1870   3.2216
     3.8969   5.5847   9.6247   9.7099

          k = 0.0000 0.2327 0.2327 ( 14932 PWs)   bands (ev):

   -22.0278  -9.2849  -7.9280  -7.7631  -6.1196  -6.1097  -6.1075  -4.1827
    -0.9241   0.1607   0.8700   2.2638   2.8978   3.0154   3.1432   3.2149
     3.6416   8.0106   8.4354   8.9880

          k = 0.0000 0.2327 0.3490 ( 14902 PWs)   bands (ev):

   -22.0276  -9.1231  -8.0803  -7.8029  -6.1170  -6.1111  -6.1051  -4.4719
    -0.8693   0.4524   1.4668   2.1952   2.7460   2.9364   3.0902   3.4308
     3.7519   6.5230   8.1951   9.5773

          k = 0.0000 0.2327-0.4654 ( 14928 PWs)   bands (ev):

   -22.0275  -9.0342  -8.1766  -7.8090  -6.1159  -6.1093  -6.1081  -4.5694
    -0.8455   0.5144   1.5659   2.3799   2.6712   2.9183   3.0772   3.6406
     4.0133   5.5088   8.1592   9.8777

          k = 0.0000 0.3490 0.3490 ( 14904 PWs)   bands (ev):

   -22.0274  -8.9347  -8.1120  -7.9767  -6.1147  -6.1091  -6.1010  -4.7838
    -0.8080   1.3850   1.4224   2.1591   2.7005   2.7442   2.9854   3.7794
     3.9519   6.2181   6.7522   9.9758

          k = 0.0000 0.3490-0.4654 ( 14930 PWs)   bands (ev):

   -22.0273  -8.8211  -8.1808  -8.0308  -6.1137  -6.1042  -6.1023  -4.8931
    -0.7812   1.3931   1.6488   2.3687   2.6386   2.7098   2.9051   4.0059
     4.3067   5.3490   6.5007   9.9639

          k = 0.0000-0.4654-0.4654 ( 14932 PWs)   bands (ev):

   -22.0273  -8.6759  -8.1826  -8.1826  -6.1128  -6.0993  -6.0993  -5.0090
    -0.7532   1.3258   2.3743   2.3743   2.6253   2.6253   2.6435   4.1752
     4.9550   5.2430   5.2430  10.2149

          k = 0.1163 0.1163 0.1163 ( 14939 PWs)   bands (ev):

   -22.0281  -9.4823  -7.7168  -7.7168  -6.1204  -6.1204  -6.1139  -3.5927
    -0.7117  -0.7117  -0.1534   2.8918   2.8918   2.9816   3.3496   3.4129
     3.4129   8.1728   9.0887   9.0887

          k = 0.1163 0.1163 0.2327 ( 14907 PWs)   bands (ev):

   -22.0279  -9.3637  -7.8780  -7.7108  -6.1219  -6.1148  -6.1066  -4.0008
    -0.6631  -0.4712   0.6363   2.5969   2.6687   2.9492   3.3633   3.4115
     3.4347   8.2541   8.6242   9.3231

          k = 0.1163 0.1163 0.3490 ( 14906 PWs)   bands (ev):

   -22.0277  -9.2117  -8.0735  -7.7048  -6.1234  -6.1108  -6.1062  -4.2787
    -0.6114  -0.3852   1.4833   2.3744   2.6539   2.9683   3.3419   3.3756
     3.5244   6.5804   9.1595   9.5775

          k = 0.1163 0.1163-0.4654 ( 14898 PWs)   bands (ev):

   -22.0276  -9.1305  -8.1730  -7.7023  -6.1240  -6.1092  -6.1086  -4.3708
    -0.5889  -0.3555   1.7059   2.2917   2.8539   2.9017   3.3325   3.3527
     3.9097   5.5640   9.3536   9.8938

          k = 0.1163 0.2327 0.2327 ( 14923 PWs)   bands (ev):

   -22.0277  -9.2383  -7.9238  -7.8014  -6.1223  -6.1116  -6.1065  -4.4088
    -0.5388   0.1840   0.9150   2.2788   2.6037   2.7687   3.3985   3.4288
     3.6387   7.9583   8.3552   8.9263

          k = 0.1163 0.2327 0.3490 ( 14911 PWs)   bands (ev):

   -22.0275  -9.0737  -8.0777  -7.8267  -6.1252  -6.1116  -6.1061  -4.7025
    -0.4759   0.4891   1.4730   2.1412   2.5408   2.8358   3.3652   3.5330
     3.7517   6.4839   8.1229   9.2102

          k = 0.1163 0.2327-0.4654 ( 14908 PWs)   bands (ev):

   -22.0274  -8.9823  -8.1746  -7.8286  -6.1259  -6.1156  -6.1043  -4.8028
    -0.4496   0.5560   1.5745   2.1428   2.6317   2.9266   3.3489   3.6794
     4.0023   5.4731   8.0865   9.3011

          k = 0.1163 0.3490 0.3490 ( 14924 PWs)   bands (ev):

   -22.0273  -8.8840  -8.1067  -7.9834  -6.1254  -6.1087  -6.1077  -5.0242
    -0.4050   1.4026   1.4446   2.0532   2.4229   2.8645   3.2839   3.8073
     3.9576   6.1689   6.7112   9.2709

          k = 0.1163 0.3490-0.4654 ( 14934 PWs)   bands (ev):

   -22.0273  -8.7683  -8.1762  -8.0303  -6.1224  -6.1127  -6.1047  -5.1389
    -0.3753   1.4238   1.6523   2.1085   2.4604   2.9479   3.2019   4.0165
     4.2962   5.3028   6.4583   9.3053

          k = 0.1163-0.4654-0.4654 ( 14912 PWs)   bands (ev):

   -22.0272  -8.6198  -8.1769  -8.1769  -6.1187  -6.1070  -6.1070  -5.2621
    -0.3440   1.3625   2.1058   2.1058   2.6462   2.9536   2.9536   4.1799
     4.9580   5.1921   5.1921   9.6901

          k = 0.2327 0.2327 0.2327 ( 14868 PWs)   bands (ev):

   -22.0275  -9.1083  -7.9135  -7.9135  -6.1216  -6.1216  -6.1076  -4.8302
     0.2445   0.2445   1.1059   2.2529   2.2529   2.6194   3.6056   3.6056
     3.6676   7.8366   7.8366   8.4456

          k = 0.2327 0.2327 0.3490 ( 14896 PWs)   bands (ev):

   -22.0273  -8.9344  -8.0735  -7.9031  -6.1317  -6.1243  -6.1092  -5.1509
     0.3128   0.7038   1.4865   1.9996   2.2441   2.8825   3.6094   3.7240
     3.7811   6.3643   7.7328   8.3091

          k = 0.2327 0.2327-0.4654 ( 14894 PWs)   bands (ev):

   -22.0273  -8.8339  -8.1697  -7.8987  -6.1360  -6.1308  -6.1061  -5.2638
     0.3442   0.8062   1.5685   1.9057   2.3226   3.2146   3.6063   3.8152
     4.0011   5.3521   7.6958   8.2903

          k = 0.2327 0.3490 0.3490 ( 14911 PWs)   bands (ev):

   -22.0272  -8.7414  -8.0936  -8.0115  -6.1390  -6.1242  -6.1206  -5.5134
     0.5513   1.4542   1.4971   1.8804   2.0986   3.1179   3.6527   3.8561
     3.9761   6.0320   6.5430   8.0754

          k = 0.2327 0.3490-0.4654 ( 14912 PWs)   bands (ev):

   -22.0271  -8.6195  -8.1649  -8.0366  -6.1378  -6.1348  -6.1161  -5.6488
     0.6008   1.4976   1.6575   1.8303   2.2252   3.3678   3.5914   4.0466
     4.2477   5.1554   6.3065   8.0427

          k = 0.2327-0.4654-0.4654 ( 14908 PWs)   bands (ev):

   -22.0270  -8.4629  -8.1629  -8.1629  -6.1330  -6.1258  -6.1258  -5.8016
     0.6556   1.4534   1.8268   1.8268   2.6528   3.4094   3.4094   4.1913
     4.9420   5.0289   5.0289   8.0079

          k = 0.3490 0.3490 0.3490 ( 14901 PWs)   bands (ev):

   -22.0270  -8.5438  -8.0802  -8.0802  -6.1494  -6.1409  -6.1409  -5.9301
     1.5390   1.5390   1.5443   1.8449   1.8449   3.4827   3.8931   3.8931
     4.0355   5.8659   5.8659   7.1385

          k = 0.3490 0.3490-0.4654 ( 14916 PWs)   bands (ev):

   -22.0269  -8.4120  -8.1534  -8.0746  -6.1816  -6.1480  -6.1329  -6.0809
     1.5578   1.6539   1.6596   1.6678   2.2108   3.7311   3.9368   4.1100
     4.1968   4.9184   5.7863   6.9567

          k = 0.3490-0.4654-0.4654 ( 14956 PWs)   bands (ev):

   -22.0268  -8.2560  -8.1486  -8.1486  -6.3124  -6.1471  -6.1450  -6.1450
     1.5479   1.6489   1.6489   1.8817   2.6594   3.8700   3.8700   4.2028
     4.7486   4.7486   4.7870   6.7015

          k =-0.4654-0.4654-0.4654 ( 15000 PWs)   bands (ev):

   -22.0268  -8.1426  -8.1426  -8.1426  -6.5366  -6.1530  -6.1530  -6.1530
     1.5882   1.5882   1.5882   2.6621   2.6621   4.2076   4.2076   4.2076
     4.4697   4.4697   4.4697   6.1530

     the Fermi energy is     3.7491 ev

!    total energy              =   -1155.66597569 Ry
     total all-electron energy =    -33506.342444 Ry
     estimated scf accuracy    <          7.4E-15 Ry
     smearing contrib. (-TS)   =      -0.00337562 Ry
     internal energy E=F+TS    =   -1155.66260008 Ry

     The total energy is F=E-TS. E is the sum of the following terms:
     one-electron contribution =      -5.07833931 Ry
     hartree contribution      =      16.91706112 Ry
     xc contribution           =     -50.72422726 Ry
     ewald contribution        =     -98.09626384 Ry
     one-center paw contrib.   =   -1018.68083078 Ry

     convergence has been achieved in  11 iterations

     Forces acting on atoms (cartesian axes, Ry/au):

     atom    1 type  1   force =     0.00000000    0.00000000    0.00000000
     atom    2 type  2   force =     0.00000000    0.00000000    0.00000000
     atom    3 type  3   force =     0.00000000    0.00000000    0.00000000
     atom    4 type  3   force =     0.00000000    0.00000000    0.00000000
     atom    5 type  3   force =     0.00000000    0.00000000    0.00000000

     Total force =     0.000000     Total SCF correction =     0.000000


     Computing stress (Cartesian axis) and pressure

          total   stress  (Ry/bohr**3)                   (kbar)     P=        0.04
   0.00000030   0.00000000   0.00000000            0.04        0.00        0.00
   0.00000000   0.00000030   0.00000000            0.00        0.04        0.00
   0.00000000   0.00000000   0.00000030            0.00        0.00        0.04

     Energy error            =      1.3E-05 Ry
     Gradient error          =      0.0E+00 Ry/Bohr
     Cell gradient error     =      4.4E-02 kbar

     number of scf cycles    =   6
     number of bfgs steps    =   5

     enthalpy           old  =   -1155.6659628510 Ry
     enthalpy           new  =   -1155.6659756942 Ry

     CASE: enthalpy          _new < enthalpy          _old

     new trust radius        =       0.0002886770 bohr
     new conv_thr            =            1.0E-14 Ry

     new unit-cell volume =   1095.44787 a.u.^3 (   162.32863 Ang^3 )
     density =      4.54333 g/cm^3

CELL_PARAMETERS (angstrom)
   5.455045421   0.000000000   0.000000000
   0.000000000   5.455045421   0.000000000
   0.000000000   0.000000000   5.455045421

ATOMIC_POSITIONS (crystal)
Rb               0.0000000000        0.0000000000        0.0000000000
Sb               0.5000000000        0.5000000000        0.5000000000
Se               0.5000000000        0.5000000000        0.0000000000
Se               0.5000000000        0.0000000000        0.5000000000
Se               0.0000000000        0.5000000000        0.5000000000



     Writing config-only to output data dir ./tmp/RbSbSe3.save/ :
     XML data file
     NEW-OLD atomic charge density approx. for the potential

     total cpu time spent up to now is      782.9 secs

     Self-consistent Calculation

     iteration #  1     ecut=   100.00 Ry     beta= 0.30
     Davidson diagonalization with overlap
     ethr =  1.00E-06,  avg # of iterations =  2.0

     Threshold (ethr) on eigenvalues was too large:
     Diagonalizing with lowered threshold

     Davidson diagonalization with overlap
     ethr =  1.35E-12,  avg # of iterations =  5.5

     total cpu time spent up to now is      801.6 secs

     total energy              =   -1155.66597572 Ry
     estimated scf accuracy    <          4.6E-10 Ry

     iteration #  2     ecut=   100.00 Ry     beta= 0.30
     Davidson diagonalization with overlap
     ethr =  1.44E-12,  avg # of iterations =  2.0

     total cpu time spent up to now is      809.8 secs

     total energy              =   -1155.66597571 Ry
     estimated scf accuracy    <          1.3E-10 Ry

     iteration #  3     ecut=   100.00 Ry     beta= 0.30
     Davidson diagonalization with overlap
     ethr =  4.08E-13,  avg # of iterations =  2.0

     total cpu time spent up to now is      818.3 secs

     total energy              =   -1155.66597571 Ry
     estimated scf accuracy    <          4.6E-11 Ry

     iteration #  4     ecut=   100.00 Ry     beta= 0.30
     Davidson diagonalization with overlap
     ethr =  1.44E-13,  avg # of iterations =  2.0

     total cpu time spent up to now is      826.6 secs

     total energy              =   -1155.66597571 Ry
     estimated scf accuracy    <          1.1E-11 Ry

     iteration #  5     ecut=   100.00 Ry     beta= 0.30
     Davidson diagonalization with overlap
     ethr =  1.00E-13,  avg # of iterations =  2.0

     total cpu time spent up to now is      834.6 secs

     total energy              =   -1155.66597571 Ry
     estimated scf accuracy    <          6.5E-13 Ry

     iteration #  6     ecut=   100.00 Ry     beta= 0.30
     Davidson diagonalization with overlap
     ethr =  1.00E-13,  avg # of iterations =  1.0

     total cpu time spent up to now is      841.5 secs

     total energy              =   -1155.66597571 Ry
     estimated scf accuracy    <          1.7E-13 Ry

     iteration #  7     ecut=   100.00 Ry     beta= 0.30
     Davidson diagonalization with overlap
     ethr =  1.00E-13,  avg # of iterations =  1.0

     total cpu time spent up to now is      848.4 secs

     total energy              =   -1155.66597571 Ry
     estimated scf accuracy    <          1.3E-14 Ry

     iteration #  8     ecut=   100.00 Ry     beta= 0.30
     Davidson diagonalization with overlap
     ethr =  1.00E-13,  avg # of iterations =  1.0

     total cpu time spent up to now is      855.4 secs

     End of self-consistent calculation

          k = 0.0000 0.0000 0.0000 ( 14939 PWs)   bands (ev):

   -22.0297  -9.6098  -7.6242  -7.6242  -6.1289  -6.1289  -6.1289  -2.7489
    -1.0592  -1.0592  -1.0592   3.2279   3.2279   3.2279   3.3714   3.3714
     3.3714   7.5673   8.8626   8.8626

          k = 0.0000 0.0000 0.1163 ( 14939 PWs)   bands (ev):

   -22.0296  -9.5682  -7.6920  -7.6228  -6.1276  -6.1276  -6.1200  -3.0708
    -1.0414  -1.0414  -0.5193   3.1646   3.1646   3.1729   3.2936   3.3313
     3.3313   7.8030   8.9276   8.9735

          k = 0.0000 0.0000 0.2327 ( 14939 PWs)   bands (ev):

   -22.0294  -9.4540  -7.8676  -7.6193  -6.1247  -6.1247  -6.1057  -3.5243
    -0.9969  -0.9969   0.5291   2.9800   2.9800   3.0482   3.1801   3.2787
     3.2787   8.2777   8.4727   9.1170

          k = 0.0000 0.0000 0.3490 ( 14906 PWs)   bands (ev):

   -22.0292  -9.3099  -8.0717  -7.6159  -6.1217  -6.1217  -6.1007  -3.8089
    -0.9499  -0.9499   1.4851   2.7928   2.7928   2.9332   3.2425   3.2425
     3.3646   6.6241   9.1449   9.3998

          k = 0.0000 0.0000-0.4654 ( 14862 PWs)   bands (ev):

   -22.0292  -9.2346  -8.1714  -7.6144  -6.1204  -6.1204  -6.1012  -3.9005
    -0.9297  -0.9297   1.8087   2.7171   2.7171   2.8879   3.2288   3.2288
     3.8598   5.5956   9.5789   9.5992

          k = 0.0000 0.1163 0.1163 ( 14929 PWs)   bands (ev):

   -22.0296  -9.5258  -7.7203  -7.6572  -6.1265  -6.1211  -6.1184  -3.3454
    -1.0228  -0.7316  -0.3217   2.9106   3.1229   3.2241   3.2300   3.2692
     3.4154   8.0069   9.0253   9.0954

          k = 0.0000 0.1163 0.2327 ( 14917 PWs)   bands (ev):

   -22.0294  -9.4094  -7.8752  -7.6669  -6.1236  -6.1191  -6.1072  -3.7699
    -0.9763  -0.5787   0.5816   2.6193   2.9626   3.1315   3.1911   3.2288
     3.4283   8.2938   8.5534   9.2971

          k = 0.0000 0.1163 0.3490 ( 14933 PWs)   bands (ev):

   -22.0292  -9.2611  -8.0737  -7.6644  -6.1207  -6.1181  -6.1038  -4.0488
    -0.9272  -0.5145   1.4832   2.4791   2.7789   3.1404   3.1496   3.2448
     3.4898   6.6051   9.2330   9.5488

          k = 0.0000 0.1163-0.4654 ( 14882 PWs)   bands (ev):

   -22.0291  -9.1829  -8.1732  -7.6630  -6.1195  -6.1176  -6.1050  -4.1401
    -0.9059  -0.4899   1.7428   2.4934   2.7033   3.1350   3.1859   3.2205
     3.8955   5.5832   9.6229   9.7087

          k = 0.0000 0.2327 0.2327 ( 14932 PWs)   bands (ev):

   -22.0292  -9.2854  -7.9289  -7.7641  -6.1210  -6.1111  -6.1089  -4.1838
    -0.9247   0.1600   0.8690   2.2629   2.8968   3.0144   3.1421   3.2138
     3.6404   8.0088   8.4335   8.9864

          k = 0.0000 0.2327 0.3490 ( 14902 PWs)   bands (ev):

   -22.0290  -9.1237  -8.0811  -7.8039  -6.1184  -6.1125  -6.1065  -4.4730
    -0.8698   0.4515   1.4659   2.1942   2.7451   2.9354   3.0891   3.4295
     3.7506   6.5213   8.1932   9.5756

          k = 0.0000 0.2327-0.4654 ( 14928 PWs)   bands (ev):

   -22.0289  -9.0348  -8.1774  -7.8099  -6.1173  -6.1107  -6.1095  -4.5705
    -0.8460   0.5136   1.5651   2.3789   2.6702   2.9173   3.0762   3.6395
     4.0118   5.5073   8.1573   9.8760

          k = 0.0000 0.3490 0.3490 ( 14904 PWs)   bands (ev):

   -22.0288  -8.9353  -8.1129  -7.9776  -6.1160  -6.1105  -6.1023  -4.7849
    -0.8085   1.3840   1.4217   2.1581   2.6995   2.7432   2.9844   3.7780
     3.9506   6.2165   6.7504   9.9741

          k = 0.0000 0.3490-0.4654 ( 14930 PWs)   bands (ev):

   -22.0287  -8.8218  -8.1817  -8.0317  -6.1150  -6.1055  -6.1036  -4.8942
    -0.7818   1.3923   1.6478   2.3677   2.6377   2.7088   2.9040   4.0047
     4.3051   5.3475   6.4990   9.9619

          k = 0.0000-0.4654-0.4654 ( 14932 PWs)   bands (ev):

   -22.0286  -8.6766  -8.1834  -8.1834  -6.1141  -6.1007  -6.1007  -5.0101
    -0.7537   1.3251   2.3733   2.3733   2.6244   2.6244   2.6424   4.1739
     4.9533   5.2415   5.2415  10.2134

          k = 0.1163 0.1163 0.1163 ( 14939 PWs)   bands (ev):

   -22.0295  -9.4828  -7.7178  -7.7178  -6.1217  -6.1217  -6.1153  -3.5939
    -0.7123  -0.7123  -0.1543   2.8908   2.8908   2.9806   3.3485   3.4117
     3.4117   8.1713   9.0876   9.0876

          k = 0.1163 0.1163 0.2327 ( 14907 PWs)   bands (ev):

   -22.0293  -9.3642  -7.8790  -7.7118  -6.1232  -6.1161  -6.1080  -4.0020
    -0.6637  -0.4719   0.6353   2.5959   2.6678   2.9482   3.3622   3.4104
     3.4335   8.2522   8.6226   9.3219

          k = 0.1163 0.1163 0.3490 ( 14906 PWs)   bands (ev):

   -22.0291  -9.2122  -8.0744  -7.7058  -6.1247  -6.1122  -6.1075  -4.2798
    -0.6120  -0.3859   1.4823   2.3735   2.6529   2.9672   3.3408   3.3745
     3.5232   6.5787   9.1579   9.5760

          k = 0.1163 0.1163-0.4654 ( 14898 PWs)   bands (ev):

   -22.0290  -9.1311  -8.1738  -7.7033  -6.1254  -6.1106  -6.1099  -4.3719
    -0.5895  -0.3562   1.7050   2.2908   2.8528   2.9007   3.3314   3.3516
     3.9082   5.5625   9.3520   9.8922

          k = 0.1163 0.2327 0.2327 ( 14923 PWs)   bands (ev):

   -22.0291  -9.2389  -7.9247  -7.8023  -6.1236  -6.1129  -6.1078  -4.4098
    -0.5395   0.1832   0.9139   2.2778   2.6028   2.7676   3.3974   3.4276
     3.6375   7.9565   8.3533   8.9247

          k = 0.1163 0.2327 0.3490 ( 14911 PWs)   bands (ev):

   -22.0289  -9.0743  -8.0786  -7.8277  -6.1266  -6.1129  -6.1075  -4.7036
    -0.4765   0.4883   1.4721   2.1403   2.5399   2.8347   3.3641   3.5318
     3.7505   6.4823   8.1210   9.2086

          k = 0.1163 0.2327-0.4654 ( 14908 PWs)   bands (ev):

   -22.0288  -8.9829  -8.1754  -7.8296  -6.1272  -6.1170  -6.1057  -4.8039
    -0.4502   0.5551   1.5737   2.1419   2.6308   2.9256   3.3478   3.6783
     4.0008   5.4716   8.0846   9.2993

          k = 0.1163 0.3490 0.3490 ( 14924 PWs)   bands (ev):

   -22.0287  -8.8846  -8.1075  -7.9843  -6.1268  -6.1100  -6.1091  -5.0252
    -0.4057   1.4017   1.4438   2.0523   2.4220   2.8634   3.2827   3.8059
     3.9564   6.1673   6.7094   9.2691

          k = 0.1163 0.3490-0.4654 ( 14934 PWs)   bands (ev):

   -22.0286  -8.7689  -8.1770  -8.0312  -6.1237  -6.1141  -6.1060  -5.1399
    -0.3759   1.4230   1.6514   2.1076   2.4594   2.9468   3.2007   4.0152
     4.2947   5.3013   6.4565   9.3034

          k = 0.1163-0.4654-0.4654 ( 14912 PWs)   bands (ev):

   -22.0286  -8.6205  -8.1777  -8.1777  -6.1201  -6.1084  -6.1084  -5.2631
    -0.3446   1.3618   2.1049   2.1049   2.6451   2.9525   2.9525   4.1786
     4.9563   5.1907   5.1907   9.6886

          k = 0.2327 0.2327 0.2327 ( 14868 PWs)   bands (ev):

   -22.0289  -9.1089  -7.9145  -7.9145  -6.1229  -6.1229  -6.1090  -4.8311
     0.2437   0.2437   1.1049   2.2520   2.2520   2.6183   3.6044   3.6044
     3.6665   7.8348   7.8348   8.4438

          k = 0.2327 0.2327 0.3490 ( 14896 PWs)   bands (ev):

   -22.0287  -8.9350  -8.0744  -7.9040  -6.1330  -6.1256  -6.1106  -5.1518
     0.3120   0.7029   1.4856   1.9988   2.2432   2.8812   3.6083   3.7227
     3.7799   6.3626   7.7310   8.3072

          k = 0.2327 0.2327-0.4654 ( 14894 PWs)   bands (ev):

   -22.0286  -8.8346  -8.1705  -7.8997  -6.1373  -6.1321  -6.1075  -5.2647
     0.3434   0.8052   1.5677   1.9049   2.3216   3.2135   3.6051   3.8140
     3.9996   5.3506   7.6940   8.2884

          k = 0.2327 0.3490 0.3490 ( 14911 PWs)   bands (ev):

   -22.0285  -8.7420  -8.0944  -8.0124  -6.1403  -6.1255  -6.1220  -5.5142
     0.5504   1.4533   1.4962   1.8796   2.0977   3.1166   3.6515   3.8548
     3.9748   6.0304   6.5413   8.0735

          k = 0.2327 0.3490-0.4654 ( 14912 PWs)   bands (ev):

   -22.0285  -8.6202  -8.1657  -8.0375  -6.1392  -6.1362  -6.1174  -5.6496
     0.5999   1.4968   1.6565   1.8294   2.2242   3.3666   3.5902   4.0453
     4.2462   5.1539   6.3048   8.0408

          k = 0.2327-0.4654-0.4654 ( 14908 PWs)   bands (ev):

   -22.0284  -8.4636  -8.1637  -8.1637  -6.1343  -6.1272  -6.1272  -5.8024
     0.6548   1.4526   1.8259   1.8259   2.6517   3.4082   3.4082   4.1900
     4.9402   5.0274   5.0274   8.0060

          k = 0.3490 0.3490 0.3490 ( 14901 PWs)   bands (ev):

   -22.0284  -8.5445  -8.0811  -8.0811  -6.1506  -6.1423  -6.1423  -5.9309
     1.5380   1.5380   1.5435   1.8440   1.8440   3.4812   3.8919   3.8919
     4.0342   5.8643   5.8643   7.1365

          k = 0.3490 0.3490-0.4654 ( 14916 PWs)   bands (ev):

   -22.0283  -8.4127  -8.1542  -8.0755  -6.1827  -6.1493  -6.1343  -6.0819
     1.5570   1.6531   1.6587   1.6670   2.2098   3.7299   3.9356   4.1087
     4.1953   4.9170   5.7848   6.9547

          k = 0.3490-0.4654-0.4654 ( 14956 PWs)   bands (ev):

   -22.0282  -8.2568  -8.1494  -8.1494  -6.3130  -6.1485  -6.1463  -6.1463
     1.5471   1.6481   1.6481   1.8807   2.6583   3.8687   3.8687   4.2015
     4.7472   4.7472   4.7855   6.6995

          k =-0.4654-0.4654-0.4654 ( 15000 PWs)   bands (ev):

   -22.0281  -8.1435  -8.1435  -8.1435  -6.5371  -6.1543  -6.1543  -6.1543
     1.5874   1.5874   1.5874   2.6611   2.6611   4.2063   4.2063   4.2063
     4.4683   4.4683   4.4683   6.1508

     the Fermi energy is     3.7478 ev

!    total energy              =   -1155.66597571 Ry
     total all-electron energy =    -33506.342444 Ry
     estimated scf accuracy    <          3.9E-15 Ry
     smearing contrib. (-TS)   =      -0.00337702 Ry
     internal energy E=F+TS    =   -1155.66259870 Ry

     The total energy is F=E-TS. E is the sum of the following terms:
     one-electron contribution =      -5.08468390 Ry
     hartree contribution      =      16.91882724 Ry
     xc contribution           =     -50.72396280 Ry
     ewald contribution        =     -98.09198577 Ry
     one-center paw contrib.   =   -1018.68079347 Ry

     convergence has been achieved in   8 iterations

     Forces acting on atoms (cartesian axes, Ry/au):

     atom    1 type  1   force =     0.00000000    0.00000000    0.00000000
     atom    2 type  2   force =     0.00000000    0.00000000    0.00000000
     atom    3 type  3   force =     0.00000000    0.00000000    0.00000000
     atom    4 type  3   force =     0.00000000    0.00000000    0.00000000
     atom    5 type  3   force =     0.00000000    0.00000000    0.00000000

     Total force =     0.000000     Total SCF correction =     0.000000


     Computing stress (Cartesian axis) and pressure

          total   stress  (Ry/bohr**3)                   (kbar)     P=        0.00
   0.00000000   0.00000000   0.00000000            0.00        0.00        0.00
   0.00000000   0.00000000   0.00000000            0.00        0.00        0.00
   0.00000000   0.00000000   0.00000000            0.00        0.00        0.00

     Energy error            =      2.0E-08 Ry
     Gradient error          =      0.0E+00 Ry/Bohr
     Cell gradient error     =      2.8E-04 kbar

     bfgs converged in   7 scf cycles and   6 bfgs steps
     (criteria: energy <  1.0E-07 Ry, force <  1.0E-05 Ry/Bohr, cell <  1.0E-01 kbar)

     End of BFGS Geometry Optimization

     Final enthalpy           =   -1155.6659757139 Ry

     File ./tmp/RbSbSe3.bfgs deleted, as requested
Begin final coordinates
     new unit-cell volume =   1095.44787 a.u.^3 (   162.32863 Ang^3 )
     density =      4.54333 g/cm^3

CELL_PARAMETERS (angstrom)
   5.455045421   0.000000000   0.000000000
   0.000000000   5.455045421   0.000000000
   0.000000000   0.000000000   5.455045421

ATOMIC_POSITIONS (crystal)
Rb               0.0000000000        0.0000000000        0.0000000000
Sb               0.5000000000        0.5000000000        0.5000000000
Se               0.5000000000        0.5000000000        0.0000000000
Se               0.5000000000        0.0000000000        0.5000000000
Se               0.0000000000        0.5000000000        0.5000000000
End final coordinates



     Writing config-only to output data dir ./tmp/RbSbSe3.save/ :
     XML data file

     Final scf calculation at the relaxed structure.
     The G-vectors are recalculated for the final unit cell
     Results may differ from those at the preceding step.

     Parallelization info
     --------------------
     sticks:   dense  smooth     PW     G-vecs:    dense   smooth      PW
     Min        1693     847    236               104683    37023    5407
     Max        1695     848    238               104684    37024    5408
     Sum        6777    3389    949               418733   148093   21631

     Using Slab Decomposition



     bravais-lattice index     =            0
     lattice parameter (alat)  =       9.5942  a.u.
     unit-cell volume          =    1095.4479 (a.u.)^3
     number of atoms/cell      =            5
     number of atomic types    =            3
     number of electrons       =        32.00
     number of Kohn-Sham states=           20
     kinetic-energy cutoff     =     100.0000  Ry
     charge density cutoff     =     800.0000  Ry
     scf convergence threshold =      1.0E-14
     mixing beta               =       0.3000
     number of iterations used =            8  plain     mixing
     press convergence thresh. =      1.0E-01
     Exchange-correlation= PBE
                           (   1   4   3   4   0   0   0)

     celldm(1)=   9.594190  celldm(2)=   0.000000  celldm(3)=   0.000000
     celldm(4)=   0.000000  celldm(5)=   0.000000  celldm(6)=   0.000000

     crystal axes: (cart. coord. in units of alat)
               a(1) = (   1.074457   0.000000   0.000000 )  
               a(2) = (   0.000000   1.074457   0.000000 )  
               a(3) = (   0.000000   0.000000   1.074457 )  

     reciprocal axes: (cart. coord. in units 2 pi/alat)
               b(1) = (  0.930703  0.000000  0.000000 )  
               b(2) = (  0.000000  0.930703  0.000000 )  
               b(3) = (  0.000000  0.000000  0.930703 )  


     PseudoPot. # 1 for Rb read from file:
     /home/administrator/Downloads/BURAI/BURAI1.3/pseudopot/Rb.pbe-spn-kjpaw_psl.1.0.0.UPF
     MD5 check sum: 2771e311bc20ea25cdd5c0a9866b789c
     Pseudo is Projector augmented-wave + core cor, Zval =  9.0
     Generated using "atomic" code by A. Dal Corso  v.5.1.2
     Shape of augmentation charge: PSQ
     Using radial grid of 1219 points,  6 beta functions with: 
                l(1) =   0
                l(2) =   0
                l(3) =   1
                l(4) =   1
                l(5) =   2
                l(6) =   2
     Q(r) pseudized with 0 coefficients 


     PseudoPot. # 2 for Sb read from file:
     /home/administrator/Downloads/BURAI/BURAI1.3/pseudopot/Sb.pbe-n-kjpaw_psl.1.0.0.UPF
     MD5 check sum: f1c885dedccffa706451a3b39fc4a741
     Pseudo is Projector augmented-wave + core cor, Zval =  5.0
     Generated using "atomic" code by A. Dal Corso  v.5.1.2
     Shape of augmentation charge: PSQ
     Using radial grid of 1243 points,  6 beta functions with: 
                l(1) =   0
                l(2) =   0
                l(3) =   1
                l(4) =   1
                l(5) =   2
                l(6) =   2
     Q(r) pseudized with 0 coefficients 


     PseudoPot. # 3 for Se read from file:
     /home/administrator/Downloads/BURAI/BURAI1.3/pseudopot/Se.pbe-n-kjpaw_psl.1.0.0.UPF
     MD5 check sum: a24196f260b4188fa853fb27ef2f7c98
     Pseudo is Projector augmented-wave + core cor, Zval =  6.0
     Generated using "atomic" code by A. Dal Corso  v.5.1.2
     Shape of augmentation charge: PSQ
     Using radial grid of 1211 points,  4 beta functions with: 
                l(1) =   0
                l(2) =   0
                l(3) =   1
                l(4) =   1
     Q(r) pseudized with 0 coefficients 


     atomic species   valence    mass     pseudopotential
     Rb                9.00    85.46780     Rb( 1.00)
     Sb                5.00   121.76000     Sb( 1.00)
     Se                6.00    78.97100     Se( 1.00)

     48 Sym. Ops., with inversion, found



   Cartesian axes

     site n.     atom                  positions (alat units)
         1        Rb     tau(   1) = (   0.0000000   0.0000000   0.0000000  )
         2        Sb     tau(   2) = (   0.5372284   0.5372284   0.5372284  )
         3        Se     tau(   3) = (   0.5372284   0.5372284   0.0000000  )
         4        Se     tau(   4) = (   0.5372284   0.0000000   0.5372284  )
         5        Se     tau(   5) = (   0.0000000   0.5372284   0.5372284  )

     number of k points=    35  Gaussian smearing, width (Ry)=  0.0100
                       cart. coord. in units 2pi/alat
        k(    1) = (   0.0000000   0.0000000   0.0000000), wk =   0.0039062
        k(    2) = (   0.0000000   0.0000000   0.1163379), wk =   0.0234375
        k(    3) = (   0.0000000   0.0000000   0.2326757), wk =   0.0234375
        k(    4) = (   0.0000000   0.0000000   0.3490136), wk =   0.0234375
        k(    5) = (   0.0000000   0.0000000  -0.4653515), wk =   0.0117188
        k(    6) = (   0.0000000   0.1163379   0.1163379), wk =   0.0468750
        k(    7) = (   0.0000000   0.1163379   0.2326757), wk =   0.0937500
        k(    8) = (   0.0000000   0.1163379   0.3490136), wk =   0.0937500
        k(    9) = (   0.0000000   0.1163379  -0.4653515), wk =   0.0468750
        k(   10) = (   0.0000000   0.2326757   0.2326757), wk =   0.0468750
        k(   11) = (   0.0000000   0.2326757   0.3490136), wk =   0.0937500
        k(   12) = (   0.0000000   0.2326757  -0.4653515), wk =   0.0468750
        k(   13) = (   0.0000000   0.3490136   0.3490136), wk =   0.0468750
        k(   14) = (   0.0000000   0.3490136  -0.4653515), wk =   0.0468750
        k(   15) = (   0.0000000  -0.4653515  -0.4653515), wk =   0.0117188
        k(   16) = (   0.1163379   0.1163379   0.1163379), wk =   0.0312500
        k(   17) = (   0.1163379   0.1163379   0.2326757), wk =   0.0937500
        k(   18) = (   0.1163379   0.1163379   0.3490136), wk =   0.0937500
        k(   19) = (   0.1163379   0.1163379  -0.4653515), wk =   0.0468750
        k(   20) = (   0.1163379   0.2326757   0.2326757), wk =   0.0937500
        k(   21) = (   0.1163379   0.2326757   0.3490136), wk =   0.1875000
        k(   22) = (   0.1163379   0.2326757  -0.4653515), wk =   0.0937500
        k(   23) = (   0.1163379   0.3490136   0.3490136), wk =   0.0937500
        k(   24) = (   0.1163379   0.3490136  -0.4653515), wk =   0.0937500
        k(   25) = (   0.1163379  -0.4653515  -0.4653515), wk =   0.0234375
        k(   26) = (   0.2326757   0.2326757   0.2326757), wk =   0.0312500
        k(   27) = (   0.2326757   0.2326757   0.3490136), wk =   0.0937500
        k(   28) = (   0.2326757   0.2326757  -0.4653515), wk =   0.0468750
        k(   29) = (   0.2326757   0.3490136   0.3490136), wk =   0.0937500
        k(   30) = (   0.2326757   0.3490136  -0.4653515), wk =   0.0937500
        k(   31) = (   0.2326757  -0.4653515  -0.4653515), wk =   0.0234375
        k(   32) = (   0.3490136   0.3490136   0.3490136), wk =   0.0312500
        k(   33) = (   0.3490136   0.3490136  -0.4653515), wk =   0.0468750
        k(   34) = (   0.3490136  -0.4653515  -0.4653515), wk =   0.0234375
        k(   35) = (  -0.4653515  -0.4653515  -0.4653515), wk =   0.0039062

     Dense  grid:   418733 G-vectors     FFT dimensions: (  96,  96,  96)

     Smooth grid:   148093 G-vectors     FFT dimensions: (  72,  72,  72)

     Estimated max dynamical RAM per process >     272.11 MB

     Estimated total dynamical RAM >       2.03 GB

     Initial potential from superposition of free atoms

     starting charge      31.9763, renormalised to      32.0000
     Starting wfcs are   24 randomized atomic wfcs
     Checking if some PAW data can be deallocated... 

     total cpu time spent up to now is      875.1 secs

     Self-consistent Calculation

     iteration #  1     ecut=   100.00 Ry     beta= 0.30
     Davidson diagonalization with overlap
     c_bands:  2 eigenvalues not converged
     c_bands:  2 eigenvalues not converged
     c_bands:  1 eigenvalues not converged
     c_bands:  1 eigenvalues not converged
     c_bands:  2 eigenvalues not converged
     c_bands:  1 eigenvalues not converged
     c_bands:  2 eigenvalues not converged
     c_bands:  1 eigenvalues not converged
     c_bands:  1 eigenvalues not converged
     c_bands:  2 eigenvalues not converged
     c_bands:  1 eigenvalues not converged
     c_bands:  1 eigenvalues not converged
     ethr =  1.00E-06,  avg # of iterations = 17.3

     total cpu time spent up to now is      908.6 secs

     total energy              =   -1155.63835953 Ry
     estimated scf accuracy    <       0.19048697 Ry

     iteration #  2     ecut=   100.00 Ry     beta= 0.30
     Davidson diagonalization with overlap
     ethr =  5.95E-04,  avg # of iterations =  2.0

     total cpu time spent up to now is      918.9 secs

     total energy              =   -1155.66396791 Ry
     estimated scf accuracy    <       0.00807053 Ry

     iteration #  3     ecut=   100.00 Ry     beta= 0.30
     Davidson diagonalization with overlap
     ethr =  2.52E-05,  avg # of iterations =  4.8

     total cpu time spent up to now is      931.8 secs

     total energy              =   -1155.66582440 Ry
     estimated scf accuracy    <       0.00196005 Ry

     iteration #  4     ecut=   100.00 Ry     beta= 0.30
     Davidson diagonalization with overlap
     c_bands:  1 eigenvalues not converged
     ethr =  6.13E-06,  avg # of iterations =  3.5

     total cpu time spent up to now is      942.9 secs

     total energy              =   -1155.66602764 Ry
     estimated scf accuracy    <       0.00023959 Ry

     iteration #  5     ecut=   100.00 Ry     beta= 0.30
     Davidson diagonalization with overlap
     ethr =  7.49E-07,  avg # of iterations =  2.8

     total cpu time spent up to now is      953.8 secs

     total energy              =   -1155.66605976 Ry
     estimated scf accuracy    <       0.00000977 Ry

     iteration #  6     ecut=   100.00 Ry     beta= 0.30
     Davidson diagonalization with overlap
     ethr =  3.05E-08,  avg # of iterations =  3.5

     total cpu time spent up to now is      966.6 secs

     total energy              =   -1155.66606377 Ry
     estimated scf accuracy    <       0.00000537 Ry

     iteration #  7     ecut=   100.00 Ry     beta= 0.30
     Davidson diagonalization with overlap
     ethr =  1.68E-08,  avg # of iterations =  2.5

     total cpu time spent up to now is      977.9 secs

     total energy              =   -1155.66606623 Ry
     estimated scf accuracy    <       0.00000056 Ry

     iteration #  8     ecut=   100.00 Ry     beta= 0.30
     Davidson diagonalization with overlap
     ethr =  1.73E-09,  avg # of iterations =  2.1

     total cpu time spent up to now is      990.0 secs

     total energy              =   -1155.66606684 Ry
     estimated scf accuracy    <       0.00000004 Ry

     iteration #  9     ecut=   100.00 Ry     beta= 0.30
     Davidson diagonalization with overlap
     ethr =  1.17E-10,  avg # of iterations =  3.7

     total cpu time spent up to now is     1001.7 secs

     total energy              =   -1155.66606705 Ry
     estimated scf accuracy    <          8.3E-09 Ry

     iteration # 10     ecut=   100.00 Ry     beta= 0.30
     Davidson diagonalization with overlap
     ethr =  2.58E-11,  avg # of iterations =  2.7

     total cpu time spent up to now is     1013.7 secs

     total energy              =   -1155.66606716 Ry
     estimated scf accuracy    <          1.9E-09 Ry

     iteration # 11     ecut=   100.00 Ry     beta= 0.30
     Davidson diagonalization with overlap
     ethr =  6.03E-12,  avg # of iterations =  1.5

     total cpu time spent up to now is     1023.7 secs

     total energy              =   -1155.66606721 Ry
     estimated scf accuracy    <          1.6E-09 Ry

     iteration # 12     ecut=   100.00 Ry     beta= 0.30
     Davidson diagonalization with overlap
     ethr =  4.87E-12,  avg # of iterations =  2.0

     total cpu time spent up to now is     1034.8 secs

     total energy              =   -1155.66606724 Ry
     estimated scf accuracy    <          7.6E-11 Ry

     iteration # 13     ecut=   100.00 Ry     beta= 0.30
     Davidson diagonalization with overlap
     ethr =  2.36E-13,  avg # of iterations =  2.9

     total cpu time spent up to now is     1046.5 secs

     total energy              =   -1155.66606725 Ry
     estimated scf accuracy    <          1.1E-12 Ry

     iteration # 14     ecut=   100.00 Ry     beta= 0.30
     Davidson diagonalization with overlap
     ethr =  1.00E-13,  avg # of iterations =  1.3

     total cpu time spent up to now is     1056.6 secs

     total energy              =   -1155.66606725 Ry
     estimated scf accuracy    <          5.4E-12 Ry

     iteration # 15     ecut=   100.00 Ry     beta= 0.30
     Davidson diagonalization with overlap
     ethr =  1.00E-13,  avg # of iterations =  1.1

     total cpu time spent up to now is     1066.4 secs

     total energy              =   -1155.66606726 Ry
     estimated scf accuracy    <          9.8E-13 Ry

     iteration # 16     ecut=   100.00 Ry     beta= 0.30
     Davidson diagonalization with overlap
     ethr =  1.00E-13,  avg # of iterations =  1.0

     total cpu time spent up to now is     1077.1 secs

     total energy              =   -1155.66606726 Ry
     estimated scf accuracy    <          7.3E-14 Ry

     iteration # 17     ecut=   100.00 Ry     beta= 0.30
     Davidson diagonalization with overlap
     ethr =  1.00E-13,  avg # of iterations =  1.0

     total cpu time spent up to now is     1087.2 secs

     End of self-consistent calculation

          k = 0.0000 0.0000 0.0000 ( 18613 PWs)   bands (ev):

   -22.0298  -9.6098  -7.6242  -7.6242  -6.1289  -6.1289  -6.1289  -2.7489
    -1.0592  -1.0592  -1.0592   3.2279   3.2279   3.2279   3.3714   3.3714
     3.3714   7.5672   8.8577   8.8577

          k = 0.0000 0.0000 0.1163 ( 18533 PWs)   bands (ev):

   -22.0297  -9.5682  -7.6920  -7.6228  -6.1277  -6.1277  -6.1200  -3.0708
    -1.0414  -1.0414  -0.5193   3.1646   3.1646   3.1729   3.2936   3.3312
     3.3312   7.8030   8.9280   8.9725

          k = 0.0000 0.0000 0.2327 ( 18533 PWs)   bands (ev):

   -22.0295  -9.4541  -7.8676  -7.6193  -6.1247  -6.1247  -6.1057  -3.5244
    -0.9969  -0.9969   0.5291   2.9799   2.9799   3.0482   3.1801   3.2787
     3.2787   8.2777   8.4727   9.1170

          k = 0.0000 0.0000 0.3490 ( 18517 PWs)   bands (ev):

   -22.0293  -9.3099  -8.0717  -7.6159  -6.1217  -6.1217  -6.1007  -3.8089
    -0.9499  -0.9499   1.4851   2.7928   2.7928   2.9331   3.2424   3.2424
     3.3646   6.6241   9.1448   9.3997

          k = 0.0000 0.0000-0.4654 ( 18464 PWs)   bands (ev):

   -22.0292  -9.2346  -8.1714  -7.6144  -6.1205  -6.1205  -6.1012  -3.9005
    -0.9297  -0.9297   1.8087   2.7171   2.7171   2.8879   3.2288   3.2288
     3.8598   5.5956   9.5789   9.9400

          k = 0.0000 0.1163 0.1163 ( 18499 PWs)   bands (ev):

   -22.0296  -9.5258  -7.7203  -7.6572  -6.1265  -6.1211  -6.1184  -3.3454
    -1.0228  -0.7316  -0.3217   2.9106   3.1229   3.2241   3.2299   3.2691
     3.4154   8.0068   9.0252   9.1299

          k = 0.0000 0.1163 0.2327 ( 18521 PWs)   bands (ev):

   -22.0294  -9.4094  -7.8752  -7.6669  -6.1236  -6.1191  -6.1072  -3.7699
    -0.9763  -0.5787   0.5816   2.6193   2.9626   3.1315   3.1911   3.2288
     3.4283   8.2938   8.5533   9.3137

          k = 0.0000 0.1163 0.3490 ( 18522 PWs)   bands (ev):

   -22.0292  -9.2611  -8.0737  -7.6644  -6.1207  -6.1181  -6.1039  -4.0488
    -0.9272  -0.5145   1.4832   2.4791   2.7789   3.1404   3.1496   3.2448
     3.4898   6.6051   9.2330   9.6749

          k = 0.0000 0.1163-0.4654 ( 18510 PWs)   bands (ev):

   -22.0292  -9.1829  -8.1732  -7.6630  -6.1195  -6.1176  -6.1050  -4.1401
    -0.9060  -0.4899   1.7428   2.4933   2.7032   3.1350   3.1859   3.2205
     3.8955   5.5832   9.6228   9.8252

          k = 0.0000 0.2327 0.2327 ( 18509 PWs)   bands (ev):

   -22.0292  -9.2854  -7.9289  -7.7641  -6.1210  -6.1111  -6.1089  -4.1838
    -0.9247   0.1600   0.8690   2.2628   2.8968   3.0144   3.1421   3.2137
     3.6404   8.0088   8.4335   8.9864

          k = 0.0000 0.2327 0.3490 ( 18482 PWs)   bands (ev):

   -22.0290  -9.1237  -8.0811  -7.8039  -6.1184  -6.1125  -6.1065  -4.4730
    -0.8698   0.4515   1.4658   2.1942   2.7450   2.9354   3.0891   3.4295
     3.7506   6.5213   8.1932   9.5755

          k = 0.0000 0.2327-0.4654 ( 18506 PWs)   bands (ev):

   -22.0290  -9.0348  -8.1774  -7.8099  -6.1173  -6.1107  -6.1095  -4.5705
    -0.8461   0.5135   1.5651   2.3789   2.6702   2.9173   3.0761   3.6394
     4.0118   5.5073   8.1573  10.1556

          k = 0.0000 0.3490 0.3490 ( 18485 PWs)   bands (ev):

   -22.0289  -8.9353  -8.1129  -7.9776  -6.1160  -6.1105  -6.1023  -4.7849
    -0.8085   1.3840   1.4216   2.1581   2.6995   2.7432   2.9843   3.7780
     3.9506   6.2165   6.7504   9.9741

          k = 0.0000 0.3490-0.4654 ( 18520 PWs)   bands (ev):

   -22.0288  -8.8218  -8.1817  -8.0317  -6.1151  -6.1055  -6.1036  -4.8942
    -0.7818   1.3923   1.6478   2.3677   2.6377   2.7088   2.9040   4.0047
     4.3051   5.3475   6.4990   9.9619

          k = 0.0000-0.4654-0.4654 ( 18528 PWs)   bands (ev):

   -22.0287  -8.6766  -8.1834  -8.1834  -6.1141  -6.1007  -6.1007  -5.0101
    -0.7538   1.3251   2.3732   2.3732   2.6244   2.6244   2.6424   4.1739
     4.9532   5.2415   5.2415   9.9863

          k = 0.1163 0.1163 0.1163 ( 18523 PWs)   bands (ev):

   -22.0296  -9.4828  -7.7178  -7.7178  -6.1217  -6.1217  -6.1153  -3.5940
    -0.7123  -0.7123  -0.1544   2.8907   2.8907   2.9805   3.3484   3.4117
     3.4117   8.1713   9.0876   9.0878

          k = 0.1163 0.1163 0.2327 ( 18525 PWs)   bands (ev):

   -22.0294  -9.3642  -7.8790  -7.7118  -6.1232  -6.1161  -6.1080  -4.0020
    -0.6637  -0.4719   0.6352   2.5959   2.6677   2.9482   3.3622   3.4103
     3.4335   8.2522   8.6226   9.3385

          k = 0.1163 0.1163 0.3490 ( 18514 PWs)   bands (ev):

   -22.0292  -9.2122  -8.0744  -7.7058  -6.1247  -6.1122  -6.1076  -4.2798
    -0.6120  -0.3859   1.4823   2.3734   2.6529   2.9672   3.3408   3.3745
     3.5232   6.5787   9.1579   9.5012

          k = 0.1163 0.1163-0.4654 ( 18498 PWs)   bands (ev):

   -22.0291  -9.1311  -8.1738  -7.7033  -6.1254  -6.1106  -6.1099  -4.3720
    -0.5895  -0.3563   1.7050   2.2908   2.8528   2.9007   3.3314   3.3516
     3.9082   5.5625   9.3520   9.5173

          k = 0.1163 0.2327 0.2327 ( 18529 PWs)   bands (ev):

   -22.0292  -9.2389  -7.9247  -7.8023  -6.1236  -6.1130  -6.1079  -4.4099
    -0.5395   0.1832   0.9139   2.2778   2.6028   2.7676   3.3974   3.4276
     3.6375   7.9565   8.3533   8.9247

          k = 0.1163 0.2327 0.3490 ( 18485 PWs)   bands (ev):

   -22.0290  -9.0743  -8.0786  -7.8277  -6.1266  -6.1130  -6.1075  -4.7036
    -0.4766   0.4883   1.4721   2.1403   2.5398   2.8347   3.3641   3.5318
     3.7505   6.4823   8.1210   9.2086

          k = 0.1163 0.2327-0.4654 ( 18504 PWs)   bands (ev):

   -22.0289  -8.9829  -8.1754  -7.8296  -6.1272  -6.1170  -6.1057  -4.8039
    -0.4503   0.5551   1.5737   2.1419   2.6308   2.9255   3.3478   3.6783
     4.0007   5.4716   8.0846   9.2993

          k = 0.1163 0.3490 0.3490 ( 18495 PWs)   bands (ev):

   -22.0288  -8.8846  -8.1075  -7.9843  -6.1268  -6.1100  -6.1091  -5.0252
    -0.4057   1.4016   1.4438   2.0523   2.4220   2.8634   3.2827   3.8059
     3.9564   6.1673   6.7094   9.2691

          k = 0.1163 0.3490-0.4654 ( 18524 PWs)   bands (ev):

   -22.0287  -8.7689  -8.1770  -8.0312  -6.1238  -6.1141  -6.1060  -5.1399
    -0.3759   1.4230   1.6513   2.1075   2.4594   2.9468   3.2007   4.0152
     4.2946   5.3013   6.4565   9.3034

          k = 0.1163-0.4654-0.4654 ( 18492 PWs)   bands (ev):

   -22.0286  -8.6205  -8.1777  -8.1777  -6.1201  -6.1084  -6.1084  -5.2631
    -0.3447   1.3617   2.1048   2.1048   2.6451   2.9525   2.9525   4.1786
     4.9563   5.1907   5.1907   9.3144

          k = 0.2327 0.2327 0.2327 ( 18484 PWs)   bands (ev):

   -22.0290  -9.1089  -7.9145  -7.9145  -6.1229  -6.1229  -6.1090  -4.8312
     0.2437   0.2437   1.1049   2.2520   2.2520   2.6182   3.6044   3.6044
     3.6664   7.8348   7.8348   8.4438

          k = 0.2327 0.2327 0.3490 ( 18503 PWs)   bands (ev):

   -22.0288  -8.9350  -8.0744  -7.9040  -6.1331  -6.1256  -6.1106  -5.1519
     0.3120   0.7029   1.4856   1.9987   2.2432   2.8812   3.6083   3.7227
     3.7799   6.3626   7.7310   8.3072

          k = 0.2327 0.2327-0.4654 ( 18478 PWs)   bands (ev):

   -22.0287  -8.8346  -8.1706  -7.8997  -6.1373  -6.1321  -6.1075  -5.2648
     0.3434   0.8052   1.5677   1.9048   2.3216   3.2135   3.6051   3.8140
     3.9995   5.3506   7.6940   8.2884

          k = 0.2327 0.3490 0.3490 ( 18507 PWs)   bands (ev):

   -22.0286  -8.7420  -8.0944  -8.0124  -6.1403  -6.1256  -6.1220  -5.5143
     0.5504   1.4532   1.4962   1.8796   2.0977   3.1166   3.6515   3.8548
     3.9748   6.0304   6.5413   8.0735

          k = 0.2327 0.3490-0.4654 ( 18464 PWs)   bands (ev):

   -22.0285  -8.6202  -8.1657  -8.0375  -6.1392  -6.1362  -6.1175  -5.6496
     0.5999   1.4968   1.6565   1.8294   2.2242   3.3666   3.5902   4.0453
     4.2462   5.1539   6.3048   8.0408

          k = 0.2327-0.4654-0.4654 ( 18500 PWs)   bands (ev):

   -22.0285  -8.4636  -8.1637  -8.1637  -6.1343  -6.1272  -6.1272  -5.8024
     0.6548   1.4526   1.8259   1.8259   2.6517   3.4082   3.4082   4.1899
     4.9402   5.0274   5.0274   8.0059

          k = 0.3490 0.3490 0.3490 ( 18502 PWs)   bands (ev):

   -22.0284  -8.5445  -8.0811  -8.0811  -6.1507  -6.1423  -6.1423  -5.9309
     1.5380   1.5380   1.5434   1.8440   1.8440   3.4812   3.8919   3.8919
     4.0342   5.8643   5.8643   7.1365

          k = 0.3490 0.3490-0.4654 ( 18438 PWs)   bands (ev):

   -22.0284  -8.4127  -8.1542  -8.0755  -6.1827  -6.1493  -6.1343  -6.0819
     1.5569   1.6531   1.6586   1.6669   2.2098   3.7298   3.9356   4.1087
     4.1953   4.9169   5.7848   6.9547

          k = 0.3490-0.4654-0.4654 ( 18460 PWs)   bands (ev):

   -22.0283  -8.2568  -8.1494  -8.1494  -6.3131  -6.1485  -6.1463  -6.1463
     1.5471   1.6481   1.6481   1.8807   2.6583   3.8687   3.8687   4.2014
     4.7472   4.7472   4.7854   6.6995

          k =-0.4654-0.4654-0.4654 ( 18504 PWs)   bands (ev):

   -22.0282  -8.1435  -8.1435  -8.1435  -6.5371  -6.1543  -6.1543  -6.1543
     1.5874   1.5874   1.5874   2.6610   2.6610   4.2062   4.2062   4.2062
     4.4683   4.4683   4.4683   6.1508

     the Fermi energy is     3.7478 ev

!    total energy              =   -1155.66606726 Ry
     total all-electron energy =    -33506.342536 Ry
     estimated scf accuracy    <          3.2E-15 Ry
     smearing contrib. (-TS)   =      -0.00337702 Ry
     internal energy E=F+TS    =   -1155.66269024 Ry

     The total energy is F=E-TS. E is the sum of the following terms:
     one-electron contribution =      -5.08482930 Ry
     hartree contribution      =      16.91882029 Ry
     xc contribution           =     -50.72387908 Ry
     ewald contribution        =     -98.09198577 Ry
     one-center paw contrib.   =   -1018.68081638 Ry

     convergence has been achieved in  17 iterations

     Forces acting on atoms (cartesian axes, Ry/au):

     atom    1 type  1   force =     0.00000000    0.00000000    0.00000000
     atom    2 type  2   force =     0.00000000    0.00000000    0.00000000
     atom    3 type  3   force =     0.00000000    0.00000000    0.00000000
     atom    4 type  3   force =     0.00000000    0.00000000    0.00000000
     atom    5 type  3   force =     0.00000000    0.00000000    0.00000000

     Total force =     0.000000     Total SCF correction =     0.000000


     Computing stress (Cartesian axis) and pressure

          total   stress  (Ry/bohr**3)                   (kbar)     P=        0.01
   0.00000009   0.00000000   0.00000000            0.01        0.00        0.00
   0.00000000   0.00000009   0.00000000            0.00        0.01        0.00
   0.00000000   0.00000000   0.00000009            0.00        0.00        0.01


     Writing all to output data dir ./tmp/RbSbSe3.save/ :
     XML data file, charge density, pseudopotentials, collected wavefunctions

     init_run     :     12.82s CPU     11.36s WALL (       2 calls)
     electrons    :   1282.55s CPU    980.77s WALL (       8 calls)
     update_pot   :      2.59s CPU      2.49s WALL (       6 calls)
     forces       :     17.43s CPU     14.57s WALL (       8 calls)
     stress       :     94.05s CPU     86.54s WALL (       8 calls)

     Called by init_run:
     wfcinit      :      7.80s CPU      6.05s WALL (       2 calls)
     potinit      :      1.37s CPU      1.45s WALL (       2 calls)
     hinit0       :      1.86s CPU      1.89s WALL (       2 calls)

     Called by electrons:
     c_bands      :    904.12s CPU    652.80s WALL (     107 calls)
     sum_band     :    278.13s CPU    219.26s WALL (     107 calls)
     v_of_rho     :     22.64s CPU     23.05s WALL (     111 calls)
     newd         :     64.69s CPU     73.69s WALL (     111 calls)
     PAW_pot      :     14.59s CPU     14.44s WALL (     117 calls)
     mix_rho      :      3.45s CPU      3.05s WALL (     107 calls)

     Called by c_bands:
     init_us_2    :     37.42s CPU     26.77s WALL (    4284 calls)
     cegterg      :    808.21s CPU    581.96s WALL (    1926 calls)

     Called by *egterg:
     cdiaghg      :     15.63s CPU     11.42s WALL (    7026 calls)
     h_psi        :    668.41s CPU    497.78s WALL (    7242 calls)
     s_psi        :     25.34s CPU     13.96s WALL (    7242 calls)
     g_psi        :      5.09s CPU      3.66s WALL (    5280 calls)

     Called by h_psi:
     h_psi:calbec :     34.05s CPU     20.28s WALL (    7242 calls)
     vloc_psi     :    602.63s CPU    459.42s WALL (    7242 calls)
     add_vuspsi   :     27.91s CPU     15.35s WALL (    7242 calls)

     General routines
     calbec       :     53.88s CPU     32.32s WALL (    9996 calls)
     fft          :     17.22s CPU     17.49s WALL (    1637 calls)
     ffts         :      1.16s CPU      1.10s WALL (     218 calls)
     fftw         :    548.26s CPU    418.68s WALL (  245434 calls)
     interpolate  :      2.18s CPU      2.29s WALL (     111 calls)

     Parallel routines

     PWSCF        :  23m36.86s CPU  18m22.87s WALL


   This run was terminated on:  13:55: 4  10May2025            

=------------------------------------------------------------------------------=
   JOB DONE.
=------------------------------------------------------------------------------=
