
     Program PWSCF v.7.3.1 starts on 10May2025 at 14:15:22 

     This program is part of the open-source Quantum ESPRESSO suite
     for quantum simulation of materials; please cite
         "P. Giannozzi et al., J. Phys.:Condens. Matter 21 395502 (2009);
         "P. Giannozzi et al., J. Phys.:Condens. Matter 29 465901 (2017);
         "P. Giannozzi et al., J. Chem. Phys. 152 154105 (2020);
          URL http://www.quantum-espresso.org", 
     in publications or presentations arising from this work. More details at
     http://www.quantum-espresso.org/quote

     Parallel version (MPI), running on     8 processors

     MPI processes distributed on     1 nodes
     42413 MiB available memory on the printing compute node when the environment starts

     Waiting for input...
     Reading input from standard input

     Current dimensions of program PWSCF are:
     Max number of different atomic species (ntypx) = 10
     Max number of k-points (npk) = 120000
     Max angular momentum in pseudopotentials (lmaxx) =  4
     file Rb.pbe-spn-kjpaw_psl.1.0.0.UPF: wavefunction(s)  4S renormalized
     file Sb.pbe-n-kjpaw_psl.1.0.0.UPF: wavefunction(s)  5S renormalized
     file Se.pbe-n-kjpaw_psl.1.0.0.UPF: wavefunction(s)  4S renormalized

     IMPORTANT: XC functional enforced from input :
     Exchange-correlation= PBE
                           (   1   4   3   4   0   0   0)
     Any further DFT definition will be discarded
     Please, verify this is what you really want

     Message from routine setup:
     using ibrav=0 with symmetry is DISCOURAGED, use correct ibrav instead

     K-points division:     npool     =       2
     R & G space division:  proc/nbgrp/npool/nimage =       4
     Subspace diagonalization in iterative solution of the eigenvalue problem:
     a serial algorithm will be used


     Parallelization info
     --------------------
     sticks:   dense  smooth     PW     G-vecs:    dense   smooth      PW
     Min        1693     847    236               104683    37023    5407
     Max        1695     848    238               104684    37024    5408
     Sum        6777    3389    949               418733   148093   21631

     Using Slab Decomposition



     bravais-lattice index     =            0
     lattice parameter (alat)  =      10.3085  a.u.
     unit-cell volume          =    1095.4479 (a.u.)^3
     number of atoms/cell      =            5
     number of atomic types    =            3
     number of electrons       =        32.00
     number of Kohn-Sham states=           20
     kinetic-energy cutoff     =     100.0000  Ry
     charge density cutoff     =     800.0000  Ry
     scf convergence threshold =      1.0E-12
     mixing beta               =       0.3000
     number of iterations used =            8  plain     mixing
     Exchange-correlation= PBE
                           (   1   4   3   4   0   0   0)

     celldm(1)=  10.308542  celldm(2)=   0.000000  celldm(3)=   0.000000
     celldm(4)=   0.000000  celldm(5)=   0.000000  celldm(6)=   0.000000

     crystal axes: (cart. coord. in units of alat)
               a(1) = (   1.000000   0.000000   0.000000 )  
               a(2) = (   0.000000   1.000000   0.000000 )  
               a(3) = (   0.000000   0.000000   1.000000 )  

     reciprocal axes: (cart. coord. in units 2 pi/alat)
               b(1) = (  1.000000  0.000000  0.000000 )  
               b(2) = (  0.000000  1.000000  0.000000 )  
               b(3) = (  0.000000  0.000000  1.000000 )  


     PseudoPot. # 1 for Rb read from file:
     /home/administrator/Downloads/BURAI/BURAI1.3/pseudopot/Rb.pbe-spn-kjpaw_psl.1.0.0.UPF
     MD5 check sum: 2771e311bc20ea25cdd5c0a9866b789c
     Pseudo is Projector augmented-wave + core cor, Zval =  9.0
     Generated using "atomic" code by A. Dal Corso  v.5.1.2
     Shape of augmentation charge: PSQ
     Using radial grid of 1219 points,  6 beta functions with: 
                l(1) =   0
                l(2) =   0
                l(3) =   1
                l(4) =   1
                l(5) =   2
                l(6) =   2
     Q(r) pseudized with 0 coefficients 


     PseudoPot. # 2 for Sb read from file:
     /home/administrator/Downloads/BURAI/BURAI1.3/pseudopot/Sb.pbe-n-kjpaw_psl.1.0.0.UPF
     MD5 check sum: f1c885dedccffa706451a3b39fc4a741
     Pseudo is Projector augmented-wave + core cor, Zval =  5.0
     Generated using "atomic" code by A. Dal Corso  v.5.1.2
     Shape of augmentation charge: PSQ
     Using radial grid of 1243 points,  6 beta functions with: 
                l(1) =   0
                l(2) =   0
                l(3) =   1
                l(4) =   1
                l(5) =   2
                l(6) =   2
     Q(r) pseudized with 0 coefficients 


     PseudoPot. # 3 for Se read from file:
     /home/administrator/Downloads/BURAI/BURAI1.3/pseudopot/Se.pbe-n-kjpaw_psl.1.0.0.UPF
     MD5 check sum: a24196f260b4188fa853fb27ef2f7c98
     Pseudo is Projector augmented-wave + core cor, Zval =  6.0
     Generated using "atomic" code by A. Dal Corso  v.5.1.2
     Shape of augmentation charge: PSQ
     Using radial grid of 1211 points,  4 beta functions with: 
                l(1) =   0
                l(2) =   0
                l(3) =   1
                l(4) =   1
     Q(r) pseudized with 0 coefficients 


     atomic species   valence    mass     pseudopotential
     Rb                9.00    85.46780     Rb( 1.00)
     Sb                5.00   121.76000     Sb( 1.00)
     Se                6.00    78.97100     Se( 1.00)

     48 Sym. Ops., with inversion, found



   Cartesian axes

     site n.     atom                  positions (alat units)
         1        Rb     tau(   1) = (   0.0000000   0.0000000   0.0000000  )
         2        Sb     tau(   2) = (   0.5000000   0.5000000   0.5000000  )
         3        Se     tau(   3) = (   0.5000000   0.5000000   0.0000000  )
         4        Se     tau(   4) = (   0.5000000   0.0000000   0.5000000  )
         5        Se     tau(   5) = (   0.0000000   0.5000000   0.5000000  )

     number of k points=    35  Gaussian smearing, width (Ry)=  0.0100
                       cart. coord. in units 2pi/alat
        k(    1) = (   0.0000000   0.0000000   0.0000000), wk =   0.0039062
        k(    2) = (   0.0000000   0.0000000   0.1250000), wk =   0.0234375
        k(    3) = (   0.0000000   0.0000000   0.2500000), wk =   0.0234375
        k(    4) = (   0.0000000   0.0000000   0.3750000), wk =   0.0234375
        k(    5) = (   0.0000000   0.0000000  -0.5000000), wk =   0.0117188
        k(    6) = (   0.0000000   0.1250000   0.1250000), wk =   0.0468750
        k(    7) = (   0.0000000   0.1250000   0.2500000), wk =   0.0937500
        k(    8) = (   0.0000000   0.1250000   0.3750000), wk =   0.0937500
        k(    9) = (   0.0000000   0.1250000  -0.5000000), wk =   0.0468750
        k(   10) = (   0.0000000   0.2500000   0.2500000), wk =   0.0468750
        k(   11) = (   0.0000000   0.2500000   0.3750000), wk =   0.0937500
        k(   12) = (   0.0000000   0.2500000  -0.5000000), wk =   0.0468750
        k(   13) = (   0.0000000   0.3750000   0.3750000), wk =   0.0468750
        k(   14) = (   0.0000000   0.3750000  -0.5000000), wk =   0.0468750
        k(   15) = (   0.0000000  -0.5000000  -0.5000000), wk =   0.0117188
        k(   16) = (   0.1250000   0.1250000   0.1250000), wk =   0.0312500
        k(   17) = (   0.1250000   0.1250000   0.2500000), wk =   0.0937500
        k(   18) = (   0.1250000   0.1250000   0.3750000), wk =   0.0937500
        k(   19) = (   0.1250000   0.1250000  -0.5000000), wk =   0.0468750
        k(   20) = (   0.1250000   0.2500000   0.2500000), wk =   0.0937500
        k(   21) = (   0.1250000   0.2500000   0.3750000), wk =   0.1875000
        k(   22) = (   0.1250000   0.2500000  -0.5000000), wk =   0.0937500
        k(   23) = (   0.1250000   0.3750000   0.3750000), wk =   0.0937500
        k(   24) = (   0.1250000   0.3750000  -0.5000000), wk =   0.0937500
        k(   25) = (   0.1250000  -0.5000000  -0.5000000), wk =   0.0234375
        k(   26) = (   0.2500000   0.2500000   0.2500000), wk =   0.0312500
        k(   27) = (   0.2500000   0.2500000   0.3750000), wk =   0.0937500
        k(   28) = (   0.2500000   0.2500000  -0.5000000), wk =   0.0468750
        k(   29) = (   0.2500000   0.3750000   0.3750000), wk =   0.0937500
        k(   30) = (   0.2500000   0.3750000  -0.5000000), wk =   0.0937500
        k(   31) = (   0.2500000  -0.5000000  -0.5000000), wk =   0.0234375
        k(   32) = (   0.3750000   0.3750000   0.3750000), wk =   0.0312500
        k(   33) = (   0.3750000   0.3750000  -0.5000000), wk =   0.0468750
        k(   34) = (   0.3750000  -0.5000000  -0.5000000), wk =   0.0234375
        k(   35) = (  -0.5000000  -0.5000000  -0.5000000), wk =   0.0039062

     Dense  grid:   418733 G-vectors     FFT dimensions: (  96,  96,  96)

     Smooth grid:   148093 G-vectors     FFT dimensions: (  72,  72,  72)

     Estimated max dynamical RAM per process >     254.19 MB

     Estimated total dynamical RAM >       1.89 GB

     Initial potential from superposition of free atoms

     starting charge      31.9763, renormalised to      32.0000
     Starting wfcs are   24 randomized atomic wfcs
     Checking if some PAW data can be deallocated... 

     total cpu time spent up to now is        7.0 secs

     Self-consistent Calculation

     iteration #  1     ecut=   100.00 Ry     beta= 0.30
     Davidson diagonalization with overlap
     ethr =  1.00E-02,  avg # of iterations =  2.5

     Threshold (ethr) on eigenvalues was too large:
     Diagonalizing with lowered threshold

     Davidson diagonalization with overlap
     ethr =  6.57E-04,  avg # of iterations =  2.0

     total cpu time spent up to now is       27.3 secs

     total energy              =   -1155.63411975 Ry
     estimated scf accuracy    <       0.19763265 Ry

     iteration #  2     ecut=   100.00 Ry     beta= 0.30
     Davidson diagonalization with overlap
     ethr =  6.18E-04,  avg # of iterations =  2.3

     total cpu time spent up to now is       37.7 secs

     total energy              =   -1155.66362478 Ry
     estimated scf accuracy    <       0.00747319 Ry

     iteration #  3     ecut=   100.00 Ry     beta= 0.30
     Davidson diagonalization with overlap
     ethr =  2.34E-05,  avg # of iterations =  7.0

     total cpu time spent up to now is       52.3 secs

     total energy              =   -1155.66581740 Ry
     estimated scf accuracy    <       0.00194150 Ry

     iteration #  4     ecut=   100.00 Ry     beta= 0.30
     Davidson diagonalization with overlap
     c_bands:  2 eigenvalues not converged
     ethr =  6.07E-06,  avg # of iterations =  3.5

     total cpu time spent up to now is       63.7 secs

     total energy              =   -1155.66602551 Ry
     estimated scf accuracy    <       0.00023909 Ry

     iteration #  5     ecut=   100.00 Ry     beta= 0.30
     Davidson diagonalization with overlap
     ethr =  7.47E-07,  avg # of iterations =  2.8

     total cpu time spent up to now is       75.0 secs

     total energy              =   -1155.66605897 Ry
     estimated scf accuracy    <       0.00001022 Ry

     iteration #  6     ecut=   100.00 Ry     beta= 0.30
     Davidson diagonalization with overlap
     ethr =  3.19E-08,  avg # of iterations =  3.6

     total cpu time spent up to now is       87.8 secs

     total energy              =   -1155.66606453 Ry
     estimated scf accuracy    <       0.00000339 Ry

     iteration #  7     ecut=   100.00 Ry     beta= 0.30
     Davidson diagonalization with overlap
     ethr =  1.06E-08,  avg # of iterations =  2.4

     total cpu time spent up to now is       99.2 secs

     total energy              =   -1155.66606633 Ry
     estimated scf accuracy    <       0.00000023 Ry

     iteration #  8     ecut=   100.00 Ry     beta= 0.30
     Davidson diagonalization with overlap
     ethr =  7.31E-10,  avg # of iterations =  3.1

     total cpu time spent up to now is      111.7 secs

     total energy              =   -1155.66606684 Ry
     estimated scf accuracy    <          8.0E-09 Ry

     iteration #  9     ecut=   100.00 Ry     beta= 0.30
     Davidson diagonalization with overlap
     ethr =  2.51E-11,  avg # of iterations =  3.5

     total cpu time spent up to now is      123.8 secs

     total energy              =   -1155.66606705 Ry
     estimated scf accuracy    <          4.1E-09 Ry

     iteration # 10     ecut=   100.00 Ry     beta= 0.30
     Davidson diagonalization with overlap
     ethr =  1.28E-11,  avg # of iterations =  2.3

     total cpu time spent up to now is      136.1 secs

     total energy              =   -1155.66606716 Ry
     estimated scf accuracy    <          1.1E-09 Ry

     iteration # 11     ecut=   100.00 Ry     beta= 0.30
     Davidson diagonalization with overlap
     ethr =  3.33E-12,  avg # of iterations =  1.9

     total cpu time spent up to now is      146.4 secs

     total energy              =   -1155.66606721 Ry
     estimated scf accuracy    <          5.4E-10 Ry

     iteration # 12     ecut=   100.00 Ry     beta= 0.30
     Davidson diagonalization with overlap
     ethr =  1.68E-12,  avg # of iterations =  2.0

     total cpu time spent up to now is      157.8 secs

     total energy              =   -1155.66606724 Ry
     estimated scf accuracy    <          1.9E-11 Ry

     iteration # 13     ecut=   100.00 Ry     beta= 0.30
     Davidson diagonalization with overlap
     ethr =  1.00E-13,  avg # of iterations =  3.6

     total cpu time spent up to now is      170.3 secs

     total energy              =   -1155.66606725 Ry
     estimated scf accuracy    <          5.6E-11 Ry

     iteration # 14     ecut=   100.00 Ry     beta= 0.30
     Davidson diagonalization with overlap
     ethr =  1.00E-13,  avg # of iterations =  2.0

     total cpu time spent up to now is      181.6 secs

     total energy              =   -1155.66606725 Ry
     estimated scf accuracy    <          2.5E-12 Ry

     iteration # 15     ecut=   100.00 Ry     beta= 0.30
     Davidson diagonalization with overlap
     ethr =  1.00E-13,  avg # of iterations =  1.0

     total cpu time spent up to now is      191.5 secs

     End of self-consistent calculation

          k = 0.0000 0.0000 0.0000 ( 18613 PWs)   bands (ev):

   -22.0298  -9.6098  -7.6242  -7.6242  -6.1289  -6.1289  -6.1289  -2.7489
    -1.0592  -1.0592  -1.0592   3.2279   3.2279   3.2279   3.3714   3.3714
     3.3714   7.5672   8.8577   8.8618

          k = 0.0000 0.0000 0.1250 ( 18533 PWs)   bands (ev):

   -22.0297  -9.5682  -7.6920  -7.6228  -6.1277  -6.1277  -6.1200  -3.0708
    -1.0414  -1.0414  -0.5193   3.1646   3.1646   3.1729   3.2936   3.3312
     3.3312   7.8030   8.9276   8.9725

          k = 0.0000 0.0000 0.2500 ( 18533 PWs)   bands (ev):

   -22.0295  -9.4541  -7.8676  -7.6193  -6.1247  -6.1247  -6.1057  -3.5244
    -0.9969  -0.9969   0.5291   2.9799   2.9799   3.0482   3.1801   3.2787
     3.2787   8.2777   8.4727   9.1170

          k = 0.0000 0.0000 0.3750 ( 18517 PWs)   bands (ev):

   -22.0293  -9.3099  -8.0717  -7.6159  -6.1217  -6.1217  -6.1007  -3.8089
    -0.9499  -0.9499   1.4851   2.7928   2.7928   2.9331   3.2424   3.2424
     3.3645   6.6241   9.1448   9.3997

          k = 0.0000 0.0000-0.5000 ( 18464 PWs)   bands (ev):

   -22.0292  -9.2346  -8.1714  -7.6144  -6.1205  -6.1205  -6.1012  -3.9005
    -0.9297  -0.9297   1.8087   2.7171   2.7171   2.8879   3.2288   3.2288
     3.8598   5.5956   9.5788   9.5991

          k = 0.0000 0.1250 0.1250 ( 18499 PWs)   bands (ev):

   -22.0296  -9.5258  -7.7203  -7.6572  -6.1265  -6.1211  -6.1184  -3.3454
    -1.0228  -0.7316  -0.3217   2.9106   3.1229   3.2241   3.2299   3.2691
     3.4154   8.0068   9.0255   9.1946

          k = 0.0000 0.1250 0.2500 ( 18521 PWs)   bands (ev):

   -22.0294  -9.4094  -7.8752  -7.6669  -6.1236  -6.1191  -6.1072  -3.7699
    -0.9763  -0.5787   0.5816   2.6193   2.9626   3.1315   3.1911   3.2288
     3.4283   8.2938   8.5533   9.3139

          k = 0.0000 0.1250 0.3750 ( 18522 PWs)   bands (ev):

   -22.0292  -9.2611  -8.0737  -7.6644  -6.1207  -6.1181  -6.1039  -4.0488
    -0.9272  -0.5145   1.4832   2.4791   2.7789   3.1404   3.1496   3.2448
     3.4898   6.6051   9.2330   9.6780

          k = 0.0000 0.1250-0.5000 ( 18510 PWs)   bands (ev):

   -22.0292  -9.1829  -8.1732  -7.6630  -6.1195  -6.1176  -6.1050  -4.1401
    -0.9060  -0.4899   1.7428   2.4933   2.7032   3.1350   3.1859   3.2205
     3.8955   5.5832   9.6228   9.8252

          k = 0.0000 0.2500 0.2500 ( 18509 PWs)   bands (ev):

   -22.0292  -9.2854  -7.9289  -7.7641  -6.1210  -6.1111  -6.1089  -4.1838
    -0.9247   0.1600   0.8690   2.2628   2.8968   3.0144   3.1421   3.2137
     3.6404   8.0088   8.4335   8.9864

          k = 0.0000 0.2500 0.3750 ( 18482 PWs)   bands (ev):

   -22.0290  -9.1237  -8.0811  -7.8039  -6.1184  -6.1125  -6.1065  -4.4730
    -0.8698   0.4515   1.4658   2.1942   2.7450   2.9354   3.0891   3.4295
     3.7506   6.5213   8.1932   9.5757

          k = 0.0000 0.2500-0.5000 ( 18506 PWs)   bands (ev):

   -22.0290  -9.0348  -8.1774  -7.8099  -6.1173  -6.1107  -6.1095  -4.5705
    -0.8461   0.5135   1.5651   2.3789   2.6702   2.9173   3.0761   3.6394
     4.0118   5.5073   8.1573   9.8760

          k = 0.0000 0.3750 0.3750 ( 18485 PWs)   bands (ev):

   -22.0289  -8.9353  -8.1129  -7.9776  -6.1160  -6.1105  -6.1023  -4.7849
    -0.8085   1.3840   1.4216   2.1581   2.6995   2.7432   2.9843   3.7780
     3.9506   6.2165   6.7504   9.9342

          k = 0.0000 0.3750-0.5000 ( 18520 PWs)   bands (ev):

   -22.0288  -8.8218  -8.1817  -8.0317  -6.1151  -6.1055  -6.1036  -4.8942
    -0.7818   1.3923   1.6478   2.3677   2.6377   2.7088   2.9040   4.0047
     4.3051   5.3475   6.4990   9.9619

          k = 0.0000-0.5000-0.5000 ( 18528 PWs)   bands (ev):

   -22.0287  -8.6766  -8.1834  -8.1834  -6.1141  -6.1007  -6.1007  -5.0101
    -0.7538   1.3251   2.3732   2.3732   2.6244   2.6244   2.6424   4.1739
     4.9532   5.2415   5.2415   9.9863

          k = 0.1250 0.1250 0.1250 ( 18523 PWs)   bands (ev):

   -22.0296  -9.4828  -7.7178  -7.7178  -6.1217  -6.1217  -6.1153  -3.5940
    -0.7123  -0.7123  -0.1544   2.8907   2.8907   2.9805   3.3484   3.4117
     3.4117   8.1713   9.0876   9.0877

          k = 0.1250 0.1250 0.2500 ( 18525 PWs)   bands (ev):

   -22.0294  -9.3642  -7.8790  -7.7118  -6.1232  -6.1161  -6.1080  -4.0020
    -0.6637  -0.4719   0.6352   2.5959   2.6677   2.9482   3.3622   3.4103
     3.4335   8.2522   8.6226   9.3389

          k = 0.1250 0.1250 0.3750 ( 18514 PWs)   bands (ev):

   -22.0292  -9.2122  -8.0744  -7.7058  -6.1247  -6.1122  -6.1076  -4.2798
    -0.6120  -0.3859   1.4823   2.3734   2.6529   2.9672   3.3408   3.3745
     3.5232   6.5787   9.1579   9.5013

          k = 0.1250 0.1250-0.5000 ( 18498 PWs)   bands (ev):

   -22.0291  -9.1311  -8.1738  -7.7033  -6.1254  -6.1106  -6.1099  -4.3720
    -0.5895  -0.3563   1.7050   2.2908   2.8528   2.9007   3.3314   3.3516
     3.9082   5.5625   9.3521   9.5173

          k = 0.1250 0.2500 0.2500 ( 18529 PWs)   bands (ev):

   -22.0292  -9.2389  -7.9247  -7.8023  -6.1236  -6.1130  -6.1079  -4.4099
    -0.5395   0.1832   0.9139   2.2778   2.6028   2.7676   3.3974   3.4276
     3.6375   7.9564   8.3533   8.9247

          k = 0.1250 0.2500 0.3750 ( 18485 PWs)   bands (ev):

   -22.0290  -9.0743  -8.0786  -7.8277  -6.1266  -6.1129  -6.1075  -4.7036
    -0.4766   0.4883   1.4721   2.1403   2.5398   2.8347   3.3641   3.5318
     3.7505   6.4823   8.1210   9.2086

          k = 0.1250 0.2500-0.5000 ( 18504 PWs)   bands (ev):

   -22.0289  -8.9829  -8.1754  -7.8296  -6.1272  -6.1170  -6.1057  -4.8039
    -0.4503   0.5551   1.5737   2.1419   2.6308   2.9255   3.3478   3.6783
     4.0007   5.4716   8.0846   9.2993

          k = 0.1250 0.3750 0.3750 ( 18495 PWs)   bands (ev):

   -22.0288  -8.8846  -8.1075  -7.9843  -6.1268  -6.1100  -6.1091  -5.0252
    -0.4057   1.4016   1.4438   2.0523   2.4220   2.8634   3.2827   3.8059
     3.9564   6.1673   6.7094   9.2691

          k = 0.1250 0.3750-0.5000 ( 18524 PWs)   bands (ev):

   -22.0287  -8.7689  -8.1770  -8.0312  -6.1238  -6.1141  -6.1060  -5.1399
    -0.3759   1.4230   1.6513   2.1075   2.4594   2.9468   3.2007   4.0152
     4.2946   5.3013   6.4565   9.3034

          k = 0.1250-0.5000-0.5000 ( 18492 PWs)   bands (ev):

   -22.0286  -8.6205  -8.1777  -8.1777  -6.1201  -6.1084  -6.1084  -5.2631
    -0.3447   1.3617   2.1048   2.1048   2.6451   2.9525   2.9525   4.1786
     4.9563   5.1907   5.1907   9.3144

          k = 0.2500 0.2500 0.2500 ( 18484 PWs)   bands (ev):

   -22.0290  -9.1089  -7.9145  -7.9145  -6.1229  -6.1229  -6.1090  -4.8312
     0.2437   0.2437   1.1049   2.2520   2.2520   2.6182   3.6044   3.6044
     3.6664   7.8348   7.8348   8.4438

          k = 0.2500 0.2500 0.3750 ( 18503 PWs)   bands (ev):

   -22.0288  -8.9350  -8.0744  -7.9040  -6.1331  -6.1256  -6.1106  -5.1519
     0.3120   0.7029   1.4856   1.9987   2.2432   2.8812   3.6083   3.7227
     3.7799   6.3626   7.7310   8.3072

          k = 0.2500 0.2500-0.5000 ( 18478 PWs)   bands (ev):

   -22.0287  -8.8346  -8.1706  -7.8997  -6.1373  -6.1321  -6.1075  -5.2648
     0.3434   0.8052   1.5677   1.9048   2.3216   3.2135   3.6051   3.8140
     3.9995   5.3506   7.6940   8.2884

          k = 0.2500 0.3750 0.3750 ( 18507 PWs)   bands (ev):

   -22.0286  -8.7420  -8.0944  -8.0124  -6.1403  -6.1256  -6.1220  -5.5143
     0.5504   1.4532   1.4962   1.8795   2.0977   3.1166   3.6515   3.8548
     3.9748   6.0304   6.5413   8.0735

          k = 0.2500 0.3750-0.5000 ( 18464 PWs)   bands (ev):

   -22.0285  -8.6202  -8.1657  -8.0375  -6.1392  -6.1362  -6.1175  -5.6496
     0.5999   1.4968   1.6565   1.8294   2.2242   3.3666   3.5902   4.0453
     4.2462   5.1539   6.3048   8.0408

          k = 0.2500-0.5000-0.5000 ( 18500 PWs)   bands (ev):

   -22.0285  -8.4636  -8.1637  -8.1637  -6.1343  -6.1272  -6.1272  -5.8024
     0.6548   1.4526   1.8259   1.8259   2.6517   3.4082   3.4082   4.1899
     4.9402   5.0274   5.0274   8.0059

          k = 0.3750 0.3750 0.3750 ( 18502 PWs)   bands (ev):

   -22.0284  -8.5445  -8.0811  -8.0811  -6.1507  -6.1423  -6.1423  -5.9309
     1.5380   1.5380   1.5434   1.8439   1.8439   3.4812   3.8919   3.8919
     4.0342   5.8643   5.8643   7.1365

          k = 0.3750 0.3750-0.5000 ( 18438 PWs)   bands (ev):

   -22.0284  -8.4127  -8.1542  -8.0755  -6.1827  -6.1493  -6.1343  -6.0819
     1.5569   1.6531   1.6586   1.6669   2.2098   3.7298   3.9356   4.1087
     4.1953   4.9169   5.7848   6.9547

          k = 0.3750-0.5000-0.5000 ( 18460 PWs)   bands (ev):

   -22.0283  -8.2568  -8.1495  -8.1495  -6.3131  -6.1485  -6.1463  -6.1463
     1.5471   1.6481   1.6481   1.8807   2.6583   3.8687   3.8687   4.2014
     4.7472   4.7472   4.7854   6.6995

          k =-0.5000-0.5000-0.5000 ( 18504 PWs)   bands (ev):

   -22.0282  -8.1435  -8.1435  -8.1435  -6.5371  -6.1543  -6.1543  -6.1543
     1.5874   1.5874   1.5874   2.6610   2.6610   4.2062   4.2062   4.2062
     4.4683   4.4683   4.4683   6.1508

     the Fermi energy is     3.7478 ev

!    total energy              =   -1155.66606726 Ry
     total all-electron energy =    -33506.342536 Ry
     estimated scf accuracy    <          2.0E-13 Ry
     smearing contrib. (-TS)   =      -0.00337702 Ry
     internal energy E=F+TS    =   -1155.66269024 Ry

     The total energy is F=E-TS. E is the sum of the following terms:
     one-electron contribution =      -5.08482952 Ry
     hartree contribution      =      16.91882072 Ry
     xc contribution           =     -50.72387925 Ry
     ewald contribution        =     -98.09198578 Ry
     one-center paw contrib.   =   -1018.68081642 Ry

     convergence has been achieved in  15 iterations

     Writing all to output data dir ./tmp/RbSbSe3.save/ :
     XML data file, charge density, pseudopotentials, collected wavefunctions

     init_run     :      7.23s CPU      6.43s WALL (       1 calls)
     electrons    :    241.46s CPU    184.60s WALL (       1 calls)

     Called by init_run:
     wfcinit      :      4.52s CPU      3.48s WALL (       1 calls)
     potinit      :      0.79s CPU      0.87s WALL (       1 calls)
     hinit0       :      0.98s CPU      1.00s WALL (       1 calls)

     Called by electrons:
     c_bands      :    170.30s CPU    123.79s WALL (      16 calls)
     sum_band     :     54.52s CPU     42.53s WALL (      16 calls)
     v_of_rho     :      3.92s CPU      4.09s WALL (      16 calls)
     newd         :     10.81s CPU     12.46s WALL (      16 calls)
     PAW_pot      :      1.79s CPU      1.83s WALL (      16 calls)
     mix_rho      :      0.54s CPU      0.51s WALL (      16 calls)

     Called by c_bands:
     init_us_2    :      6.27s CPU      4.49s WALL (     594 calls)
     cegterg      :    154.58s CPU    112.32s WALL (     288 calls)

     Called by *egterg:
     cdiaghg      :      2.43s CPU      1.77s WALL (    1165 calls)
     h_psi        :    133.77s CPU    100.45s WALL (    1201 calls)
     s_psi        :      4.39s CPU      2.40s WALL (    1201 calls)
     g_psi        :      0.81s CPU      0.57s WALL (     895 calls)

     Called by h_psi:
     h_psi:calbec :      5.78s CPU      3.34s WALL (    1201 calls)
     vloc_psi     :    122.39s CPU     93.96s WALL (    1201 calls)
     add_vuspsi   :      4.92s CPU      2.67s WALL (    1201 calls)

     General routines
     calbec       :      7.72s CPU      4.41s WALL (    1489 calls)
     fft          :      2.98s CPU      3.10s WALL (     207 calls)
     ffts         :      0.53s CPU      0.51s WALL (      32 calls)
     fftw         :    118.24s CPU     90.23s WALL (   35390 calls)
     interpolate  :      0.69s CPU      0.70s WALL (      16 calls)

     Parallel routines

     PWSCF        :   4m 9.40s CPU   3m11.87s WALL


   This run was terminated on:  14:18:34  10May2025            

=------------------------------------------------------------------------------=
   JOB DONE.
=------------------------------------------------------------------------------=
