
     Program PWSCF v.7.3.1 starts on  9Apr2025 at 15:31:16 

     This program is part of the open-source Quantum ESPRESSO suite
     for quantum simulation of materials; please cite
         "P. Giannozzi et al., J. Phys.:Condens. Matter 21 395502 (2009);
         "P. Giannozzi et al., J. Phys.:Condens. Matter 29 465901 (2017);
         "P. Giannozzi et al., J. Chem. Phys. 152 154105 (2020);
          URL http://www.quantum-espresso.org", 
     in publications or presentations arising from this work. More details at
     http://www.quantum-espresso.org/quote

     Parallel version (MPI), running on     8 processors

     MPI processes distributed on     1 nodes
     58688 MiB available memory on the printing compute node when the environment starts

     Waiting for input...
     Reading input from standard input

     Current dimensions of program PWSCF are:
     Max number of different atomic species (ntypx) = 10
     Max number of k-points (npk) =  40000
     Max angular momentum in pseudopotentials (lmaxx) =  4
     file Ca.pbe-spn-kjpaw_psl.1.0.0.UPF: wavefunction(s)  3S renormalized
     file Ti.pbe-spn-rrkjus_psl.1.0.0.UPF: wavefunction(s)  3S 3D renormalized
     file S.pbe-n-kjpaw_psl.1.0.0.UPF: wavefunction(s)  3S 3P renormalized

     IMPORTANT: XC functional enforced from input :
     Exchange-correlation= PBE
                           (   1   4   3   4   0   0   0)
     Any further DFT definition will be discarded
     Please, verify this is what you really want

     Message from routine setup:
     using ibrav=0 with symmetry is DISCOURAGED, use correct ibrav instead

     R & G space division:  proc/nbgrp/npool/nimage =       8
     Subspace diagonalization in iterative solution of the eigenvalue problem:
     a serial algorithm will be used


     Parallelization info
     --------------------
     sticks:   dense  smooth     PW     G-vecs:    dense   smooth      PW
     Min         656     327     93                36012    12719    1899
     Max         657     328     94                36019    12724    1902
     Sum        5249    2617    749               288113   101769   15203

     Using Slab Decomposition



     bravais-lattice index     =            0
     lattice parameter (alat)  =      10.1821  a.u.
     unit-cell volume          =    1055.6417 (a.u.)^3
     number of atoms/cell      =            5
     number of atomic types    =            3
     number of electrons       =        40.00
     number of Kohn-Sham states=           24
     kinetic-energy cutoff     =      80.0000  Ry
     charge density cutoff     =     640.0000  Ry
     scf convergence threshold =      1.0E-10
     mixing beta               =       0.3000
     number of iterations used =            8  plain     mixing
     energy convergence thresh.=      1.0E-07
     force convergence thresh. =      1.0E-06
     press convergence thresh. =      1.0E-01
     Exchange-correlation= PBE
                           (   1   4   3   4   0   0   0)
     nstep                     =           50


     celldm(1)=  10.182135  celldm(2)=   0.000000  celldm(3)=   0.000000
     celldm(4)=   0.000000  celldm(5)=   0.000000  celldm(6)=   0.000000

     crystal axes: (cart. coord. in units of alat)
               a(1) = (   1.000000   0.000000   0.000000 )  
               a(2) = (   0.000000   1.000000   0.000000 )  
               a(3) = (   0.000000   0.000000   1.000000 )  

     reciprocal axes: (cart. coord. in units 2 pi/alat)
               b(1) = (  1.000000  0.000000  0.000000 )  
               b(2) = (  0.000000  1.000000  0.000000 )  
               b(3) = (  0.000000  0.000000  1.000000 )  


     PseudoPot. # 1 for Ca read from file:
     /home/administrator/Downloads/BURAI/BURAI1.3/pseudopot/Ca.pbe-spn-kjpaw_psl.1.0.0.UPF
     MD5 check sum: b518bfa21c8e9f1b10ff1c7131b15729
     Pseudo is Projector augmented-wave + core cor, Zval = 10.0
     Generated using "atomic" code by A. Dal Corso  v.5.1.2
     Shape of augmentation charge: PSQ
     Using radial grid of 1169 points,  6 beta functions with: 
                l(1) =   0
                l(2) =   0
                l(3) =   1
                l(4) =   1
                l(5) =   2
                l(6) =   2
     Q(r) pseudized with 0 coefficients 


     PseudoPot. # 2 for Ti read from file:
     /home/administrator/Downloads/BURAI/BURAI1.3/pseudopot/Ti.pbe-spn-rrkjus_psl.1.0.0.UPF
     MD5 check sum: 40bbf9bd2b317505b6eb957456eaaf86
     Pseudo is Ultrasoft + core correction, Zval = 12.0
     Generated using "atomic" code by A. Dal Corso  v.5.1.2
     Using radial grid of 1177 points,  6 beta functions with: 
                l(1) =   0
                l(2) =   0
                l(3) =   1
                l(4) =   1
                l(5) =   2
                l(6) =   2
     Q(r) pseudized with 0 coefficients 


     PseudoPot. # 3 for S  read from file:
     /home/administrator/Downloads/BURAI/BURAI1.3/pseudopot/S.pbe-n-kjpaw_psl.1.0.0.UPF
     MD5 check sum: cb96b46a5ee63c4f5db34501b74ad364
     Pseudo is Projector augmented-wave + core cor, Zval =  6.0
     Generated using "atomic" code by A. Dal Corso  v.5.1.2
     Shape of augmentation charge: PSQ
     Using radial grid of 1151 points,  6 beta functions with: 
                l(1) =   0
                l(2) =   0
                l(3) =   1
                l(4) =   1
                l(5) =   2
                l(6) =   2
     Q(r) pseudized with 0 coefficients 


     atomic species   valence    mass     pseudopotential
     Ca               10.00    40.07800     Ca( 1.00)
     Ti               12.00    47.86700     Ti( 1.00)
     S                 6.00    32.06000     S ( 1.00)

     48 Sym. Ops., with inversion, found


                                    s                        frac. trans.

      isym =  1     identity                                     

 cryst.   s( 1) = (     1          0          0      )
                  (     0          1          0      )
                  (     0          0          1      )

 cart.    s( 1) = (  1.0000000  0.0000000  0.0000000 )
                  (  0.0000000  1.0000000  0.0000000 )
                  (  0.0000000  0.0000000  1.0000000 )


      isym =  2     180 deg rotation - cart. axis [0,0,1]        

 cryst.   s( 2) = (    -1          0          0      )
                  (     0         -1          0      )
                  (     0          0          1      )

 cart.    s( 2) = ( -1.0000000  0.0000000  0.0000000 )
                  (  0.0000000 -1.0000000  0.0000000 )
                  (  0.0000000  0.0000000  1.0000000 )


      isym =  3     180 deg rotation - cart. axis [0,1,0]        

 cryst.   s( 3) = (    -1          0          0      )
                  (     0          1          0      )
                  (     0          0         -1      )

 cart.    s( 3) = ( -1.0000000  0.0000000  0.0000000 )
                  (  0.0000000  1.0000000  0.0000000 )
                  (  0.0000000  0.0000000 -1.0000000 )


      isym =  4     180 deg rotation - cart. axis [1,0,0]        

 cryst.   s( 4) = (     1          0          0      )
                  (     0         -1          0      )
                  (     0          0         -1      )

 cart.    s( 4) = (  1.0000000  0.0000000  0.0000000 )
                  (  0.0000000 -1.0000000  0.0000000 )
                  (  0.0000000  0.0000000 -1.0000000 )


      isym =  5     180 deg rotation - cart. axis [1,1,0]        

 cryst.   s( 5) = (     0          1          0      )
                  (     1          0          0      )
                  (     0          0         -1      )

 cart.    s( 5) = (  0.0000000  1.0000000  0.0000000 )
                  (  1.0000000  0.0000000  0.0000000 )
                  (  0.0000000  0.0000000 -1.0000000 )


      isym =  6     180 deg rotation - cart. axis [1,-1,0]       

 cryst.   s( 6) = (     0         -1          0      )
                  (    -1          0          0      )
                  (     0          0         -1      )

 cart.    s( 6) = (  0.0000000 -1.0000000  0.0000000 )
                  ( -1.0000000  0.0000000  0.0000000 )
                  (  0.0000000  0.0000000 -1.0000000 )


      isym =  7      90 deg rotation - cart. axis [0,0,-1]       

 cryst.   s( 7) = (     0         -1          0      )
                  (     1          0          0      )
                  (     0          0          1      )

 cart.    s( 7) = (  0.0000000  1.0000000  0.0000000 )
                  ( -1.0000000  0.0000000  0.0000000 )
                  (  0.0000000  0.0000000  1.0000000 )


      isym =  8      90 deg rotation - cart. axis [0,0,1]        

 cryst.   s( 8) = (     0          1          0      )
                  (    -1          0          0      )
                  (     0          0          1      )

 cart.    s( 8) = (  0.0000000 -1.0000000  0.0000000 )
                  (  1.0000000  0.0000000  0.0000000 )
                  (  0.0000000  0.0000000  1.0000000 )


      isym =  9     180 deg rotation - cart. axis [1,0,1]        

 cryst.   s( 9) = (     0          0          1      )
                  (     0         -1          0      )
                  (     1          0          0      )

 cart.    s( 9) = (  0.0000000  0.0000000  1.0000000 )
                  (  0.0000000 -1.0000000  0.0000000 )
                  (  1.0000000  0.0000000  0.0000000 )


      isym = 10     180 deg rotation - cart. axis [-1,0,1]       

 cryst.   s(10) = (     0          0         -1      )
                  (     0         -1          0      )
                  (    -1          0          0      )

 cart.    s(10) = (  0.0000000  0.0000000 -1.0000000 )
                  (  0.0000000 -1.0000000  0.0000000 )
                  ( -1.0000000  0.0000000  0.0000000 )


      isym = 11      90 deg rotation - cart. axis [0,1,0]        

 cryst.   s(11) = (     0          0         -1      )
                  (     0          1          0      )
                  (     1          0          0      )

 cart.    s(11) = (  0.0000000  0.0000000  1.0000000 )
                  (  0.0000000  1.0000000  0.0000000 )
                  ( -1.0000000  0.0000000  0.0000000 )


      isym = 12      90 deg rotation - cart. axis [0,-1,0]       

 cryst.   s(12) = (     0          0          1      )
                  (     0          1          0      )
                  (    -1          0          0      )

 cart.    s(12) = (  0.0000000  0.0000000 -1.0000000 )
                  (  0.0000000  1.0000000  0.0000000 )
                  (  1.0000000  0.0000000  0.0000000 )


      isym = 13     180 deg rotation - cart. axis [0,1,1]        

 cryst.   s(13) = (    -1          0          0      )
                  (     0          0          1      )
                  (     0          1          0      )

 cart.    s(13) = ( -1.0000000  0.0000000  0.0000000 )
                  (  0.0000000  0.0000000  1.0000000 )
                  (  0.0000000  1.0000000  0.0000000 )


      isym = 14     180 deg rotation - cart. axis [0,1,-1]       

 cryst.   s(14) = (    -1          0          0      )
                  (     0          0         -1      )
                  (     0         -1          0      )

 cart.    s(14) = ( -1.0000000  0.0000000  0.0000000 )
                  (  0.0000000  0.0000000 -1.0000000 )
                  (  0.0000000 -1.0000000  0.0000000 )


      isym = 15      90 deg rotation - cart. axis [-1,0,0]       

 cryst.   s(15) = (     1          0          0      )
                  (     0          0         -1      )
                  (     0          1          0      )

 cart.    s(15) = (  1.0000000  0.0000000  0.0000000 )
                  (  0.0000000  0.0000000  1.0000000 )
                  (  0.0000000 -1.0000000  0.0000000 )


      isym = 16      90 deg rotation - cart. axis [1,0,0]        

 cryst.   s(16) = (     1          0          0      )
                  (     0          0          1      )
                  (     0         -1          0      )

 cart.    s(16) = (  1.0000000  0.0000000  0.0000000 )
                  (  0.0000000  0.0000000 -1.0000000 )
                  (  0.0000000  1.0000000  0.0000000 )


      isym = 17     120 deg rotation - cart. axis [-1,-1,-1]     

 cryst.   s(17) = (     0          0          1      )
                  (     1          0          0      )
                  (     0          1          0      )

 cart.    s(17) = (  0.0000000  1.0000000  0.0000000 )
                  (  0.0000000  0.0000000  1.0000000 )
                  (  1.0000000  0.0000000  0.0000000 )


      isym = 18     120 deg rotation - cart. axis [-1,1,1]       

 cryst.   s(18) = (     0          0         -1      )
                  (    -1          0          0      )
                  (     0          1          0      )

 cart.    s(18) = (  0.0000000 -1.0000000  0.0000000 )
                  (  0.0000000  0.0000000  1.0000000 )
                  ( -1.0000000  0.0000000  0.0000000 )


      isym = 19     120 deg rotation - cart. axis [1,1,-1]       

 cryst.   s(19) = (     0          0         -1      )
                  (     1          0          0      )
                  (     0         -1          0      )

 cart.    s(19) = (  0.0000000  1.0000000  0.0000000 )
                  (  0.0000000  0.0000000 -1.0000000 )
                  ( -1.0000000  0.0000000  0.0000000 )


      isym = 20     120 deg rotation - cart. axis [1,-1,1]       

 cryst.   s(20) = (     0          0          1      )
                  (    -1          0          0      )
                  (     0         -1          0      )

 cart.    s(20) = (  0.0000000 -1.0000000  0.0000000 )
                  (  0.0000000  0.0000000 -1.0000000 )
                  (  1.0000000  0.0000000  0.0000000 )


      isym = 21     120 deg rotation - cart. axis [1,1,1]        

 cryst.   s(21) = (     0          1          0      )
                  (     0          0          1      )
                  (     1          0          0      )

 cart.    s(21) = (  0.0000000  0.0000000  1.0000000 )
                  (  1.0000000  0.0000000  0.0000000 )
                  (  0.0000000  1.0000000  0.0000000 )


      isym = 22     120 deg rotation - cart. axis [-1,1,-1]      

 cryst.   s(22) = (     0         -1          0      )
                  (     0          0         -1      )
                  (     1          0          0      )

 cart.    s(22) = (  0.0000000  0.0000000  1.0000000 )
                  ( -1.0000000  0.0000000  0.0000000 )
                  (  0.0000000 -1.0000000  0.0000000 )


      isym = 23     120 deg rotation - cart. axis [1,-1,-1]      

 cryst.   s(23) = (     0         -1          0      )
                  (     0          0          1      )
                  (    -1          0          0      )

 cart.    s(23) = (  0.0000000  0.0000000 -1.0000000 )
                  ( -1.0000000  0.0000000  0.0000000 )
                  (  0.0000000  1.0000000  0.0000000 )


      isym = 24     120 deg rotation - cart. axis [-1,-1,1]      

 cryst.   s(24) = (     0          1          0      )
                  (     0          0         -1      )
                  (    -1          0          0      )

 cart.    s(24) = (  0.0000000  0.0000000 -1.0000000 )
                  (  1.0000000  0.0000000  0.0000000 )
                  (  0.0000000 -1.0000000  0.0000000 )


      isym = 25     inversion                                    

 cryst.   s(25) = (    -1          0          0      )
                  (     0         -1          0      )
                  (     0          0         -1      )

 cart.    s(25) = ( -1.0000000  0.0000000  0.0000000 )
                  (  0.0000000 -1.0000000  0.0000000 )
                  (  0.0000000  0.0000000 -1.0000000 )


      isym = 26     inv. 180 deg rotation - cart. axis [0,0,1]   

 cryst.   s(26) = (     1          0          0      )
                  (     0          1          0      )
                  (     0          0         -1      )

 cart.    s(26) = (  1.0000000  0.0000000  0.0000000 )
                  (  0.0000000  1.0000000  0.0000000 )
                  (  0.0000000  0.0000000 -1.0000000 )


      isym = 27     inv. 180 deg rotation - cart. axis [0,1,0]   

 cryst.   s(27) = (     1          0          0      )
                  (     0         -1          0      )
                  (     0          0          1      )

 cart.    s(27) = (  1.0000000  0.0000000  0.0000000 )
                  (  0.0000000 -1.0000000  0.0000000 )
                  (  0.0000000  0.0000000  1.0000000 )


      isym = 28     inv. 180 deg rotation - cart. axis [1,0,0]   

 cryst.   s(28) = (    -1          0          0      )
                  (     0          1          0      )
                  (     0          0          1      )

 cart.    s(28) = ( -1.0000000  0.0000000  0.0000000 )
                  (  0.0000000  1.0000000  0.0000000 )
                  (  0.0000000  0.0000000  1.0000000 )


      isym = 29     inv. 180 deg rotation - cart. axis [1,1,0]   

 cryst.   s(29) = (     0         -1          0      )
                  (    -1          0          0      )
                  (     0          0          1      )

 cart.    s(29) = (  0.0000000 -1.0000000  0.0000000 )
                  ( -1.0000000  0.0000000  0.0000000 )
                  (  0.0000000  0.0000000  1.0000000 )


      isym = 30     inv. 180 deg rotation - cart. axis [1,-1,0]  

 cryst.   s(30) = (     0          1          0      )
                  (     1          0          0      )
                  (     0          0          1      )

 cart.    s(30) = (  0.0000000  1.0000000  0.0000000 )
                  (  1.0000000  0.0000000  0.0000000 )
                  (  0.0000000  0.0000000  1.0000000 )


      isym = 31     inv.  90 deg rotation - cart. axis [0,0,-1]  

 cryst.   s(31) = (     0          1          0      )
                  (    -1          0          0      )
                  (     0          0         -1      )

 cart.    s(31) = (  0.0000000 -1.0000000  0.0000000 )
                  (  1.0000000  0.0000000  0.0000000 )
                  (  0.0000000  0.0000000 -1.0000000 )


      isym = 32     inv.  90 deg rotation - cart. axis [0,0,1]   

 cryst.   s(32) = (     0         -1          0      )
                  (     1          0          0      )
                  (     0          0         -1      )

 cart.    s(32) = (  0.0000000  1.0000000  0.0000000 )
                  ( -1.0000000  0.0000000  0.0000000 )
                  (  0.0000000  0.0000000 -1.0000000 )


      isym = 33     inv. 180 deg rotation - cart. axis [1,0,1]   

 cryst.   s(33) = (     0          0         -1      )
                  (     0          1          0      )
                  (    -1          0          0      )

 cart.    s(33) = (  0.0000000  0.0000000 -1.0000000 )
                  (  0.0000000  1.0000000  0.0000000 )
                  ( -1.0000000  0.0000000  0.0000000 )


      isym = 34     inv. 180 deg rotation - cart. axis [-1,0,1]  

 cryst.   s(34) = (     0          0          1      )
                  (     0          1          0      )
                  (     1          0          0      )

 cart.    s(34) = (  0.0000000  0.0000000  1.0000000 )
                  (  0.0000000  1.0000000  0.0000000 )
                  (  1.0000000  0.0000000  0.0000000 )


      isym = 35     inv.  90 deg rotation - cart. axis [0,1,0]   

 cryst.   s(35) = (     0          0          1      )
                  (     0         -1          0      )
                  (    -1          0          0      )

 cart.    s(35) = (  0.0000000  0.0000000 -1.0000000 )
                  (  0.0000000 -1.0000000  0.0000000 )
                  (  1.0000000  0.0000000  0.0000000 )


      isym = 36     inv.  90 deg rotation - cart. axis [0,-1,0]  

 cryst.   s(36) = (     0          0         -1      )
                  (     0         -1          0      )
                  (     1          0          0      )

 cart.    s(36) = (  0.0000000  0.0000000  1.0000000 )
                  (  0.0000000 -1.0000000  0.0000000 )
                  ( -1.0000000  0.0000000  0.0000000 )


      isym = 37     inv. 180 deg rotation - cart. axis [0,1,1]   

 cryst.   s(37) = (     1          0          0      )
                  (     0          0         -1      )
                  (     0         -1          0      )

 cart.    s(37) = (  1.0000000  0.0000000  0.0000000 )
                  (  0.0000000  0.0000000 -1.0000000 )
                  (  0.0000000 -1.0000000  0.0000000 )


      isym = 38     inv. 180 deg rotation - cart. axis [0,1,-1]  

 cryst.   s(38) = (     1          0          0      )
                  (     0          0          1      )
                  (     0          1          0      )

 cart.    s(38) = (  1.0000000  0.0000000  0.0000000 )
                  (  0.0000000  0.0000000  1.0000000 )
                  (  0.0000000  1.0000000  0.0000000 )


      isym = 39     inv.  90 deg rotation - cart. axis [-1,0,0]  

 cryst.   s(39) = (    -1          0          0      )
                  (     0          0          1      )
                  (     0         -1          0      )

 cart.    s(39) = ( -1.0000000  0.0000000  0.0000000 )
                  (  0.0000000  0.0000000 -1.0000000 )
                  (  0.0000000  1.0000000  0.0000000 )


      isym = 40     inv.  90 deg rotation - cart. axis [1,0,0]   

 cryst.   s(40) = (    -1          0          0      )
                  (     0          0         -1      )
                  (     0          1          0      )

 cart.    s(40) = ( -1.0000000  0.0000000  0.0000000 )
                  (  0.0000000  0.0000000  1.0000000 )
                  (  0.0000000 -1.0000000  0.0000000 )


      isym = 41     inv. 120 deg rotation - cart. axis [-1,-1,-1]

 cryst.   s(41) = (     0          0         -1      )
                  (    -1          0          0      )
                  (     0         -1          0      )

 cart.    s(41) = (  0.0000000 -1.0000000  0.0000000 )
                  (  0.0000000  0.0000000 -1.0000000 )
                  ( -1.0000000  0.0000000  0.0000000 )


      isym = 42     inv. 120 deg rotation - cart. axis [-1,1,1]  

 cryst.   s(42) = (     0          0          1      )
                  (     1          0          0      )
                  (     0         -1          0      )

 cart.    s(42) = (  0.0000000  1.0000000  0.0000000 )
                  (  0.0000000  0.0000000 -1.0000000 )
                  (  1.0000000  0.0000000  0.0000000 )


      isym = 43     inv. 120 deg rotation - cart. axis [1,1,-1]  

 cryst.   s(43) = (     0          0          1      )
                  (    -1          0          0      )
                  (     0          1          0      )

 cart.    s(43) = (  0.0000000 -1.0000000  0.0000000 )
                  (  0.0000000  0.0000000  1.0000000 )
                  (  1.0000000  0.0000000  0.0000000 )


      isym = 44     inv. 120 deg rotation - cart. axis [1,-1,1]  

 cryst.   s(44) = (     0          0         -1      )
                  (     1          0          0      )
                  (     0          1          0      )

 cart.    s(44) = (  0.0000000  1.0000000  0.0000000 )
                  (  0.0000000  0.0000000  1.0000000 )
                  ( -1.0000000  0.0000000  0.0000000 )


      isym = 45     inv. 120 deg rotation - cart. axis [1,1,1]   

 cryst.   s(45) = (     0         -1          0      )
                  (     0          0         -1      )
                  (    -1          0          0      )

 cart.    s(45) = (  0.0000000  0.0000000 -1.0000000 )
                  ( -1.0000000  0.0000000  0.0000000 )
                  (  0.0000000 -1.0000000  0.0000000 )


      isym = 46     inv. 120 deg rotation - cart. axis [-1,1,-1] 

 cryst.   s(46) = (     0          1          0      )
                  (     0          0          1      )
                  (    -1          0          0      )

 cart.    s(46) = (  0.0000000  0.0000000 -1.0000000 )
                  (  1.0000000  0.0000000  0.0000000 )
                  (  0.0000000  1.0000000  0.0000000 )


      isym = 47     inv. 120 deg rotation - cart. axis [1,-1,-1] 

 cryst.   s(47) = (     0          1          0      )
                  (     0          0         -1      )
                  (     1          0          0      )

 cart.    s(47) = (  0.0000000  0.0000000  1.0000000 )
                  (  1.0000000  0.0000000  0.0000000 )
                  (  0.0000000 -1.0000000  0.0000000 )


      isym = 48     inv. 120 deg rotation - cart. axis [-1,-1,1] 

 cryst.   s(48) = (     0         -1          0      )
                  (     0          0          1      )
                  (     1          0          0      )

 cart.    s(48) = (  0.0000000  0.0000000  1.0000000 )
                  ( -1.0000000  0.0000000  0.0000000 )
                  (  0.0000000  1.0000000  0.0000000 )


   Cartesian axes

     site n.     atom                  positions (alat units)
         1        Ca     tau(   1) = (   0.0000000   0.0000000   0.0000000  )
         2        Ti     tau(   2) = (   0.5000000   0.5000000   0.5000000  )
         3        S      tau(   3) = (   0.5000000   0.0000000   0.0000000  )
         4        S      tau(   4) = (   0.0000000   0.5000000   0.0000000  )
         5        S      tau(   5) = (   0.0000000   0.0000000   0.5000000  )

   Crystallographic axes

     site n.     atom                  positions (cryst. coord.)
         1        Ca     tau(   1) = (  0.0000000  0.0000000  0.0000000  )
         2        Ti     tau(   2) = (  0.5000000  0.5000000  0.5000000  )
         3        S      tau(   3) = (  0.5000000  0.0000000  0.0000000  )
         4        S      tau(   4) = (  0.0000000  0.5000000  0.0000000  )
         5        S      tau(   5) = (  0.0000000  0.0000000  0.5000000  )

     number of k points=    20  Methfessel-Paxton smearing, width (Ry)=  0.0100
                       cart. coord. in units 2pi/alat
        k(    1) = (   0.0000000   0.0000000   0.0000000), wk =   0.0092593
        k(    2) = (   0.0000000   0.0000000   0.1666667), wk =   0.0555556
        k(    3) = (   0.0000000   0.0000000   0.3333333), wk =   0.0555556
        k(    4) = (   0.0000000   0.0000000  -0.5000000), wk =   0.0277778
        k(    5) = (   0.0000000   0.1666667   0.1666667), wk =   0.1111111
        k(    6) = (   0.0000000   0.1666667   0.3333333), wk =   0.2222222
        k(    7) = (   0.0000000   0.1666667  -0.5000000), wk =   0.1111111
        k(    8) = (   0.0000000   0.3333333   0.3333333), wk =   0.1111111
        k(    9) = (   0.0000000   0.3333333  -0.5000000), wk =   0.1111111
        k(   10) = (   0.0000000  -0.5000000  -0.5000000), wk =   0.0277778
        k(   11) = (   0.1666667   0.1666667   0.1666667), wk =   0.0740741
        k(   12) = (   0.1666667   0.1666667   0.3333333), wk =   0.2222222
        k(   13) = (   0.1666667   0.1666667  -0.5000000), wk =   0.1111111
        k(   14) = (   0.1666667   0.3333333   0.3333333), wk =   0.2222222
        k(   15) = (   0.1666667   0.3333333  -0.5000000), wk =   0.2222222
        k(   16) = (   0.1666667  -0.5000000  -0.5000000), wk =   0.0555556
        k(   17) = (   0.3333333   0.3333333   0.3333333), wk =   0.0740741
        k(   18) = (   0.3333333   0.3333333  -0.5000000), wk =   0.1111111
        k(   19) = (   0.3333333  -0.5000000  -0.5000000), wk =   0.0555556
        k(   20) = (  -0.5000000  -0.5000000  -0.5000000), wk =   0.0092593

                       cryst. coord.
        k(    1) = (   0.0000000   0.0000000   0.0000000), wk =   0.0092593
        k(    2) = (   0.0000000   0.0000000   0.1666667), wk =   0.0555556
        k(    3) = (   0.0000000   0.0000000   0.3333333), wk =   0.0555556
        k(    4) = (   0.0000000   0.0000000  -0.5000000), wk =   0.0277778
        k(    5) = (   0.0000000   0.1666667   0.1666667), wk =   0.1111111
        k(    6) = (   0.0000000   0.1666667   0.3333333), wk =   0.2222222
        k(    7) = (   0.0000000   0.1666667  -0.5000000), wk =   0.1111111
        k(    8) = (   0.0000000   0.3333333   0.3333333), wk =   0.1111111
        k(    9) = (   0.0000000   0.3333333  -0.5000000), wk =   0.1111111
        k(   10) = (   0.0000000  -0.5000000  -0.5000000), wk =   0.0277778
        k(   11) = (   0.1666667   0.1666667   0.1666667), wk =   0.0740741
        k(   12) = (   0.1666667   0.1666667   0.3333333), wk =   0.2222222
        k(   13) = (   0.1666667   0.1666667  -0.5000000), wk =   0.1111111
        k(   14) = (   0.1666667   0.3333333   0.3333333), wk =   0.2222222
        k(   15) = (   0.1666667   0.3333333  -0.5000000), wk =   0.2222222
        k(   16) = (   0.1666667  -0.5000000  -0.5000000), wk =   0.0555556
        k(   17) = (   0.3333333   0.3333333   0.3333333), wk =   0.0740741
        k(   18) = (   0.3333333   0.3333333  -0.5000000), wk =   0.1111111
        k(   19) = (   0.3333333  -0.5000000  -0.5000000), wk =   0.0555556
        k(   20) = (  -0.5000000  -0.5000000  -0.5000000), wk =   0.0092593

     Dense  grid:   288113 G-vectors     FFT dimensions: (  81,  81,  81)

     Smooth grid:   101769 G-vectors     FFT dimensions: (  60,  60,  60)

     Dynamical RAM for                 wfc:       0.58 MB

     Dynamical RAM for     wfc (w. buffer):      12.26 MB

     Dynamical RAM for           str. fact:       1.65 MB

     Dynamical RAM for           local pot:       0.00 MB

     Dynamical RAM for          nlocal pot:       2.19 MB

     Dynamical RAM for                qrad:       9.13 MB

     Dynamical RAM for          rho,v,vnew:       3.30 MB

     Dynamical RAM for               rhoin:       1.10 MB

     Dynamical RAM for            rho*nmix:       8.79 MB

     Dynamical RAM for           G-vectors:       2.16 MB

     Dynamical RAM for          h,s,v(r/c):       0.11 MB

     Dynamical RAM for          <psi|beta>:       0.03 MB

     Dynamical RAM for                 psi:       1.17 MB

     Dynamical RAM for                hpsi:       1.17 MB

     Dynamical RAM for                spsi:       1.17 MB

     Dynamical RAM for      wfcinit/wfcrot:       1.48 MB

     Dynamical RAM for           addusdens:     103.86 MB

     Dynamical RAM for          addusforce:     106.35 MB

     Dynamical RAM for         addusstress:     110.46 MB

     Estimated static dynamical RAM per process >      36.74 MB

     Estimated max dynamical RAM per process >     155.99 MB

     Estimated total dynamical RAM >       1.22 GB

     Initial potential from superposition of free atoms

     starting charge      39.9936, renormalised to      40.0000
     Starting wfcs are   30 randomized atomic wfcs
     Checking if some PAW data can be deallocated... 
       PAW data deallocated on    6 nodes for type:  1
       PAW data deallocated on    4 nodes for type:  3

     total cpu time spent up to now is       15.6 secs

     Self-consistent Calculation

     iteration #  1     ecut=    80.00 Ry     beta= 0.30
     Davidson diagonalization with overlap

---- Real-time Memory Report at c_bands before calling an iterative solver
           160 MiB given to the printing process from OS
             0 MiB allocation reported by mallinfo(arena+hblkhd)
         58139 MiB available memory on the node where the printing process lives
------------------
     ethr =  1.00E-02,  avg # of iterations =  1.9

     total cpu time spent up to now is       50.5 secs

     total energy              =    -450.89736669 Ry
     estimated scf accuracy    <       3.38668563 Ry

     iteration #  2     ecut=    80.00 Ry     beta= 0.30
     Davidson diagonalization with overlap

---- Real-time Memory Report at c_bands before calling an iterative solver
           181 MiB given to the printing process from OS
             0 MiB allocation reported by mallinfo(arena+hblkhd)
         57196 MiB available memory on the node where the printing process lives
------------------
     ethr =  8.47E-03,  avg # of iterations =  2.7

     total cpu time spent up to now is       92.9 secs

     total energy              =    -450.95706468 Ry
     estimated scf accuracy    <      24.42797841 Ry

     iteration #  3     ecut=    80.00 Ry     beta= 0.30
     Davidson diagonalization with overlap

---- Real-time Memory Report at c_bands before calling an iterative solver
           182 MiB given to the printing process from OS
             0 MiB allocation reported by mallinfo(arena+hblkhd)
         57255 MiB available memory on the node where the printing process lives
------------------
     ethr =  8.47E-03,  avg # of iterations =  1.6

     total cpu time spent up to now is      126.1 secs

     total energy              =    -451.86842822 Ry
     estimated scf accuracy    <       1.37905754 Ry

     iteration #  4     ecut=    80.00 Ry     beta= 0.30
     Davidson diagonalization with overlap

---- Real-time Memory Report at c_bands before calling an iterative solver
           182 MiB given to the printing process from OS
             0 MiB allocation reported by mallinfo(arena+hblkhd)
         57299 MiB available memory on the node where the printing process lives
------------------
     ethr =  3.45E-03,  avg # of iterations =  1.2

     total cpu time spent up to now is      153.1 secs

     total energy              =    -451.85770385 Ry
     estimated scf accuracy    <       2.39510510 Ry

     iteration #  5     ecut=    80.00 Ry     beta= 0.30
     Davidson diagonalization with overlap

---- Real-time Memory Report at c_bands before calling an iterative solver
           183 MiB given to the printing process from OS
             0 MiB allocation reported by mallinfo(arena+hblkhd)
         57138 MiB available memory on the node where the printing process lives
------------------
     ethr =  3.45E-03,  avg # of iterations =  1.1

     total cpu time spent up to now is      179.4 secs

     total energy              =    -451.84761053 Ry
     estimated scf accuracy    <       0.88542231 Ry

     iteration #  6     ecut=    80.00 Ry     beta= 0.30
     Davidson diagonalization with overlap

---- Real-time Memory Report at c_bands before calling an iterative solver
           183 MiB given to the printing process from OS
             0 MiB allocation reported by mallinfo(arena+hblkhd)
         57073 MiB available memory on the node where the printing process lives
------------------
     ethr =  2.21E-03,  avg # of iterations =  1.0

     total cpu time spent up to now is      204.9 secs

     total energy              =    -451.75925649 Ry
     estimated scf accuracy    <      12.78120015 Ry

     iteration #  7     ecut=    80.00 Ry     beta= 0.30
     Davidson diagonalization with overlap

---- Real-time Memory Report at c_bands before calling an iterative solver
           183 MiB given to the printing process from OS
             0 MiB allocation reported by mallinfo(arena+hblkhd)
         57158 MiB available memory on the node where the printing process lives
------------------
     ethr =  2.21E-03,  avg # of iterations =  1.0

     total cpu time spent up to now is      231.1 secs

     total energy              =    -451.98691811 Ry
     estimated scf accuracy    <       0.09640535 Ry

     iteration #  8     ecut=    80.00 Ry     beta= 0.30
     Davidson diagonalization with overlap

---- Real-time Memory Report at c_bands before calling an iterative solver
           184 MiB given to the printing process from OS
             0 MiB allocation reported by mallinfo(arena+hblkhd)
         57118 MiB available memory on the node where the printing process lives
------------------
     ethr =  2.41E-04,  avg # of iterations =  4.0

     total cpu time spent up to now is      286.9 secs

     total energy              =    -451.99677519 Ry
     estimated scf accuracy    <       0.36842656 Ry

     iteration #  9     ecut=    80.00 Ry     beta= 0.30
     Davidson diagonalization with overlap

---- Real-time Memory Report at c_bands before calling an iterative solver
           184 MiB given to the printing process from OS
             0 MiB allocation reported by mallinfo(arena+hblkhd)
         57178 MiB available memory on the node where the printing process lives
------------------
     ethr =  2.41E-04,  avg # of iterations =  1.2

     total cpu time spent up to now is      314.7 secs

     total energy              =    -452.00713124 Ry
     estimated scf accuracy    <       0.00232470 Ry

     iteration # 10     ecut=    80.00 Ry     beta= 0.30
     Davidson diagonalization with overlap

---- Real-time Memory Report at c_bands before calling an iterative solver
           185 MiB given to the printing process from OS
             0 MiB allocation reported by mallinfo(arena+hblkhd)
         57168 MiB available memory on the node where the printing process lives
------------------
     c_bands:  1 eigenvalues not converged
     c_bands:  2 eigenvalues not converged
     c_bands:  3 eigenvalues not converged
     c_bands:  1 eigenvalues not converged
     c_bands:  2 eigenvalues not converged
     ethr =  5.81E-06,  avg # of iterations = 15.6

     total cpu time spent up to now is      488.0 secs

     total energy              =    -452.02143390 Ry
     estimated scf accuracy    <       0.62189287 Ry

     iteration # 11     ecut=    80.00 Ry     beta= 0.30
     Davidson diagonalization with overlap

---- Real-time Memory Report at c_bands before calling an iterative solver
           185 MiB given to the printing process from OS
             0 MiB allocation reported by mallinfo(arena+hblkhd)
         57295 MiB available memory on the node where the printing process lives
------------------
     ethr =  5.81E-06,  avg # of iterations =  8.0
     Minimization algorithm failed to find Fermi energy: reverting to bisection
     Possible cause: smearing is larger than the electronic band-gap.

     total cpu time spent up to now is      583.4 secs

     total energy              =    -452.02474480 Ry
     estimated scf accuracy    <       0.21030387 Ry

     iteration # 12     ecut=    80.00 Ry     beta= 0.30
     Davidson diagonalization with overlap

---- Real-time Memory Report at c_bands before calling an iterative solver
           185 MiB given to the printing process from OS
             0 MiB allocation reported by mallinfo(arena+hblkhd)
         57251 MiB available memory on the node where the printing process lives
------------------
     ethr =  5.81E-06,  avg # of iterations =  1.1
     Minimization algorithm failed to find Fermi energy: reverting to bisection
     Possible cause: smearing is larger than the electronic band-gap.

     total cpu time spent up to now is      610.5 secs

     total energy              =    -452.02340296 Ry
     estimated scf accuracy    <       0.20893436 Ry

     iteration # 13     ecut=    80.00 Ry     beta= 0.30
     Davidson diagonalization with overlap

---- Real-time Memory Report at c_bands before calling an iterative solver
           185 MiB given to the printing process from OS
             0 MiB allocation reported by mallinfo(arena+hblkhd)
         57138 MiB available memory on the node where the printing process lives
------------------
     ethr =  5.81E-06,  avg # of iterations =  1.7

     total cpu time spent up to now is      643.2 secs

     total energy              =    -452.01906354 Ry
     estimated scf accuracy    <       0.16176228 Ry

     iteration # 14     ecut=    80.00 Ry     beta= 0.30
     Davidson diagonalization with overlap

---- Real-time Memory Report at c_bands before calling an iterative solver
           185 MiB given to the printing process from OS
             0 MiB allocation reported by mallinfo(arena+hblkhd)
         57241 MiB available memory on the node where the printing process lives
------------------
     ethr =  5.81E-06,  avg # of iterations =  3.5

     total cpu time spent up to now is      691.8 secs

     total energy              =    -452.02003249 Ry
     estimated scf accuracy    <       0.03755956 Ry

     iteration # 15     ecut=    80.00 Ry     beta= 0.30
     Davidson diagonalization with overlap

---- Real-time Memory Report at c_bands before calling an iterative solver
           185 MiB given to the printing process from OS
             0 MiB allocation reported by mallinfo(arena+hblkhd)
         57302 MiB available memory on the node where the printing process lives
------------------
     ethr =  5.81E-06,  avg # of iterations =  1.2

     total cpu time spent up to now is      718.6 secs

     total energy              =    -452.01975419 Ry
     estimated scf accuracy    <       0.03594064 Ry

     iteration # 16     ecut=    80.00 Ry     beta= 0.30
     Davidson diagonalization with overlap

---- Real-time Memory Report at c_bands before calling an iterative solver
           185 MiB given to the printing process from OS
             0 MiB allocation reported by mallinfo(arena+hblkhd)
         57155 MiB available memory on the node where the printing process lives
------------------
     ethr =  5.81E-06,  avg # of iterations =  2.4

     total cpu time spent up to now is      757.4 secs

     total energy              =    -452.01888934 Ry
     estimated scf accuracy    <       0.01784498 Ry

     iteration # 17     ecut=    80.00 Ry     beta= 0.30
     Davidson diagonalization with overlap

---- Real-time Memory Report at c_bands before calling an iterative solver
           185 MiB given to the printing process from OS
             0 MiB allocation reported by mallinfo(arena+hblkhd)
         57329 MiB available memory on the node where the printing process lives
------------------
     ethr =  5.81E-06,  avg # of iterations =  3.0

     total cpu time spent up to now is      802.9 secs

     total energy              =    -452.01909162 Ry
     estimated scf accuracy    <       0.00110541 Ry

     iteration # 18     ecut=    80.00 Ry     beta= 0.30
     Davidson diagonalization with overlap

---- Real-time Memory Report at c_bands before calling an iterative solver
           185 MiB given to the printing process from OS
             0 MiB allocation reported by mallinfo(arena+hblkhd)
         57171 MiB available memory on the node where the printing process lives
------------------
     ethr =  2.76E-06,  avg # of iterations =  5.8

     total cpu time spent up to now is      878.5 secs

     total energy              =    -452.01967840 Ry
     estimated scf accuracy    <       0.00016211 Ry

     iteration # 19     ecut=    80.00 Ry     beta= 0.30
     Davidson diagonalization with overlap

---- Real-time Memory Report at c_bands before calling an iterative solver
           185 MiB given to the printing process from OS
             0 MiB allocation reported by mallinfo(arena+hblkhd)
         57142 MiB available memory on the node where the printing process lives
------------------
     c_bands:  1 eigenvalues not converged
     ethr =  4.05E-07,  avg # of iterations =  8.2

     total cpu time spent up to now is      978.9 secs

     total energy              =    -452.01982349 Ry
     estimated scf accuracy    <       0.00025536 Ry

     iteration # 20     ecut=    80.00 Ry     beta= 0.30
     Davidson diagonalization with overlap

---- Real-time Memory Report at c_bands before calling an iterative solver
           185 MiB given to the printing process from OS
             0 MiB allocation reported by mallinfo(arena+hblkhd)
         57159 MiB available memory on the node where the printing process lives
------------------
     ethr =  4.05E-07,  avg # of iterations =  1.2

     total cpu time spent up to now is     1006.2 secs

     total energy              =    -452.01983538 Ry
     estimated scf accuracy    <       0.00051975 Ry

     iteration # 21     ecut=    80.00 Ry     beta= 0.30
     Davidson diagonalization with overlap

---- Real-time Memory Report at c_bands before calling an iterative solver
           185 MiB given to the printing process from OS
             0 MiB allocation reported by mallinfo(arena+hblkhd)
         57218 MiB available memory on the node where the printing process lives
------------------
     ethr =  4.05E-07,  avg # of iterations =  2.0

     total cpu time spent up to now is     1042.4 secs

     total energy              =    -452.01983191 Ry
     estimated scf accuracy    <       0.00148487 Ry

     iteration # 22     ecut=    80.00 Ry     beta= 0.30
     Davidson diagonalization with overlap

---- Real-time Memory Report at c_bands before calling an iterative solver
           185 MiB given to the printing process from OS
             0 MiB allocation reported by mallinfo(arena+hblkhd)
         57262 MiB available memory on the node where the printing process lives
------------------
     ethr =  4.05E-07,  avg # of iterations =  1.1

     total cpu time spent up to now is     1069.3 secs

     total energy              =    -452.01982080 Ry
     estimated scf accuracy    <       0.00096003 Ry

     iteration # 23     ecut=    80.00 Ry     beta= 0.30
     Davidson diagonalization with overlap

---- Real-time Memory Report at c_bands before calling an iterative solver
           185 MiB given to the printing process from OS
             0 MiB allocation reported by mallinfo(arena+hblkhd)
         57219 MiB available memory on the node where the printing process lives
------------------
     ethr =  4.05E-07,  avg # of iterations =  1.0

     total cpu time spent up to now is     1095.1 secs

     total energy              =    -452.01981731 Ry
     estimated scf accuracy    <       0.00052350 Ry

     iteration # 24     ecut=    80.00 Ry     beta= 0.30
     Davidson diagonalization with overlap

---- Real-time Memory Report at c_bands before calling an iterative solver
           185 MiB given to the printing process from OS
             0 MiB allocation reported by mallinfo(arena+hblkhd)
         57204 MiB available memory on the node where the printing process lives
------------------
     ethr =  4.05E-07,  avg # of iterations =  1.0

     total cpu time spent up to now is     1120.7 secs

     total energy              =    -452.01980493 Ry
     estimated scf accuracy    <       0.00027398 Ry

     iteration # 25     ecut=    80.00 Ry     beta= 0.30
     Davidson diagonalization with overlap

---- Real-time Memory Report at c_bands before calling an iterative solver
           185 MiB given to the printing process from OS
             0 MiB allocation reported by mallinfo(arena+hblkhd)
         57064 MiB available memory on the node where the printing process lives
------------------
     ethr =  4.05E-07,  avg # of iterations =  1.0

     total cpu time spent up to now is     1147.0 secs

     total energy              =    -452.01981139 Ry
     estimated scf accuracy    <       0.00000227 Ry

     iteration # 26     ecut=    80.00 Ry     beta= 0.30
     Davidson diagonalization with overlap

---- Real-time Memory Report at c_bands before calling an iterative solver
           185 MiB given to the printing process from OS
             0 MiB allocation reported by mallinfo(arena+hblkhd)
         57271 MiB available memory on the node where the printing process lives
------------------
     c_bands:  1 eigenvalues not converged
     c_bands:  1 eigenvalues not converged
     ethr =  5.67E-09,  avg # of iterations = 13.1

     total cpu time spent up to now is     1290.1 secs

     total energy              =    -452.01981931 Ry
     estimated scf accuracy    <       0.00000052 Ry

     iteration # 27     ecut=    80.00 Ry     beta= 0.30
     Davidson diagonalization with overlap

---- Real-time Memory Report at c_bands before calling an iterative solver
           185 MiB given to the printing process from OS
             0 MiB allocation reported by mallinfo(arena+hblkhd)
         57062 MiB available memory on the node where the printing process lives
------------------
     c_bands:  2 eigenvalues not converged
     c_bands:  1 eigenvalues not converged
     ethr =  1.29E-09,  avg # of iterations = 10.3

     total cpu time spent up to now is     1412.4 secs

     total energy              =    -452.01982280 Ry
     estimated scf accuracy    <       0.00007656 Ry

     iteration # 28     ecut=    80.00 Ry     beta= 0.30
     Davidson diagonalization with overlap

---- Real-time Memory Report at c_bands before calling an iterative solver
           185 MiB given to the printing process from OS
             0 MiB allocation reported by mallinfo(arena+hblkhd)
         57200 MiB available memory on the node where the printing process lives
------------------
     c_bands:  1 eigenvalues not converged
     c_bands:  2 eigenvalues not converged
     ethr =  1.29E-09,  avg # of iterations =  5.7

     total cpu time spent up to now is     1484.9 secs

     total energy              =    -452.01982396 Ry
     estimated scf accuracy    <       0.00001733 Ry

     iteration # 29     ecut=    80.00 Ry     beta= 0.30
     Davidson diagonalization with overlap

---- Real-time Memory Report at c_bands before calling an iterative solver
           185 MiB given to the printing process from OS
             0 MiB allocation reported by mallinfo(arena+hblkhd)
         57077 MiB available memory on the node where the printing process lives
------------------
     c_bands:  1 eigenvalues not converged
     ethr =  1.29E-09,  avg # of iterations =  3.0

     total cpu time spent up to now is     1530.2 secs

     total energy              =    -452.01982326 Ry
     estimated scf accuracy    <       0.00001988 Ry

     iteration # 30     ecut=    80.00 Ry     beta= 0.30
     Davidson diagonalization with overlap

---- Real-time Memory Report at c_bands before calling an iterative solver
           185 MiB given to the printing process from OS
             0 MiB allocation reported by mallinfo(arena+hblkhd)
         57245 MiB available memory on the node where the printing process lives
------------------
     ethr =  1.29E-09,  avg # of iterations =  5.8

     total cpu time spent up to now is     1604.3 secs

     total energy              =    -452.01982373 Ry
     estimated scf accuracy    <       0.00000023 Ry

     iteration # 31     ecut=    80.00 Ry     beta= 0.30
     Davidson diagonalization with overlap

---- Real-time Memory Report at c_bands before calling an iterative solver
           185 MiB given to the printing process from OS
             0 MiB allocation reported by mallinfo(arena+hblkhd)
         56890 MiB available memory on the node where the printing process lives
------------------
     ethr =  5.67E-10,  avg # of iterations =  4.8

     total cpu time spent up to now is     1666.1 secs

     total energy              =    -452.01982383 Ry
     estimated scf accuracy    <       0.00000021 Ry

     iteration # 32     ecut=    80.00 Ry     beta= 0.30
     Davidson diagonalization with overlap

---- Real-time Memory Report at c_bands before calling an iterative solver
           185 MiB given to the printing process from OS
             0 MiB allocation reported by mallinfo(arena+hblkhd)
         57111 MiB available memory on the node where the printing process lives
------------------
     ethr =  5.13E-10,  avg # of iterations =  1.1

     total cpu time spent up to now is     1693.1 secs

     total energy              =    -452.01982383 Ry
     estimated scf accuracy    <       0.00000050 Ry

     iteration # 33     ecut=    80.00 Ry     beta= 0.30
     Davidson diagonalization with overlap

---- Real-time Memory Report at c_bands before calling an iterative solver
           185 MiB given to the printing process from OS
             0 MiB allocation reported by mallinfo(arena+hblkhd)
         57260 MiB available memory on the node where the printing process lives
------------------
     ethr =  5.13E-10,  avg # of iterations =  1.5

     total cpu time spent up to now is     1723.2 secs

     total energy              =    -452.01982386 Ry
     estimated scf accuracy    <       0.00000001 Ry

     iteration # 34     ecut=    80.00 Ry     beta= 0.30
     Davidson diagonalization with overlap

---- Real-time Memory Report at c_bands before calling an iterative solver
           185 MiB given to the printing process from OS
             0 MiB allocation reported by mallinfo(arena+hblkhd)
         56980 MiB available memory on the node where the printing process lives
------------------
     c_bands:  1 eigenvalues not converged
     ethr =  2.79E-11,  avg # of iterations =  9.8

     total cpu time spent up to now is     1835.4 secs

     total energy              =    -452.01982386 Ry
     estimated scf accuracy    <       0.00000009 Ry

     iteration # 35     ecut=    80.00 Ry     beta= 0.30
     Davidson diagonalization with overlap

---- Real-time Memory Report at c_bands before calling an iterative solver
           185 MiB given to the printing process from OS
             0 MiB allocation reported by mallinfo(arena+hblkhd)
         57152 MiB available memory on the node where the printing process lives
------------------
     ethr =  2.79E-11,  avg # of iterations =  7.2

     total cpu time spent up to now is     1922.1 secs

     total energy              =    -452.01982386 Ry
     estimated scf accuracy    <       0.00000113 Ry

     iteration # 36     ecut=    80.00 Ry     beta= 0.30
     Davidson diagonalization with overlap

---- Real-time Memory Report at c_bands before calling an iterative solver
           185 MiB given to the printing process from OS
             0 MiB allocation reported by mallinfo(arena+hblkhd)
         57005 MiB available memory on the node where the printing process lives
------------------
     ethr =  2.79E-11,  avg # of iterations =  5.6

     total cpu time spent up to now is     1992.2 secs

     total energy              =    -452.01982388 Ry
     estimated scf accuracy    <       0.00000001 Ry

     iteration # 37     ecut=    80.00 Ry     beta= 0.30
     Davidson diagonalization with overlap

---- Real-time Memory Report at c_bands before calling an iterative solver
           185 MiB given to the printing process from OS
             0 MiB allocation reported by mallinfo(arena+hblkhd)
         57241 MiB available memory on the node where the printing process lives
------------------
     ethr =  2.79E-11,  avg # of iterations =  1.1

     total cpu time spent up to now is     2019.0 secs

     total energy              =    -452.01982388 Ry
     estimated scf accuracy    <       0.00000002 Ry

     iteration # 38     ecut=    80.00 Ry     beta= 0.30
     Davidson diagonalization with overlap

---- Real-time Memory Report at c_bands before calling an iterative solver
           185 MiB given to the printing process from OS
             0 MiB allocation reported by mallinfo(arena+hblkhd)
         56926 MiB available memory on the node where the printing process lives
------------------
     ethr =  2.79E-11,  avg # of iterations =  1.0

     total cpu time spent up to now is     2045.1 secs

     total energy              =    -452.01982388 Ry
     estimated scf accuracy    <          4.0E-09 Ry

     iteration # 39     ecut=    80.00 Ry     beta= 0.30
     Davidson diagonalization with overlap

---- Real-time Memory Report at c_bands before calling an iterative solver
           185 MiB given to the printing process from OS
             0 MiB allocation reported by mallinfo(arena+hblkhd)
         57270 MiB available memory on the node where the printing process lives
------------------
     ethr =  1.01E-11,  avg # of iterations =  2.8

     total cpu time spent up to now is     2087.9 secs

     total energy              =    -452.01982388 Ry
     estimated scf accuracy    <          5.7E-10 Ry

     iteration # 40     ecut=    80.00 Ry     beta= 0.30
     Davidson diagonalization with overlap

---- Real-time Memory Report at c_bands before calling an iterative solver
           185 MiB given to the printing process from OS
             0 MiB allocation reported by mallinfo(arena+hblkhd)
         57238 MiB available memory on the node where the printing process lives
------------------
     ethr =  1.43E-12,  avg # of iterations =  4.8

     total cpu time spent up to now is     2150.5 secs

     total energy              =    -452.01982388 Ry
     estimated scf accuracy    <          3.6E-09 Ry

     iteration # 41     ecut=    80.00 Ry     beta= 0.30
     Davidson diagonalization with overlap

---- Real-time Memory Report at c_bands before calling an iterative solver
           185 MiB given to the printing process from OS
             0 MiB allocation reported by mallinfo(arena+hblkhd)
         57078 MiB available memory on the node where the printing process lives
------------------
     ethr =  1.43E-12,  avg # of iterations =  3.0

     total cpu time spent up to now is     2195.1 secs

     total energy              =    -452.01982388 Ry
     estimated scf accuracy    <       0.00000002 Ry

     iteration # 42     ecut=    80.00 Ry     beta= 0.30
     Davidson diagonalization with overlap

---- Real-time Memory Report at c_bands before calling an iterative solver
           185 MiB given to the printing process from OS
             0 MiB allocation reported by mallinfo(arena+hblkhd)
         57509 MiB available memory on the node where the printing process lives
------------------
     ethr =  1.43E-12,  avg # of iterations =  1.1

     total cpu time spent up to now is     2223.1 secs

     total energy              =    -452.01982388 Ry
     estimated scf accuracy    <       0.00000002 Ry

     iteration # 43     ecut=    80.00 Ry     beta= 0.30
     Davidson diagonalization with overlap

---- Real-time Memory Report at c_bands before calling an iterative solver
           185 MiB given to the printing process from OS
             0 MiB allocation reported by mallinfo(arena+hblkhd)
         57253 MiB available memory on the node where the printing process lives
------------------
     ethr =  1.43E-12,  avg # of iterations =  1.1

     total cpu time spent up to now is     2250.3 secs

     total energy              =    -452.01982388 Ry
     estimated scf accuracy    <       0.00000001 Ry

     iteration # 44     ecut=    80.00 Ry     beta= 0.30
     Davidson diagonalization with overlap

---- Real-time Memory Report at c_bands before calling an iterative solver
           185 MiB given to the printing process from OS
             0 MiB allocation reported by mallinfo(arena+hblkhd)
         57213 MiB available memory on the node where the printing process lives
------------------
     ethr =  1.43E-12,  avg # of iterations =  1.1

     total cpu time spent up to now is     2276.0 secs

     total energy              =    -452.01982388 Ry
     estimated scf accuracy    <          5.9E-09 Ry

     iteration # 45     ecut=    80.00 Ry     beta= 0.30
     Davidson diagonalization with overlap

---- Real-time Memory Report at c_bands before calling an iterative solver
           185 MiB given to the printing process from OS
             0 MiB allocation reported by mallinfo(arena+hblkhd)
         57028 MiB available memory on the node where the printing process lives
------------------
     ethr =  1.43E-12,  avg # of iterations =  1.0

     total cpu time spent up to now is     2301.8 secs

     total energy              =    -452.01982388 Ry
     estimated scf accuracy    <          1.9E-09 Ry

     iteration # 46     ecut=    80.00 Ry     beta= 0.30
     Davidson diagonalization with overlap

---- Real-time Memory Report at c_bands before calling an iterative solver
           185 MiB given to the printing process from OS
             0 MiB allocation reported by mallinfo(arena+hblkhd)
         57190 MiB available memory on the node where the printing process lives
------------------
     ethr =  1.43E-12,  avg # of iterations =  1.1

     total cpu time spent up to now is     2329.2 secs

     total energy              =    -452.01982388 Ry
     estimated scf accuracy    <          9.7E-10 Ry

     iteration # 47     ecut=    80.00 Ry     beta= 0.30
     Davidson diagonalization with overlap

---- Real-time Memory Report at c_bands before calling an iterative solver
           185 MiB given to the printing process from OS
             0 MiB allocation reported by mallinfo(arena+hblkhd)
         57156 MiB available memory on the node where the printing process lives
------------------
     ethr =  1.43E-12,  avg # of iterations =  1.1

     total cpu time spent up to now is     2357.0 secs

     total energy              =    -452.01982388 Ry
     estimated scf accuracy    <          5.9E-10 Ry

     iteration # 48     ecut=    80.00 Ry     beta= 0.30
     Davidson diagonalization with overlap

---- Real-time Memory Report at c_bands before calling an iterative solver
           185 MiB given to the printing process from OS
             0 MiB allocation reported by mallinfo(arena+hblkhd)
         56984 MiB available memory on the node where the printing process lives
------------------
     ethr =  1.43E-12,  avg # of iterations =  1.1

     total cpu time spent up to now is     2384.0 secs

     End of self-consistent calculation

          k = 0.0000 0.0000 0.0000 ( 12893 PWs)   bands (ev):

   -55.5761 -35.2511 -31.8005 -31.8005 -31.8005 -16.3638 -16.3638 -16.3638
    -8.3007  -7.6209  -7.6209   1.0962   1.0962   1.0962   2.4966   2.4966
     2.4966   2.8996   2.8996   2.9751   2.9751   2.9751   3.0897   3.0897

     occupation numbers 
     1.0000   1.0000   1.0000   1.0000   1.0000   1.0000   1.0000   1.0000
     1.0000   1.0000   1.0000   1.0000   1.0000   1.0000   1.0000   1.0000
     1.0000   0.7583   0.7583   0.3099   0.3099   0.3099  -0.0312  -0.0312

          k = 0.0000 0.0000 0.1667 ( 12821 PWs)   bands (ev):

   -55.5761 -35.2510 -31.8005 -31.8005 -31.8005 -16.3708 -16.3636 -16.3636
    -8.2487  -7.6257  -7.6180   1.0154   1.1439   1.1439   2.2638   2.3245
     2.3245   2.5528   2.9269   2.9787   2.9878   2.9878   3.1052   3.1511

     occupation numbers 
     1.0000   1.0000   1.0000   1.0000   1.0000   1.0000   1.0000   1.0000
     1.0000   1.0000   1.0000   1.0000   1.0000   1.0000   1.0000   1.0000
     1.0000   1.0002   0.6029   0.2895   0.2406   0.2406  -0.0352  -0.0265

          k = 0.0000 0.0000 0.3333 ( 12721 PWs)   bands (ev):

   -55.5761 -35.2509 -31.8006 -31.8005 -31.8005 -16.3847 -16.3634 -16.3634
    -8.1360  -7.6426  -7.6122   0.9575   1.2720   1.2720   1.7946   1.9933
     2.0418   2.0418   2.8425   2.8425   2.9806   2.9860   3.3209   3.3725

     occupation numbers 
     1.0000   1.0000   1.0000   1.0000   1.0000   1.0000   1.0000   1.0000
     1.0000   1.0000   1.0000   1.0000   1.0000   1.0000   1.0000   1.0000
     1.0000   1.0000   0.9740   0.9740   0.2788   0.2501  -0.0003  -0.0000

          k = 0.0000 0.0000-0.5000 ( 12732 PWs)   bands (ev):

   -55.5761 -35.2509 -31.8006 -31.8005 -31.8005 -16.3916 -16.3633 -16.3633
    -8.0728  -7.6571  -7.6093   1.0802   1.3291   1.3749   1.3749   1.8776
     1.8776   1.8895   2.7785   2.7785   2.9896   3.0081   3.3971   3.4682

     occupation numbers 
     1.0000   1.0000   1.0000   1.0000   1.0000   1.0000   1.0000   1.0000
     1.0000   1.0000   1.0000   1.0000   1.0000   1.0000   1.0000   1.0000
     1.0000   1.0000   1.0354   1.0354   0.2311   0.1445  -0.0000  -0.0000

          k = 0.0000 0.1667 0.1667 ( 12769 PWs)   bands (ev):

   -55.5761 -35.2510 -31.8005 -31.8005 -31.8005 -16.3707 -16.3706 -16.3635
    -8.1966  -7.6252  -7.6194   0.8747   1.1916   1.2608   1.9063   2.2031
     2.3508   2.4504   2.8783   2.9005   2.9719   3.0586   3.0786   3.1663

     occupation numbers 
     1.0000   1.0000   1.0000   1.0000   1.0000   1.0000   1.0000   1.0000
     1.0000   1.0000   1.0000   1.0000   1.0000   1.0000   1.0000   1.0000
     1.0000   1.0000   0.8591   0.7539   0.3280  -0.0008  -0.0243  -0.0214

          k = 0.0000 0.1667 0.3333 ( 12735 PWs)   bands (ev):

   -55.5761 -35.2509 -31.8006 -31.8005 -31.8005 -16.3845 -16.3704 -16.3633
    -8.0837  -7.6384  -7.6148   0.7796   1.3209   1.3845   1.4693   1.8900
     1.9742   2.4263   2.6943   2.7355   3.0140   3.0933   3.2165   3.3499

     occupation numbers 
     1.0000   1.0000   1.0000   1.0000   1.0000   1.0000   1.0000   1.0000
     1.0000   1.0000   1.0000   1.0000   1.0000   1.0000   1.0000   1.0000
     1.0000   1.0000   1.0132   1.0263   0.1204  -0.0326  -0.0078  -0.0001

          k = 0.0000 0.1667-0.5000 ( 12760 PWs)   bands (ev):

   -55.5761 -35.2508 -31.8006 -31.8005 -31.8005 -16.3914 -16.3703 -16.3632
    -8.0203  -7.6518  -7.6118   0.8451   1.1171   1.4291   1.5334   1.6543
     1.8260   2.4172   2.5907   2.6586   3.0450   3.0939   3.3182   3.3673

     occupation numbers 
     1.0000   1.0000   1.0000   1.0000   1.0000   1.0000   1.0000   1.0000
     1.0000   1.0000   1.0000   1.0000   1.0000   1.0000   1.0000   1.0000
     1.0000   1.0000   1.0008   1.0058   0.0253  -0.0329  -0.0003  -0.0000

          k = 0.0000 0.3333 0.3333 ( 12806 PWs)   bands (ev):

   -55.5761 -35.2508 -31.8006 -31.8006 -31.8005 -16.3843 -16.3842 -16.3630
    -7.9707  -7.6326  -7.6237   0.5600   1.0545   1.4540   1.5639   1.8434
     1.8573   2.2833   2.5036   2.7197   3.0242   3.2349   3.2722   3.3251

     occupation numbers 
     1.0000   1.0000   1.0000   1.0000   1.0000   1.0000   1.0000   1.0000
     1.0000   1.0000   1.0000   1.0000   1.0000   1.0000   1.0000   1.0000
     1.0000   1.0000   1.0000   1.0210   0.0833  -0.0049  -0.0017  -0.0003

          k = 0.0000 0.3333-0.5000 ( 12754 PWs)   bands (ev):

   -55.5761 -35.2507 -31.8006 -31.8006 -31.8005 -16.3911 -16.3841 -16.3629
    -7.9067  -7.6412  -7.6231   0.4883   0.8752   1.5774   1.6824   1.7400
     1.7401   2.2024   2.3782   2.7422   3.0864   3.1206   3.2942   3.4111

     occupation numbers 
     1.0000   1.0000   1.0000   1.0000   1.0000   1.0000   1.0000   1.0000
     1.0000   1.0000   1.0000   1.0000   1.0000   1.0000   1.0000   1.0000
     1.0000   1.0000   1.0000   1.0285  -0.0296  -0.0347  -0.0008  -0.0000

          k = 0.0000-0.5000-0.5000 ( 12656 PWs)   bands (ev):

   -55.5761 -35.2507 -31.8006 -31.8006 -31.8005 -16.3910 -16.3910 -16.3628
    -7.8416  -7.6358  -7.6358   0.3472   0.7633   1.7031   1.7031   1.8159
     1.8159   1.9481   2.1882   2.8079   3.0438   3.0498   3.3939   3.3939

     occupation numbers 
     1.0000   1.0000   1.0000   1.0000   1.0000   1.0000   1.0000   1.0000
     1.0000   1.0000   1.0000   1.0000   1.0000   1.0000   1.0000   1.0000
     1.0000   1.0000   1.0000   1.0249   0.0279   0.0150  -0.0000  -0.0000

          k = 0.1667 0.1667 0.1667 ( 12821 PWs)   bands (ev):

   -55.5761 -35.2509 -31.8005 -31.8005 -31.8005 -16.3706 -16.3705 -16.3705
    -8.1444  -7.6221  -7.6221   0.7692   1.2759   1.2759   1.9095   1.9095
     2.0515   2.6654   2.8205   2.8205   2.9716   2.9716   3.0397   3.3275

     occupation numbers 
     1.0000   1.0000   1.0000   1.0000   1.0000   1.0000   1.0000   1.0000
     1.0000   1.0000   1.0000   1.0000   1.0000   1.0000   1.0000   1.0000
     1.0000   1.0069   1.0122   1.0122   0.3301   0.3301   0.0379  -0.0002

          k = 0.1667 0.1667 0.3333 ( 12754 PWs)   bands (ev):

   -55.5761 -35.2508 -31.8006 -31.8005 -31.8005 -16.3844 -16.3703 -16.3702
    -8.0313  -7.6345  -7.6160   0.6911   1.2832   1.2843   1.5051   1.6586
     2.0388   2.5797   2.5935   2.7251   2.9921   3.1181   3.1739   3.3146

     occupation numbers 
     1.0000   1.0000   1.0000   1.0000   1.0000   1.0000   1.0000   1.0000
     1.0000   1.0000   1.0000   1.0000   1.0000   1.0000   1.0000   1.0000
     1.0000   1.0005   1.0008   1.0228   0.2184  -0.0350  -0.0189  -0.0004

          k = 0.1667 0.1667-0.5000 ( 12740 PWs)   bands (ev):

   -55.5761 -35.2508 -31.8006 -31.8005 -31.8005 -16.3913 -16.3702 -16.3701
    -7.9676  -7.6470  -7.6129   0.7883   0.9661   1.2632   1.4571   1.6025
     2.2170   2.3264   2.5201   2.6808   3.0099   3.2327   3.2443   3.3331

     occupation numbers 
     1.0000   1.0000   1.0000   1.0000   1.0000   1.0000   1.0000   1.0000
     1.0000   1.0000   1.0000   1.0000   1.0000   1.0000   1.0000   1.0000
     1.0000   1.0000   1.0000   1.0099   0.1368  -0.0052  -0.0038  -0.0002

          k = 0.1667 0.3333 0.3333 ( 12746 PWs)   bands (ev):

   -55.5761 -35.2507 -31.8006 -31.8006 -31.8005 -16.3842 -16.3841 -16.3700
    -7.9183  -7.6293  -7.6219   0.5591   0.9569   1.2822   1.3122   1.8482
     1.8912   2.4949   2.5628   2.7809   3.0246   3.1222   3.1850   3.3898

     occupation numbers 
     1.0000   1.0000   1.0000   1.0000   1.0000   1.0000   1.0000   1.0000
     1.0000   1.0000   1.0000   1.0000   1.0000   1.0000   1.0000   1.0000
     1.0000   1.0000   1.0003   1.0353   0.0819  -0.0344  -0.0155  -0.0000

          k = 0.1667 0.3333-0.5000 ( 12742 PWs)   bands (ev):

   -55.5761 -35.2507 -31.8006 -31.8006 -31.8005 -16.3910 -16.3840 -16.3699
    -7.8540  -7.6372  -7.6208   0.5449   0.7490   1.1813   1.3059   1.8409
     2.0749   2.3086   2.5250   2.7917   3.0599   3.1085   3.2881   3.3947

     occupation numbers 
     1.0000   1.0000   1.0000   1.0000   1.0000   1.0000   1.0000   1.0000
     1.0000   1.0000   1.0000   1.0000   1.0000   1.0000   1.0000   1.0000
     1.0000   1.0000   1.0001   1.0334  -0.0028  -0.0354  -0.0010  -0.0000

          k = 0.1667-0.5000-0.5000 ( 12744 PWs)   bands (ev):

   -55.5761 -35.2506 -31.8006 -31.8006 -31.8005 -16.3909 -16.3909 -16.3698
    -7.7883  -7.6323  -7.6323   0.4190   0.6491   1.2031   1.2031   1.9518
     2.0974   2.3406   2.3406   2.8472   3.0440   3.0466   3.3806   3.3806

     occupation numbers 
     1.0000   1.0000   1.0000   1.0000   1.0000   1.0000   1.0000   1.0000
     1.0000   1.0000   1.0000   1.0000   1.0000   1.0000   1.0000   1.0000
     1.0000   1.0000   1.0000   0.9627   0.0276   0.0219  -0.0000  -0.0000

          k = 0.3333 0.3333 0.3333 ( 12746 PWs)   bands (ev):

   -55.5761 -35.2506 -31.8006 -31.8006 -31.8006 -16.3839 -16.3838 -16.3838
    -7.8065  -7.6225  -7.6225   0.5036   0.8728   0.9546   0.9546   1.9293
     1.9293   2.6535   2.6535   3.0227   3.0227   3.0429   3.0479   3.4437

     occupation numbers 
     1.0000   1.0000   1.0000   1.0000   1.0000   1.0000   1.0000   1.0000
     1.0000   1.0000   1.0000   1.0000   1.0000   1.0000   1.0000   1.0000
     1.0000   1.0051   1.0051   0.0885   0.0885   0.0301   0.0190  -0.0000

          k = 0.3333 0.3333-0.5000 ( 12734 PWs)   bands (ev):

   -55.5761 -35.2506 -31.8006 -31.8006 -31.8006 -16.3907 -16.3837 -16.3837
    -7.7427  -7.6292  -7.6191   0.5080   0.6334   0.8304   0.9642   1.9459
     1.9835   2.6682   2.7048   2.9458   3.0231   3.0625   3.2461   3.3549

     occupation numbers 
     1.0000   1.0000   1.0000   1.0000   1.0000   1.0000   1.0000   1.0000
     1.0000   1.0000   1.0000   1.0000   1.0000   1.0000   1.0000   1.0000
     1.0000   1.0074   1.0162   0.4860   0.0870  -0.0067  -0.0036  -0.0001

          k = 0.3333-0.5000-0.5000 ( 12744 PWs)   bands (ev):

   -55.5761 -35.2505 -31.8006 -31.8006 -31.8006 -16.3906 -16.3906 -16.3836
    -7.6784  -7.6252  -7.6252   0.3887   0.5821   0.8155   0.8155   1.9592
     1.9906   2.7922   2.7922   2.9512   3.0169   3.0461   3.3267   3.3267

     occupation numbers 
     1.0000   1.0000   1.0000   1.0000   1.0000   1.0000   1.0000   1.0000
     1.0000   1.0000   1.0000   1.0000   1.0000   1.0000   1.0000   1.0000
     1.0000   1.0332   1.0332   0.4529   0.1093   0.0229  -0.0003  -0.0003

          k =-0.5000-0.5000-0.5000 ( 12712 PWs)   bands (ev):

   -55.5761 -35.2505 -31.8006 -31.8006 -31.8006 -16.3904 -16.3904 -16.3904
    -7.6217  -7.6217  -7.6217   0.2483   0.6769   0.6769   0.6769   1.9629
     1.9629   2.9985   2.9985   2.9985   3.0389   3.0389   3.2574   3.2574

     occupation numbers 
     1.0000   1.0000   1.0000   1.0000   1.0000   1.0000   1.0000   1.0000
     1.0000   1.0000   1.0000   1.0000   1.0000   1.0000   1.0000   1.0000
     1.0000   0.1876   0.1876   0.1876   0.0399   0.0399  -0.0026  -0.0026

     the Fermi energy is     2.9436 ev

!    total energy              =    -452.01982388 Ry
     estimated scf accuracy    <          3.4E-11 Ry
     smearing contrib. (-TS)   =       0.00054368 Ry
     internal energy E=F+TS    =    -452.02036756 Ry

     The total energy is F=E-TS. E is the sum of the following terms:
     one-electron contribution =    -120.30130228 Ry
     hartree contribution      =      69.48960286 Ry
     xc contribution           =     -45.38258447 Ry
     ewald contribution        =    -157.45253483 Ry
     one-center paw contrib.   =    -198.37354884 Ry
      -> PAW hartree energy AE =      47.00620915 Ry
      -> PAW hartree energy PS =     -46.78421579 Ry
      -> PAW xc energy AE      =     -71.44922276 Ry
      -> PAW xc energy PS      =      11.23987994 Ry
      -> total E_H with PAW    =      69.71159622 Ry
      -> total E_XC with PAW   =    -105.59192729 Ry

     convergence has been achieved in  48 iterations

     Forces acting on atoms (cartesian axes, Ry/au):

     atom    1 type  1   force =     0.00000000    0.00000000    0.00000000
     atom    2 type  2   force =     0.00000000    0.00000000    0.00000000
     atom    3 type  3   force =     0.00000000    0.00000000    0.00000000
     atom    4 type  3   force =     0.00000000    0.00000000    0.00000000
     atom    5 type  3   force =     0.00000000    0.00000000    0.00000000
     The non-local contrib.  to forces
     atom    1 type  1   force =     0.00000000    0.00000000    0.00000000
     atom    2 type  2   force =     0.00000000    0.00000000    0.00000000
     atom    3 type  3   force =     0.00000000    0.00000000    0.00000000
     atom    4 type  3   force =     0.00000000    0.00000000    0.00000000
     atom    5 type  3   force =     0.00000000    0.00000000    0.00000000
     The ionic contribution  to forces
     atom    1 type  1   force =    -0.00000000   -0.00000000   -0.00000000
     atom    2 type  2   force =     0.00000000    0.00000000    0.00000000
     atom    3 type  3   force =     0.00000000   -0.00000000   -0.00000000
     atom    4 type  3   force =    -0.00000000    0.00000000   -0.00000000
     atom    5 type  3   force =    -0.00000000   -0.00000000    0.00000000
     The local contribution  to forces
     atom    1 type  1   force =     0.00000000    0.00000000    0.00000000
     atom    2 type  2   force =     0.00000000    0.00000000    0.00000000
     atom    3 type  3   force =     0.00000000    0.00000000   -0.00000000
     atom    4 type  3   force =     0.00000000    0.00000000   -0.00000000
     atom    5 type  3   force =     0.00000000    0.00000000    0.00000000
     The core correction contribution to forces
     atom    1 type  1   force =     0.00000000    0.00000000    0.00000000
     atom    2 type  2   force =    -0.00000000   -0.00000000   -0.00000000
     atom    3 type  3   force =    -0.00000000    0.00000000    0.00000000
     atom    4 type  3   force =     0.00000000   -0.00000000    0.00000000
     atom    5 type  3   force =     0.00000000    0.00000000   -0.00000000
     The Hubbard contrib.    to forces
     atom    1 type  1   force =     0.00000000    0.00000000    0.00000000
     atom    2 type  2   force =     0.00000000    0.00000000    0.00000000
     atom    3 type  3   force =     0.00000000    0.00000000    0.00000000
     atom    4 type  3   force =     0.00000000    0.00000000    0.00000000
     atom    5 type  3   force =     0.00000000    0.00000000    0.00000000
     The SCF correction term to forces
     atom    1 type  1   force =    -0.00000000    0.00000000    0.00000000
     atom    2 type  2   force =     0.00000000   -0.00000000    0.00000000
     atom    3 type  3   force =     0.00000000    0.00000000    0.00000000
     atom    4 type  3   force =     0.00000000    0.00000000    0.00000000
     atom    5 type  3   force =     0.00000000   -0.00000000   -0.00000000

     Total force =     0.000000     Total SCF correction =     0.000000


     Computing stress (Cartesian axis) and pressure

          total   stress  (Ry/bohr**3)                   (kbar)     P=      -57.02
  -0.00038765   0.00000000   0.00000000          -57.02        0.00        0.00
   0.00000000  -0.00038765   0.00000000            0.00      -57.02        0.00
   0.00000000   0.00000000  -0.00038765            0.00        0.00      -57.02

     kinetic stress (kbar)   8757.02      0.00      0.00
                                0.00   8757.02      0.00
                                0.00      0.00   8757.02

     local   stress (kbar)  -4396.88     -0.00      0.00
                               -0.00  -4396.88     -0.00
                                0.00     -0.00  -4396.88

     nonloc. stress (kbar)   1570.56      0.00      0.00
                                0.00   1570.56      0.00
                                0.00      0.00   1570.56

     hartree stress (kbar)   3227.82      0.00      0.00
                                0.00   3227.82      0.00
                                0.00      0.00   3227.82

     exc-cor stress (kbar)   -791.51     -0.00      0.00
                               -0.00   -791.51      0.00
                                0.00      0.00   -791.51

     corecor stress (kbar)  -1110.29     -0.00     -0.00
                               -0.00  -1110.29      0.00
                               -0.00      0.00  -1110.29

     ewald   stress (kbar)  -7313.74      0.00     -0.00
                                0.00  -7313.74     -0.00
                               -0.00     -0.00  -7313.74

     hubbard stress (kbar)      0.00      0.00      0.00
                                0.00      0.00      0.00
                                0.00      0.00      0.00

     DFT-D   stress (kbar)      0.00      0.00      0.00
                                0.00      0.00      0.00
                                0.00      0.00      0.00

     XDM     stress (kbar)      0.00      0.00      0.00
                                0.00      0.00      0.00
                                0.00      0.00      0.00

     dft-nl  stress (kbar)      0.00      0.00      0.00
                                0.00      0.00      0.00
                                0.00      0.00      0.00

     TS-vdW  stress (kbar)      0.00      0.00      0.00
                                0.00      0.00      0.00
                                0.00      0.00      0.00

     MDB     stress (kbar)      0.00      0.00      0.00
                                0.00      0.00      0.00
                                0.00      0.00      0.00

     3D-RISM stress (kbar)      0.00      0.00      0.00
                                0.00      0.00      0.00
                                0.00      0.00      0.00


     BFGS Geometry Optimization
     Energy error            =      0.0E+00 Ry
     Gradient error          =      0.0E+00 Ry/Bohr
     Cell gradient error     =      5.7E+01 kbar

     number of scf cycles    =   1
     number of bfgs steps    =   0

     enthalpy           new  =    -452.0198238835 Ry

     new trust radius        =       0.0629744017 bohr
     new conv_thr            =            1.0E-10 Ry

     new unit-cell volume =   1025.24696 a.u.^3 (   151.92592 Ang^3 )
     density =      2.01247 g/cm^3

CELL_PARAMETERS (angstrom)
   5.335936210   0.000000000   0.000000000
   0.000000000   5.335936210   0.000000000
   0.000000000   0.000000000   5.335936210

ATOMIC_POSITIONS (crystal)
Ca               0.0000000000        0.0000000000        0.0000000000
Ti               0.5000000000        0.5000000000        0.5000000000
S                0.5000000000        0.0000000000        0.0000000000
S                0.0000000000        0.5000000000        0.0000000000
S                0.0000000000        0.0000000000        0.5000000000



     Writing config-only to output data dir ./tmp/catis3.save/ :
     XML data file
     NEW-OLD atomic charge density approx. for the potential

     total cpu time spent up to now is     2411.5 secs

     Self-consistent Calculation

     iteration #  1     ecut=    80.00 Ry     beta= 0.30
     Davidson diagonalization with overlap

---- Real-time Memory Report at c_bands before calling an iterative solver
           194 MiB given to the printing process from OS
             0 MiB allocation reported by mallinfo(arena+hblkhd)
         57379 MiB available memory on the node where the printing process lives
------------------
     ethr =  1.00E-06,  avg # of iterations =  8.7

     total cpu time spent up to now is     2514.4 secs

     total energy              =    -452.03081233 Ry
     estimated scf accuracy    <       0.00140059 Ry

     iteration #  2     ecut=    80.00 Ry     beta= 0.30
     Davidson diagonalization with overlap

---- Real-time Memory Report at c_bands before calling an iterative solver
           194 MiB given to the printing process from OS
             0 MiB allocation reported by mallinfo(arena+hblkhd)
         57039 MiB available memory on the node where the printing process lives
------------------
     ethr =  3.50E-06,  avg # of iterations =  8.2

     total cpu time spent up to now is     2610.6 secs

     total energy              =    -452.02759550 Ry
     estimated scf accuracy    <       0.19916841 Ry

     iteration #  3     ecut=    80.00 Ry     beta= 0.30
     Davidson diagonalization with overlap

---- Real-time Memory Report at c_bands before calling an iterative solver
           194 MiB given to the printing process from OS
             0 MiB allocation reported by mallinfo(arena+hblkhd)
         57347 MiB available memory on the node where the printing process lives
------------------
     ethr =  3.50E-06,  avg # of iterations =  9.1

     total cpu time spent up to now is     2717.0 secs

     total energy              =    -452.03112703 Ry
     estimated scf accuracy    <       0.00005504 Ry

     iteration #  4     ecut=    80.00 Ry     beta= 0.30
     Davidson diagonalization with overlap

---- Real-time Memory Report at c_bands before calling an iterative solver
           194 MiB given to the printing process from OS
             0 MiB allocation reported by mallinfo(arena+hblkhd)
         57228 MiB available memory on the node where the printing process lives
------------------
     ethr =  1.38E-07,  avg # of iterations =  4.2

     total cpu time spent up to now is     2773.8 secs

     total energy              =    -452.03111028 Ry
     estimated scf accuracy    <       0.00000694 Ry

     iteration #  5     ecut=    80.00 Ry     beta= 0.30
     Davidson diagonalization with overlap

---- Real-time Memory Report at c_bands before calling an iterative solver
           194 MiB given to the printing process from OS
             0 MiB allocation reported by mallinfo(arena+hblkhd)
         57106 MiB available memory on the node where the printing process lives
------------------
     ethr =  1.73E-08,  avg # of iterations =  4.8

     total cpu time spent up to now is     2839.5 secs

     total energy              =    -452.03109028 Ry
     estimated scf accuracy    <       0.00001064 Ry

     iteration #  6     ecut=    80.00 Ry     beta= 0.30
     Davidson diagonalization with overlap

---- Real-time Memory Report at c_bands before calling an iterative solver
           194 MiB given to the printing process from OS
             0 MiB allocation reported by mallinfo(arena+hblkhd)
         57185 MiB available memory on the node where the printing process lives
------------------
     ethr =  1.73E-08,  avg # of iterations =  2.2

     total cpu time spent up to now is     2878.0 secs

     total energy              =    -452.03109149 Ry
     estimated scf accuracy    <       0.00000119 Ry

     iteration #  7     ecut=    80.00 Ry     beta= 0.30
     Davidson diagonalization with overlap

---- Real-time Memory Report at c_bands before calling an iterative solver
           194 MiB given to the printing process from OS
             0 MiB allocation reported by mallinfo(arena+hblkhd)
         57019 MiB available memory on the node where the printing process lives
------------------
     c_bands:  1 eigenvalues not converged
     ethr =  2.98E-09,  avg # of iterations =  4.0

     total cpu time spent up to now is     2935.2 secs

     total energy              =    -452.03109154 Ry
     estimated scf accuracy    <       0.00000068 Ry

     iteration #  8     ecut=    80.00 Ry     beta= 0.30
     Davidson diagonalization with overlap

---- Real-time Memory Report at c_bands before calling an iterative solver
           194 MiB given to the printing process from OS
             0 MiB allocation reported by mallinfo(arena+hblkhd)
         57058 MiB available memory on the node where the printing process lives
------------------
     ethr =  1.70E-09,  avg # of iterations =  2.2

     total cpu time spent up to now is     2973.2 secs

     total energy              =    -452.03109156 Ry
     estimated scf accuracy    <       0.00000017 Ry

     iteration #  9     ecut=    80.00 Ry     beta= 0.30
     Davidson diagonalization with overlap

---- Real-time Memory Report at c_bands before calling an iterative solver
           194 MiB given to the printing process from OS
             0 MiB allocation reported by mallinfo(arena+hblkhd)
         57118 MiB available memory on the node where the printing process lives
------------------
     ethr =  4.20E-10,  avg # of iterations =  6.5

     total cpu time spent up to now is     3055.5 secs

     total energy              =    -452.03109161 Ry
     estimated scf accuracy    <          6.5E-09 Ry

     iteration # 10     ecut=    80.00 Ry     beta= 0.30
     Davidson diagonalization with overlap

---- Real-time Memory Report at c_bands before calling an iterative solver
           194 MiB given to the printing process from OS
             0 MiB allocation reported by mallinfo(arena+hblkhd)
         57361 MiB available memory on the node where the printing process lives
------------------
     c_bands:  1 eigenvalues not converged
     c_bands:  1 eigenvalues not converged
     c_bands:  1 eigenvalues not converged
     ethr =  1.61E-11,  avg # of iterations = 11.4

     total cpu time spent up to now is     3185.1 secs

     total energy              =    -452.03109163 Ry
     estimated scf accuracy    <       0.00000001 Ry

     iteration # 11     ecut=    80.00 Ry     beta= 0.30
     Davidson diagonalization with overlap

---- Real-time Memory Report at c_bands before calling an iterative solver
           194 MiB given to the printing process from OS
             0 MiB allocation reported by mallinfo(arena+hblkhd)
         57416 MiB available memory on the node where the printing process lives
------------------
     ethr =  1.61E-11,  avg # of iterations =  2.0

     total cpu time spent up to now is     3222.2 secs

     total energy              =    -452.03109162 Ry
     estimated scf accuracy    <          1.7E-10 Ry

     iteration # 12     ecut=    80.00 Ry     beta= 0.30
     Davidson diagonalization with overlap

---- Real-time Memory Report at c_bands before calling an iterative solver
           194 MiB given to the printing process from OS
             0 MiB allocation reported by mallinfo(arena+hblkhd)
         57214 MiB available memory on the node where the printing process lives
------------------
     c_bands:  1 eigenvalues not converged
     c_bands:  2 eigenvalues not converged
     c_bands:  1 eigenvalues not converged
     ethr =  4.27E-13,  avg # of iterations = 10.9

     total cpu time spent up to now is     3346.1 secs

     total energy              =    -452.03109163 Ry
     estimated scf accuracy    <          1.5E-10 Ry

     iteration # 13     ecut=    80.00 Ry     beta= 0.30
     Davidson diagonalization with overlap

---- Real-time Memory Report at c_bands before calling an iterative solver
           194 MiB given to the printing process from OS
             0 MiB allocation reported by mallinfo(arena+hblkhd)
         56996 MiB available memory on the node where the printing process lives
------------------
     ethr =  3.75E-13,  avg # of iterations =  5.0

     total cpu time spent up to now is     3412.7 secs

     End of self-consistent calculation

          k = 0.0000 0.0000 0.0000 ( 12893 PWs)   bands (ev):

   -55.3366 -34.8988 -31.5582 -31.5582 -31.5582 -16.0301 -16.0301 -16.0301
    -8.1344  -7.4110  -7.4110   1.2779   1.2779   1.2779   2.7160   2.7160
     2.7160   3.1411   3.1411   3.2194   3.2194   3.2194   3.3547   3.3547

     occupation numbers 
     1.0000   1.0000   1.0000   1.0000   1.0000   1.0000   1.0000   1.0000
     1.0000   1.0000   1.0000   1.0000   1.0000   1.0000   1.0000   1.0000
     1.0000   0.7961   0.7961   0.3367   0.3367   0.3367  -0.0353  -0.0353

          k = 0.0000 0.0000 0.1683 ( 12821 PWs)   bands (ev):

   -55.3366 -34.8988 -31.5582 -31.5582 -31.5582 -16.0384 -16.0300 -16.0300
    -8.0786  -7.4142  -7.4077   1.1922   1.3263   1.3263   2.4707   2.5342
     2.5342   2.7994   3.1705   3.2235   3.2477   3.2477   3.3581   3.4055

     occupation numbers 
     1.0000   1.0000   1.0000   1.0000   1.0000   1.0000   1.0000   1.0000
     1.0000   1.0000   1.0000   1.0000   1.0000   1.0000   1.0000   1.0000
     1.0000   1.0002   0.6354   0.3134   0.1866   0.1866  -0.0354  -0.0247

          k = 0.0000 0.0000 0.3366 ( 12721 PWs)   bands (ev):

   -55.3366 -34.8986 -31.5583 -31.5582 -31.5582 -16.0548 -16.0297 -16.0297
    -7.9584  -7.4275  -7.4012   1.1301   1.4576   1.4576   2.0091   2.1861
     2.2362   2.2362   3.0984   3.0984   3.2284   3.2316   3.5856   3.6381

     occupation numbers 
     1.0000   1.0000   1.0000   1.0000   1.0000   1.0000   1.0000   1.0000
     1.0000   1.0000   1.0000   1.0000   1.0000   1.0000   1.0000   1.0000
     1.0000   1.0000   0.9571   0.9571   0.2854   0.2682  -0.0002  -0.0000

          k = 0.0000 0.0000-0.5049 ( 12732 PWs)   bands (ev):

   -55.3366 -34.8986 -31.5583 -31.5582 -31.5582 -16.0630 -16.0295 -16.0295
    -7.8918  -7.4398  -7.3979   1.2555   1.5249   1.5650   1.5650   2.0626
     2.0626   2.0771   3.0326   3.0326   3.2357   3.2581   3.6659   3.7392

     occupation numbers 
     1.0000   1.0000   1.0000   1.0000   1.0000   1.0000   1.0000   1.0000
     1.0000   1.0000   1.0000   1.0000   1.0000   1.0000   1.0000   1.0000
     1.0000   1.0000   1.0351   1.0351   0.2464   0.1403  -0.0000  -0.0000

          k = 0.0000 0.1683 0.1683 ( 12769 PWs)   bands (ev):

   -55.3366 -34.8987 -31.5582 -31.5582 -31.5582 -16.0383 -16.0382 -16.0298
    -8.0226  -7.4127  -7.4081   1.0448   1.3745   1.4457   2.1010   2.4068
     2.5899   2.6678   3.1269   3.1574   3.2176   3.3093   3.3272   3.4216

     occupation numbers 
     1.0000   1.0000   1.0000   1.0000   1.0000   1.0000   1.0000   1.0000
     1.0000   1.0000   1.0000   1.0000   1.0000   1.0000   1.0000   1.0000
     1.0000   1.0000   0.8605   0.7109   0.3476  -0.0034  -0.0240  -0.0193

          k = 0.0000 0.1683 0.3366 ( 12735 PWs)   bands (ev):

   -55.3366 -34.8986 -31.5583 -31.5582 -31.5582 -16.0547 -16.0379 -16.0295
    -7.9019  -7.4226  -7.4025   0.9424   1.5063   1.5734   1.6585   2.0923
     2.1662   2.6442   2.9342   2.9869   3.2627   3.3435   3.4752   3.6148

     occupation numbers 
     1.0000   1.0000   1.0000   1.0000   1.0000   1.0000   1.0000   1.0000
     1.0000   1.0000   1.0000   1.0000   1.0000   1.0000   1.0000   1.0000
     1.0000   1.0000   1.0109   1.0271   0.1216  -0.0331  -0.0062  -0.0001

          k = 0.0000 0.1683-0.5049 ( 12760 PWs)   bands (ev):

   -55.3366 -34.8985 -31.5583 -31.5582 -31.5582 -16.0628 -16.0378 -16.0294
    -7.8350  -7.4338  -7.3991   1.0031   1.3094   1.6188   1.7256   1.8352
     2.0096   2.6313   2.8299   2.9078   3.2962   3.3447   3.5814   3.6341

     occupation numbers 
     1.0000   1.0000   1.0000   1.0000   1.0000   1.0000   1.0000   1.0000
     1.0000   1.0000   1.0000   1.0000   1.0000   1.0000   1.0000   1.0000
     1.0000   1.0000   1.0005   1.0058   0.0205  -0.0334  -0.0002  -0.0000

          k = 0.0000 0.3366 0.3366 ( 12806 PWs)   bands (ev):

   -55.3366 -34.8985 -31.5583 -31.5583 -31.5582 -16.0544 -16.0543 -16.0293
    -7.7809  -7.4151  -7.4085   0.7066   1.2427   1.6394   1.7517   2.0298
     2.0557   2.4976   2.7476   2.9526   3.2738   3.4952   3.5313   3.5886

     occupation numbers 
     1.0000   1.0000   1.0000   1.0000   1.0000   1.0000   1.0000   1.0000
     1.0000   1.0000   1.0000   1.0000   1.0000   1.0000   1.0000   1.0000
     1.0000   1.0000   1.0000   1.0159   0.0813  -0.0036  -0.0012  -0.0002

          k = 0.0000 0.3366-0.5049 ( 12754 PWs)   bands (ev):

   -55.3366 -34.8984 -31.5583 -31.5583 -31.5582 -16.0625 -16.0542 -16.0291
    -7.7135  -7.4218  -7.4065   0.6264   1.0642   1.7644   1.8737   1.9213
     1.9269   2.4143   2.6199   2.9766   3.3386   3.3758   3.5554   3.6729

     occupation numbers 
     1.0000   1.0000   1.0000   1.0000   1.0000   1.0000   1.0000   1.0000
     1.0000   1.0000   1.0000   1.0000   1.0000   1.0000   1.0000   1.0000
     1.0000   1.0000   1.0000   1.0237  -0.0312  -0.0335  -0.0005  -0.0000

          k = 0.0000-0.5049-0.5049 ( 12656 PWs)   bands (ev):

   -55.3366 -34.8983 -31.5583 -31.5583 -31.5582 -16.0623 -16.0623 -16.0290
    -7.6458  -7.4157  -7.4157   0.4783   0.9498   1.8832   1.8832   2.0058
     2.0058   2.1493   2.4324   3.0469   3.2940   3.3025   3.6610   3.6610

     occupation numbers 
     1.0000   1.0000   1.0000   1.0000   1.0000   1.0000   1.0000   1.0000
     1.0000   1.0000   1.0000   1.0000   1.0000   1.0000   1.0000   1.0000
     1.0000   1.0000   1.0000   1.0310   0.0254   0.0080  -0.0000  -0.0000

          k = 0.1683 0.1683 0.1683 ( 12821 PWs)   bands (ev):

   -55.3366 -34.8986 -31.5582 -31.5582 -31.5582 -16.0382 -16.0380 -16.0380
    -7.9662  -7.4093  -7.4093   0.9349   1.4579   1.4579   2.1023   2.1023
     2.2863   2.8925   3.0675   3.0675   3.2172   3.2172   3.2890   3.5914

     occupation numbers 
     1.0000   1.0000   1.0000   1.0000   1.0000   1.0000   1.0000   1.0000
     1.0000   1.0000   1.0000   1.0000   1.0000   1.0000   1.0000   1.0000
     1.0000   1.0039   1.0146   1.0146   0.3496   0.3496   0.0372  -0.0001

          k = 0.1683 0.1683 0.3366 ( 12754 PWs)   bands (ev):

   -55.3366 -34.8985 -31.5583 -31.5582 -31.5582 -16.0545 -16.0378 -16.0377
    -7.8450  -7.4182  -7.4025   0.8514   1.4536   1.4647   1.7056   1.8513
     2.2467   2.8127   2.8165   2.9687   3.2401   3.3707   3.4299   3.5778

     occupation numbers 
     1.0000   1.0000   1.0000   1.0000   1.0000   1.0000   1.0000   1.0000
     1.0000   1.0000   1.0000   1.0000   1.0000   1.0000   1.0000   1.0000
     1.0000   1.0003   1.0003   1.0210   0.2234  -0.0345  -0.0167  -0.0002

          k = 0.1683 0.1683-0.5049 ( 12740 PWs)   bands (ev):

   -55.3366 -34.8984 -31.5583 -31.5582 -31.5582 -16.0626 -16.0377 -16.0376
    -7.7776  -7.4284  -7.3991   0.9432   1.1541   1.4227   1.6425   1.8008
     2.4246   2.5552   2.7386   2.9233   3.2594   3.4903   3.5045   3.5979

     occupation numbers 
     1.0000   1.0000   1.0000   1.0000   1.0000   1.0000   1.0000   1.0000
     1.0000   1.0000   1.0000   1.0000   1.0000   1.0000   1.0000   1.0000
     1.0000   1.0000   1.0000   1.0085   0.1348  -0.0042  -0.0028  -0.0001

          k = 0.1683 0.3366 0.3366 ( 12746 PWs)   bands (ev):

   -55.3366 -34.8984 -31.5583 -31.5583 -31.5582 -16.0542 -16.0541 -16.0375
    -7.7232  -7.4114  -7.4057   0.7097   1.1334   1.4480   1.4930   2.0561
     2.0925   2.7177   2.7964   3.0161   3.2744   3.3764   3.4413   3.6561

     occupation numbers 
     1.0000   1.0000   1.0000   1.0000   1.0000   1.0000   1.0000   1.0000
     1.0000   1.0000   1.0000   1.0000   1.0000   1.0000   1.0000   1.0000
     1.0000   1.0000   1.0002   1.0347   0.0794  -0.0334  -0.0134  -0.0000

          k = 0.1683 0.3366-0.5049 ( 12742 PWs)   bands (ev):

   -55.3366 -34.8983 -31.5583 -31.5583 -31.5582 -16.0623 -16.0540 -16.0373
    -7.6551  -7.4174  -7.4036   0.6844   0.9354   1.3399   1.4765   2.0455
     2.2909   2.5208   2.7545   3.0281   3.3113   3.3632   3.5493   3.6617

     occupation numbers 
     1.0000   1.0000   1.0000   1.0000   1.0000   1.0000   1.0000   1.0000
     1.0000   1.0000   1.0000   1.0000   1.0000   1.0000   1.0000   1.0000
     1.0000   1.0000   1.0000   1.0354  -0.0063  -0.0353  -0.0007  -0.0000

          k = 0.1683-0.5049-0.5049 ( 12744 PWs)   bands (ev):

   -55.3366 -34.8983 -31.5583 -31.5583 -31.5582 -16.0621 -16.0621 -16.0372
    -7.5864  -7.4118  -7.4118   0.5517   0.8358   1.3630   1.3630   2.1532
     2.3263   2.5540   2.5540   3.0881   3.2965   3.2971   3.6470   3.6470

     occupation numbers 
     1.0000   1.0000   1.0000   1.0000   1.0000   1.0000   1.0000   1.0000
     1.0000   1.0000   1.0000   1.0000   1.0000   1.0000   1.0000   1.0000
     1.0000   1.0000   1.0000   0.9814   0.0198   0.0185  -0.0000  -0.0000

          k = 0.3366 0.3366 0.3366 ( 12746 PWs)   bands (ev):

   -55.3366 -34.8983 -31.5583 -31.5583 -31.5583 -16.0539 -16.0538 -16.0538
    -7.6010  -7.4039  -7.4039   0.6634   1.0517   1.1036   1.1036   2.1358
     2.1358   2.8846   2.8846   3.2727   3.2727   3.2888   3.2990   3.7132

     occupation numbers 
     1.0000   1.0000   1.0000   1.0000   1.0000   1.0000   1.0000   1.0000
     1.0000   1.0000   1.0000   1.0000   1.0000   1.0000   1.0000   1.0000
     1.0000   1.0031   1.0031   0.0850   0.0850   0.0376   0.0147  -0.0000

          k = 0.3366 0.3366-0.5049 ( 12734 PWs)   bands (ev):

   -55.3366 -34.8982 -31.5583 -31.5583 -31.5583 -16.0619 -16.0537 -16.0536
    -7.5325  -7.4085  -7.4001   0.6901   0.7741   0.9736   1.1178   2.1537
     2.1891   2.8995   2.9385   3.1899   3.2736   3.3150   3.5046   3.6195

     occupation numbers 
     1.0000   1.0000   1.0000   1.0000   1.0000   1.0000   1.0000   1.0000
     1.0000   1.0000   1.0000   1.0000   1.0000   1.0000   1.0000   1.0000
     1.0000   1.0047   1.0120   0.5165   0.0822  -0.0114  -0.0028  -0.0000

          k = 0.3366-0.5049-0.5049 ( 12744 PWs)   bands (ev):

   -55.3366 -34.8981 -31.5583 -31.5583 -31.5583 -16.0618 -16.0618 -16.0535
    -7.4636  -7.4040  -7.4040   0.5693   0.7182   0.9590   0.9590   2.1611
     2.1991   3.0293   3.0293   3.1974   3.2676   3.2974   3.5897   3.5897

     occupation numbers 
     1.0000   1.0000   1.0000   1.0000   1.0000   1.0000   1.0000   1.0000
     1.0000   1.0000   1.0000   1.0000   1.0000   1.0000   1.0000   1.0000
     1.0000   1.0354   1.0354   0.4704   0.1031   0.0179  -0.0001  -0.0001

          k =-0.5049-0.5049-0.5049 ( 12712 PWs)   bands (ev):

   -55.3366 -34.8981 -31.5583 -31.5583 -31.5583 -16.0616 -16.0616 -16.0616
    -7.4001  -7.4001  -7.4001   0.4232   0.8147   0.8147   0.8147   2.1651
     2.1651   3.2479   3.2479   3.2479   3.2902   3.2902   3.5152   3.5152

     occupation numbers 
     1.0000   1.0000   1.0000   1.0000   1.0000   1.0000   1.0000   1.0000
     1.0000   1.0000   1.0000   1.0000   1.0000   1.0000   1.0000   1.0000
     1.0000   0.1856   0.1856   0.1856   0.0341   0.0341  -0.0020  -0.0020

     the Fermi energy is     3.1926 ev

!    total energy              =    -452.03109163 Ry
     estimated scf accuracy    <          2.0E-11 Ry
     smearing contrib. (-TS)   =       0.00046097 Ry
     internal energy E=F+TS    =    -452.03155260 Ry

     The total energy is F=E-TS. E is the sum of the following terms:
     one-electron contribution =    -117.90869528 Ry
     hartree contribution      =      68.67020627 Ry
     xc contribution           =     -45.42343374 Ry
     ewald contribution        =    -158.99336507 Ry
     one-center paw contrib.   =    -198.37626478 Ry
      -> PAW hartree energy AE =      47.16129635 Ry
      -> PAW hartree energy PS =     -46.93915249 Ry
      -> PAW xc energy AE      =     -71.46684697 Ry
      -> PAW xc energy PS      =      11.25711246 Ry
      -> total E_H with PAW    =      68.89235013 Ry
      -> total E_XC with PAW   =    -105.63316824 Ry

     convergence has been achieved in  13 iterations

     Forces acting on atoms (cartesian axes, Ry/au):

     atom    1 type  1   force =     0.00000000    0.00000000    0.00000000
     atom    2 type  2   force =     0.00000000    0.00000000    0.00000000
     atom    3 type  3   force =     0.00000000    0.00000000    0.00000000
     atom    4 type  3   force =     0.00000000    0.00000000    0.00000000
     atom    5 type  3   force =     0.00000000    0.00000000    0.00000000
     The non-local contrib.  to forces
     atom    1 type  1   force =     0.00000000    0.00000000    0.00000000
     atom    2 type  2   force =     0.00000000    0.00000000    0.00000000
     atom    3 type  3   force =     0.00000000    0.00000000    0.00000000
     atom    4 type  3   force =     0.00000000    0.00000000    0.00000000
     atom    5 type  3   force =     0.00000000    0.00000000    0.00000000
     The ionic contribution  to forces
     atom    1 type  1   force =    -0.00000000   -0.00000000   -0.00000000
     atom    2 type  2   force =     0.00000000    0.00000000    0.00000000
     atom    3 type  3   force =    -0.00000000   -0.00000000   -0.00000000
     atom    4 type  3   force =    -0.00000000   -0.00000000   -0.00000000
     atom    5 type  3   force =    -0.00000000   -0.00000000   -0.00000000
     The local contribution  to forces
     atom    1 type  1   force =     0.00000000    0.00000000    0.00000000
     atom    2 type  2   force =     0.00000000    0.00000000    0.00000000
     atom    3 type  3   force =     0.00000000    0.00000000   -0.00000000
     atom    4 type  3   force =     0.00000000    0.00000000   -0.00000000
     atom    5 type  3   force =     0.00000000    0.00000000    0.00000000
     The core correction contribution to forces
     atom    1 type  1   force =     0.00000000    0.00000000    0.00000000
     atom    2 type  2   force =    -0.00000000   -0.00000000   -0.00000000
     atom    3 type  3   force =     0.00000000    0.00000000   -0.00000000
     atom    4 type  3   force =     0.00000000    0.00000000    0.00000000
     atom    5 type  3   force =     0.00000000    0.00000000    0.00000000
     The Hubbard contrib.    to forces
     atom    1 type  1   force =     0.00000000    0.00000000    0.00000000
     atom    2 type  2   force =     0.00000000    0.00000000    0.00000000
     atom    3 type  3   force =     0.00000000    0.00000000    0.00000000
     atom    4 type  3   force =     0.00000000    0.00000000    0.00000000
     atom    5 type  3   force =     0.00000000    0.00000000    0.00000000
     The SCF correction term to forces
     atom    1 type  1   force =     0.00000000   -0.00000000   -0.00000000
     atom    2 type  2   force =    -0.00000000   -0.00000000    0.00000000
     atom    3 type  3   force =    -0.00000000    0.00000000    0.00000000
     atom    4 type  3   force =     0.00000000    0.00000000    0.00000000
     atom    5 type  3   force =     0.00000000    0.00000000   -0.00000000

     Total force =     0.000000     Total SCF correction =     0.000000


     Computing stress (Cartesian axis) and pressure

          total   stress  (Ry/bohr**3)                   (kbar)     P=      -51.87
  -0.00035258   0.00000000   0.00000000          -51.87        0.00        0.00
   0.00000000  -0.00035258   0.00000000            0.00      -51.87        0.00
   0.00000000   0.00000000  -0.00035258            0.00        0.00      -51.87

     kinetic stress (kbar)   9024.62      0.00      0.00
                                0.00   9024.62      0.00
                                0.00      0.00   9024.62

     local   stress (kbar)  -4416.12      0.00      0.00
                                0.00  -4416.12     -0.00
                                0.00     -0.00  -4416.12

     nonloc. stress (kbar)   1619.41      0.00      0.00
                                0.00   1619.41      0.00
                                0.00      0.00   1619.41

     hartree stress (kbar)   3284.33     -0.00     -0.00
                               -0.00   3284.33      0.00
                               -0.00      0.00   3284.33

     exc-cor stress (kbar)   -816.56     -0.00      0.00
                               -0.00   -816.56      0.00
                                0.00      0.00   -816.56

     corecor stress (kbar)  -1143.28     -0.00      0.00
                               -0.00  -1143.28      0.00
                                0.00      0.00  -1143.28

     ewald   stress (kbar)  -7604.26      0.00     -0.00
                                0.00  -7604.26     -0.00
                               -0.00     -0.00  -7604.26

     hubbard stress (kbar)      0.00      0.00      0.00
                                0.00      0.00      0.00
                                0.00      0.00      0.00

     DFT-D   stress (kbar)      0.00      0.00      0.00
                                0.00      0.00      0.00
                                0.00      0.00      0.00

     XDM     stress (kbar)      0.00      0.00      0.00
                                0.00      0.00      0.00
                                0.00      0.00      0.00

     dft-nl  stress (kbar)      0.00      0.00      0.00
                                0.00      0.00      0.00
                                0.00      0.00      0.00

     TS-vdW  stress (kbar)      0.00      0.00      0.00
                                0.00      0.00      0.00
                                0.00      0.00      0.00

     MDB     stress (kbar)      0.00      0.00      0.00
                                0.00      0.00      0.00
                                0.00      0.00      0.00

     3D-RISM stress (kbar)      0.00      0.00      0.00
                                0.00      0.00      0.00
                                0.00      0.00      0.00

     Energy error            =      1.1E-02 Ry
     Gradient error          =      0.0E+00 Ry/Bohr
     Cell gradient error     =      5.2E+01 kbar

     number of scf cycles    =   2
     number of bfgs steps    =   1

     enthalpy           old  =    -452.0198238835 Ry
     enthalpy           new  =    -452.0310916263 Ry

     CASE: enthalpy          _new < enthalpy          _old


     WARNING: bfgs curvature condition failed, Theta= 0.897
     new trust radius        =       0.0940027669 bohr
     new conv_thr            =            1.0E-12 Ry

     new unit-cell volume =    980.75766 a.u.^3 (   145.33329 Ang^3 )
     density =      2.10376 g/cm^3

CELL_PARAMETERS (angstrom)
   5.257610016   0.000000000   0.000000000
   0.000000000   5.257610016   0.000000000
   0.000000000   0.000000000   5.257610016

ATOMIC_POSITIONS (crystal)
Ca               0.0000000000        0.0000000000        0.0000000000
Ti               0.5000000000        0.5000000000        0.5000000000
S                0.5000000000        0.0000000000        0.0000000000
S                0.0000000000        0.5000000000        0.0000000000
S                0.0000000000        0.0000000000        0.5000000000



     Writing config-only to output data dir ./tmp/catis3.save/ :
     XML data file
     NEW-OLD atomic charge density approx. for the potential

     total cpu time spent up to now is     3441.2 secs

     Self-consistent Calculation

     iteration #  1     ecut=    80.00 Ry     beta= 0.30
     Davidson diagonalization with overlap

---- Real-time Memory Report at c_bands before calling an iterative solver
           195 MiB given to the printing process from OS
             0 MiB allocation reported by mallinfo(arena+hblkhd)
         57346 MiB available memory on the node where the printing process lives
------------------
     ethr =  1.00E-06,  avg # of iterations = 10.4

     total cpu time spent up to now is     3564.1 secs

     total energy              =    -452.04471904 Ry
     estimated scf accuracy    <       0.00329136 Ry

     iteration #  2     ecut=    80.00 Ry     beta= 0.30
     Davidson diagonalization with overlap

---- Real-time Memory Report at c_bands before calling an iterative solver
           195 MiB given to the printing process from OS
             0 MiB allocation reported by mallinfo(arena+hblkhd)
         57039 MiB available memory on the node where the printing process lives
------------------
     ethr =  8.23E-06,  avg # of iterations =  8.1
     Minimization algorithm failed to find Fermi energy: reverting to bisection
     Possible cause: smearing is larger than the electronic band-gap.

     total cpu time spent up to now is     3662.3 secs

     total energy              =    -452.03873876 Ry
     estimated scf accuracy    <       0.35838321 Ry

     iteration #  3     ecut=    80.00 Ry     beta= 0.30
     Davidson diagonalization with overlap

---- Real-time Memory Report at c_bands before calling an iterative solver
           195 MiB given to the printing process from OS
             0 MiB allocation reported by mallinfo(arena+hblkhd)
         57131 MiB available memory on the node where the printing process lives
------------------
     ethr =  8.23E-06,  avg # of iterations =  8.2

     total cpu time spent up to now is     3758.4 secs

     total energy              =    -452.04538212 Ry
     estimated scf accuracy    <       0.00047755 Ry

     iteration #  4     ecut=    80.00 Ry     beta= 0.30
     Davidson diagonalization with overlap

---- Real-time Memory Report at c_bands before calling an iterative solver
           195 MiB given to the printing process from OS
             0 MiB allocation reported by mallinfo(arena+hblkhd)
         57080 MiB available memory on the node where the printing process lives
------------------
     ethr =  1.19E-06,  avg # of iterations =  3.6

     total cpu time spent up to now is     3809.0 secs

     total energy              =    -452.04540886 Ry
     estimated scf accuracy    <       0.00043019 Ry

     iteration #  5     ecut=    80.00 Ry     beta= 0.30
     Davidson diagonalization with overlap

---- Real-time Memory Report at c_bands before calling an iterative solver
           195 MiB given to the printing process from OS
             0 MiB allocation reported by mallinfo(arena+hblkhd)
         57155 MiB available memory on the node where the printing process lives
------------------
     ethr =  1.08E-06,  avg # of iterations =  1.3

     total cpu time spent up to now is     3838.4 secs

     total energy              =    -452.04538289 Ry
     estimated scf accuracy    <       0.00011378 Ry

     iteration #  6     ecut=    80.00 Ry     beta= 0.30
     Davidson diagonalization with overlap

---- Real-time Memory Report at c_bands before calling an iterative solver
           195 MiB given to the printing process from OS
             0 MiB allocation reported by mallinfo(arena+hblkhd)
         57281 MiB available memory on the node where the printing process lives
------------------
     ethr =  2.84E-07,  avg # of iterations =  1.8

     total cpu time spent up to now is     3871.5 secs

     total energy              =    -452.04537805 Ry
     estimated scf accuracy    <       0.00006516 Ry

     iteration #  7     ecut=    80.00 Ry     beta= 0.30
     Davidson diagonalization with overlap

---- Real-time Memory Report at c_bands before calling an iterative solver
           195 MiB given to the printing process from OS
             0 MiB allocation reported by mallinfo(arena+hblkhd)
         57158 MiB available memory on the node where the printing process lives
------------------
     ethr =  1.63E-07,  avg # of iterations =  1.7

     total cpu time spent up to now is     3905.1 secs

     total energy              =    -452.04538256 Ry
     estimated scf accuracy    <       0.00000883 Ry

     iteration #  8     ecut=    80.00 Ry     beta= 0.30
     Davidson diagonalization with overlap

---- Real-time Memory Report at c_bands before calling an iterative solver
           195 MiB given to the printing process from OS
             0 MiB allocation reported by mallinfo(arena+hblkhd)
         57023 MiB available memory on the node where the printing process lives
------------------
     ethr =  2.21E-08,  avg # of iterations =  6.2

     total cpu time spent up to now is     3981.0 secs

     total energy              =    -452.04538763 Ry
     estimated scf accuracy    <       0.00000775 Ry

     iteration #  9     ecut=    80.00 Ry     beta= 0.30
     Davidson diagonalization with overlap

---- Real-time Memory Report at c_bands before calling an iterative solver
           195 MiB given to the printing process from OS
             0 MiB allocation reported by mallinfo(arena+hblkhd)
         57195 MiB available memory on the node where the printing process lives
------------------
     ethr =  1.94E-08,  avg # of iterations =  1.2

     total cpu time spent up to now is     4009.2 secs

     total energy              =    -452.04538763 Ry
     estimated scf accuracy    <       0.00000294 Ry

     iteration # 10     ecut=    80.00 Ry     beta= 0.30
     Davidson diagonalization with overlap

---- Real-time Memory Report at c_bands before calling an iterative solver
           195 MiB given to the printing process from OS
             0 MiB allocation reported by mallinfo(arena+hblkhd)
         56998 MiB available memory on the node where the printing process lives
------------------
     ethr =  7.34E-09,  avg # of iterations =  1.6

     total cpu time spent up to now is     4039.9 secs

     total energy              =    -452.04538762 Ry
     estimated scf accuracy    <       0.00000087 Ry

     iteration # 11     ecut=    80.00 Ry     beta= 0.30
     Davidson diagonalization with overlap

---- Real-time Memory Report at c_bands before calling an iterative solver
           195 MiB given to the printing process from OS
             0 MiB allocation reported by mallinfo(arena+hblkhd)
         57157 MiB available memory on the node where the printing process lives
------------------
     ethr =  2.18E-09,  avg # of iterations =  3.0

     total cpu time spent up to now is     4086.6 secs

     total energy              =    -452.04538766 Ry
     estimated scf accuracy    <       0.00000051 Ry

     iteration # 12     ecut=    80.00 Ry     beta= 0.30
     Davidson diagonalization with overlap

---- Real-time Memory Report at c_bands before calling an iterative solver
           195 MiB given to the printing process from OS
             0 MiB allocation reported by mallinfo(arena+hblkhd)
         57154 MiB available memory on the node where the printing process lives
------------------
     ethr =  1.26E-09,  avg # of iterations =  2.7

     total cpu time spent up to now is     4128.9 secs

     total energy              =    -452.04538770 Ry
     estimated scf accuracy    <       0.00000021 Ry

     iteration # 13     ecut=    80.00 Ry     beta= 0.30
     Davidson diagonalization with overlap

---- Real-time Memory Report at c_bands before calling an iterative solver
           195 MiB given to the printing process from OS
             0 MiB allocation reported by mallinfo(arena+hblkhd)
         57102 MiB available memory on the node where the printing process lives
------------------
     ethr =  5.30E-10,  avg # of iterations =  4.3

     total cpu time spent up to now is     4184.9 secs

     total energy              =    -452.04538772 Ry
     estimated scf accuracy    <       0.00000048 Ry

     iteration # 14     ecut=    80.00 Ry     beta= 0.30
     Davidson diagonalization with overlap

---- Real-time Memory Report at c_bands before calling an iterative solver
           195 MiB given to the printing process from OS
             0 MiB allocation reported by mallinfo(arena+hblkhd)
         57184 MiB available memory on the node where the printing process lives
------------------
     ethr =  5.30E-10,  avg # of iterations =  1.9

     total cpu time spent up to now is     4218.9 secs

     total energy              =    -452.04538772 Ry
     estimated scf accuracy    <       0.00000009 Ry

     iteration # 15     ecut=    80.00 Ry     beta= 0.30
     Davidson diagonalization with overlap

---- Real-time Memory Report at c_bands before calling an iterative solver
           195 MiB given to the printing process from OS
             0 MiB allocation reported by mallinfo(arena+hblkhd)
         57091 MiB available memory on the node where the printing process lives
------------------
     ethr =  2.14E-10,  avg # of iterations =  4.0

     total cpu time spent up to now is     4275.1 secs

     total energy              =    -452.04538774 Ry
     estimated scf accuracy    <       0.00000002 Ry

     iteration # 16     ecut=    80.00 Ry     beta= 0.30
     Davidson diagonalization with overlap

---- Real-time Memory Report at c_bands before calling an iterative solver
           195 MiB given to the printing process from OS
             0 MiB allocation reported by mallinfo(arena+hblkhd)
         57185 MiB available memory on the node where the printing process lives
------------------
     ethr =  5.15E-11,  avg # of iterations =  5.8

     total cpu time spent up to now is     4348.0 secs

     total energy              =    -452.04538775 Ry
     estimated scf accuracy    <          2.4E-09 Ry

     iteration # 17     ecut=    80.00 Ry     beta= 0.30
     Davidson diagonalization with overlap

---- Real-time Memory Report at c_bands before calling an iterative solver
           195 MiB given to the printing process from OS
             0 MiB allocation reported by mallinfo(arena+hblkhd)
         57226 MiB available memory on the node where the printing process lives
------------------
     ethr =  5.91E-12,  avg # of iterations =  7.8

     total cpu time spent up to now is     4441.1 secs

     total energy              =    -452.04538775 Ry
     estimated scf accuracy    <       0.00000001 Ry

     iteration # 18     ecut=    80.00 Ry     beta= 0.30
     Davidson diagonalization with overlap

---- Real-time Memory Report at c_bands before calling an iterative solver
           195 MiB given to the printing process from OS
             0 MiB allocation reported by mallinfo(arena+hblkhd)
         57132 MiB available memory on the node where the printing process lives
------------------
     ethr =  5.91E-12,  avg # of iterations =  1.1

     total cpu time spent up to now is     4467.3 secs

     total energy              =    -452.04538775 Ry
     estimated scf accuracy    <          7.5E-09 Ry

     iteration # 19     ecut=    80.00 Ry     beta= 0.30
     Davidson diagonalization with overlap

---- Real-time Memory Report at c_bands before calling an iterative solver
           195 MiB given to the printing process from OS
             0 MiB allocation reported by mallinfo(arena+hblkhd)
         57051 MiB available memory on the node where the printing process lives
------------------
     ethr =  5.91E-12,  avg # of iterations =  1.1

     total cpu time spent up to now is     4492.9 secs

     total energy              =    -452.04538775 Ry
     estimated scf accuracy    <          4.9E-09 Ry

     iteration # 20     ecut=    80.00 Ry     beta= 0.30
     Davidson diagonalization with overlap

---- Real-time Memory Report at c_bands before calling an iterative solver
           195 MiB given to the printing process from OS
             0 MiB allocation reported by mallinfo(arena+hblkhd)
         57199 MiB available memory on the node where the printing process lives
------------------
     ethr =  5.91E-12,  avg # of iterations =  1.2

     total cpu time spent up to now is     4520.4 secs

     total energy              =    -452.04538775 Ry
     estimated scf accuracy    <          2.6E-11 Ry

     iteration # 21     ecut=    80.00 Ry     beta= 0.30
     Davidson diagonalization with overlap

---- Real-time Memory Report at c_bands before calling an iterative solver
           195 MiB given to the printing process from OS
             0 MiB allocation reported by mallinfo(arena+hblkhd)
         57157 MiB available memory on the node where the printing process lives
------------------
     ethr =  1.00E-13,  avg # of iterations = 10.2

     total cpu time spent up to now is     4637.5 secs

     total energy              =    -452.04538775 Ry
     estimated scf accuracy    <          3.2E-10 Ry

     iteration # 22     ecut=    80.00 Ry     beta= 0.30
     Davidson diagonalization with overlap

---- Real-time Memory Report at c_bands before calling an iterative solver
           195 MiB given to the printing process from OS
             0 MiB allocation reported by mallinfo(arena+hblkhd)
         57316 MiB available memory on the node where the printing process lives
------------------
     ethr =  1.00E-13,  avg # of iterations =  1.6

     total cpu time spent up to now is     4670.2 secs

     total energy              =    -452.04538775 Ry
     estimated scf accuracy    <          1.1E-11 Ry

     iteration # 23     ecut=    80.00 Ry     beta= 0.30
     Davidson diagonalization with overlap

---- Real-time Memory Report at c_bands before calling an iterative solver
           195 MiB given to the printing process from OS
             0 MiB allocation reported by mallinfo(arena+hblkhd)
         57096 MiB available memory on the node where the printing process lives
------------------
     ethr =  1.00E-13,  avg # of iterations =  1.0

     total cpu time spent up to now is     4696.2 secs

     total energy              =    -452.04538775 Ry
     estimated scf accuracy    <          1.7E-12 Ry

     iteration # 24     ecut=    80.00 Ry     beta= 0.30
     Davidson diagonalization with overlap

---- Real-time Memory Report at c_bands before calling an iterative solver
           195 MiB given to the printing process from OS
             0 MiB allocation reported by mallinfo(arena+hblkhd)
         57060 MiB available memory on the node where the printing process lives
------------------
     ethr =  1.00E-13,  avg # of iterations =  1.1

     total cpu time spent up to now is     4723.5 secs

     total energy              =    -452.04538775 Ry
     estimated scf accuracy    <          1.8E-11 Ry

     iteration # 25     ecut=    80.00 Ry     beta= 0.30
     Davidson diagonalization with overlap

---- Real-time Memory Report at c_bands before calling an iterative solver
           195 MiB given to the printing process from OS
             0 MiB allocation reported by mallinfo(arena+hblkhd)
         57100 MiB available memory on the node where the printing process lives
------------------
     ethr =  1.00E-13,  avg # of iterations =  1.1

     total cpu time spent up to now is     4751.5 secs

     End of self-consistent calculation

          k = 0.0000 0.0000 0.0000 ( 12893 PWs)   bands (ev):

   -54.9549 -34.3558 -31.1726 -31.1726 -31.1726 -15.5181 -15.5181 -15.5181
    -7.8737  -7.0803  -7.0803   1.5663   1.5663   1.5663   3.0619   3.0619
     3.0619   3.5231   3.5231   3.6058   3.6058   3.6058   3.7762   3.7762

     occupation numbers 
     1.0000   1.0000   1.0000   1.0000   1.0000   1.0000   1.0000   1.0000
     1.0000   1.0000   1.0000   1.0000   1.0000   1.0000   1.0000   1.0000
     1.0000   0.8535   0.8535   0.3853   0.3853   0.3853  -0.0321  -0.0321

          k = 0.0000 0.0000 0.1708 ( 12821 PWs)   bands (ev):

   -54.9549 -34.3558 -31.1726 -31.1726 -31.1726 -15.5287 -15.5179 -15.5179
    -7.8116  -7.0804  -7.0765   1.4728   1.6157   1.6157   2.7968   2.8646
     2.8646   3.1916   3.5559   3.6105   3.6606   3.6606   3.7585   3.8087

     occupation numbers 
     1.0000   1.0000   1.0000   1.0000   1.0000   1.0000   1.0000   1.0000
     1.0000   1.0000   1.0000   1.0000   1.0000   1.0000   1.0000   1.0000
     1.0000   1.0002   0.6884   0.3567   0.1086   0.1086  -0.0353  -0.0217

          k = 0.0000 0.0000 0.3416 ( 12721 PWs)   bands (ev):

   -54.9549 -34.3556 -31.1727 -31.1726 -31.1726 -15.5498 -15.5175 -15.5175
    -7.6793  -7.0866  -7.0687   1.4037   1.7515   1.7515   2.3496   2.4896
     2.5420   2.5420   3.5060   3.5060   3.6202   3.6209   4.0052   4.0590

     occupation numbers 
     1.0000   1.0000   1.0000   1.0000   1.0000   1.0000   1.0000   1.0000
     1.0000   1.0000   1.0000   1.0000   1.0000   1.0000   1.0000   1.0000
     1.0000   1.0000   0.9184   0.9184   0.3010   0.2970  -0.0001  -0.0000

          k = 0.0000 0.0000-0.5124 ( 12732 PWs)   bands (ev):

   -54.9549 -34.3555 -31.1727 -31.1726 -31.1726 -15.5602 -15.5173 -15.5173
    -7.6074  -7.0944  -7.0649   1.5341   1.8344   1.8660   1.8660   2.3530
     2.3530   2.3721   3.4375   3.4375   3.6250   3.6543   4.0921   4.1690

     occupation numbers 
     1.0000   1.0000   1.0000   1.0000   1.0000   1.0000   1.0000   1.0000
     1.0000   1.0000   1.0000   1.0000   1.0000   1.0000   1.0000   1.0000
     1.0000   1.0000   1.0326   1.0326   0.2741   0.1333  -0.0000  -0.0000

          k = 0.0000 0.1708 0.1708 ( 12769 PWs)   bands (ev):

   -54.9549 -34.3557 -31.1726 -31.1726 -31.1726 -15.5286 -15.5284 -15.5177
    -7.7490  -7.0773  -7.0749   1.3144   1.6645   1.7387   2.4071   2.7275
     2.9716   3.0106   3.5212   3.5661   3.6063   3.7061   3.7204   3.8258

     occupation numbers 
     1.0000   1.0000   1.0000   1.0000   1.0000   1.0000   1.0000   1.0000
     1.0000   1.0000   1.0000   1.0000   1.0000   1.0000   1.0000   1.0000
     1.0000   1.0000   0.8616   0.6289   0.3821  -0.0067  -0.0229  -0.0162

          k = 0.0000 0.1708 0.3416 ( 12735 PWs)   bands (ev):

   -54.9549 -34.3555 -31.1727 -31.1726 -31.1726 -15.5495 -15.5281 -15.5173
    -7.6159  -7.0806  -7.0675   1.1997   1.7996   1.8721   1.9563   2.4145
     2.4681   2.9879   3.3148   3.3873   3.6565   3.7395   3.8851   4.0312

     occupation numbers 
     1.0000   1.0000   1.0000   1.0000   1.0000   1.0000   1.0000   1.0000
     1.0000   1.0000   1.0000   1.0000   1.0000   1.0000   1.0000   1.0000
     1.0000   1.0000   1.0080   1.0290   0.1243  -0.0335  -0.0041  -0.0000

          k = 0.0000 0.1708-0.5124 ( 12760 PWs)   bands (ev):

   -54.9549 -34.3554 -31.1727 -31.1726 -31.1726 -15.5599 -15.5279 -15.5171
    -7.5434  -7.0873  -7.0634   1.2528   1.6139   1.9186   2.0294   2.1208
     2.2981   2.9685   3.2099   3.3048   3.6942   3.7416   3.9987   4.0571

     occupation numbers 
     1.0000   1.0000   1.0000   1.0000   1.0000   1.0000   1.0000   1.0000
     1.0000   1.0000   1.0000   1.0000   1.0000   1.0000   1.0000   1.0000
     1.0000   1.0000   1.0003   1.0062   0.0134  -0.0341  -0.0001  -0.0000

          k = 0.0000 0.3416 0.3416 ( 12806 PWs)   bands (ev):

   -54.9549 -34.3553 -31.1727 -31.1727 -31.1726 -15.5492 -15.5490 -15.5169
    -7.4817  -7.0700  -7.0676   0.9373   1.5412   1.9314   2.0482   2.3228
     2.3708   2.8359   3.1368   3.3207   3.6692   3.9078   3.9413   4.0062

     occupation numbers 
     1.0000   1.0000   1.0000   1.0000   1.0000   1.0000   1.0000   1.0000
     1.0000   1.0000   1.0000   1.0000   1.0000   1.0000   1.0000   1.0000
     1.0000   1.0000   1.0000   1.0091   0.0786  -0.0021  -0.0007  -0.0001

          k = 0.0000 0.3416-0.5124 ( 12754 PWs)   bands (ev):

   -54.9549 -34.3552 -31.1727 -31.1727 -31.1725 -15.5595 -15.5488 -15.5167
    -7.4092  -7.0729  -7.0631   0.8442   1.3642   2.0582   2.1756   2.2061
     2.2222   2.7490   3.0062   3.3472   3.7380   3.7805   3.9692   4.1041

     occupation numbers 
     1.0000   1.0000   1.0000   1.0000   1.0000   1.0000   1.0000   1.0000
     1.0000   1.0000   1.0000   1.0000   1.0000   1.0000   1.0000   1.0000
     1.0000   1.0000   1.0000   1.0159  -0.0331  -0.0310  -0.0003  -0.0000

          k = 0.0000-0.5124-0.5124 ( 12656 PWs)   bands (ev):

   -54.9549 -34.3552 -31.1727 -31.1727 -31.1725 -15.5592 -15.5592 -15.5165
    -7.3375  -7.0657  -7.0657   0.6850   1.2461   2.1663   2.1663   2.3059
     2.3059   2.4655   2.8221   3.4250   3.6899   3.7032   4.0843   4.0843

     occupation numbers 
     1.0000   1.0000   1.0000   1.0000   1.0000   1.0000   1.0000   1.0000
     1.0000   1.0000   1.0000   1.0000   1.0000   1.0000   1.0000   1.0000
     1.0000   1.0000   1.0000   1.0353   0.0222  -0.0025  -0.0000  -0.0000

          k = 0.1708 0.1708 0.1708 ( 12821 PWs)   bands (ev):

   -54.9549 -34.3556 -31.1726 -31.1726 -31.1726 -15.5285 -15.5282 -15.5282
    -7.6857  -7.0733  -7.0733   1.1973   1.7456   1.7456   2.4063   2.4063
     2.6611   3.2508   3.4593   3.4593   3.6059   3.6059   3.6837   4.0097

     occupation numbers 
     1.0000   1.0000   1.0000   1.0000   1.0000   1.0000   1.0000   1.0000
     1.0000   1.0000   1.0000   1.0000   1.0000   1.0000   1.0000   1.0000
     1.0000   1.0013   1.0177   1.0177   0.3844   0.3844   0.0367  -0.0001

          k = 0.1708 0.1708 0.3416 ( 12754 PWs)   bands (ev):

   -54.9549 -34.3554 -31.1727 -31.1726 -31.1726 -15.5493 -15.5280 -15.5278
    -7.5513  -7.0752  -7.0652   1.1043   1.7192   1.7501   2.0248   2.1568
     2.5768   3.1680   3.1820   3.3553   3.6329   3.7707   3.8354   3.9950

     occupation numbers 
     1.0000   1.0000   1.0000   1.0000   1.0000   1.0000   1.0000   1.0000
     1.0000   1.0000   1.0000   1.0000   1.0000   1.0000   1.0000   1.0000
     1.0000   1.0001   1.0001   1.0184   0.2323  -0.0334  -0.0135  -0.0001

          k = 0.1708 0.1708-0.5124 ( 12740 PWs)   bands (ev):

   -54.9549 -34.3553 -31.1727 -31.1726 -31.1726 -15.5597 -15.5278 -15.5276
    -7.4781  -7.0808  -7.0611   1.1881   1.4512   1.6735   1.9360   2.1146
     2.7524   2.9187   3.0827   3.3083   3.6546   3.8982   3.9169   4.0175

     occupation numbers 
     1.0000   1.0000   1.0000   1.0000   1.0000   1.0000   1.0000   1.0000
     1.0000   1.0000   1.0000   1.0000   1.0000   1.0000   1.0000   1.0000
     1.0000   1.0000   1.0000   1.0068   0.1320  -0.0028  -0.0016  -0.0000

          k = 0.1708 0.3416 0.3416 ( 12746 PWs)   bands (ev):

   -54.9549 -34.3552 -31.1727 -31.1727 -31.1726 -15.5489 -15.5488 -15.5275
    -7.4151  -7.0656  -7.0632   0.9458   1.4105   1.7090   1.7833   2.3857
     2.4103   3.0695   3.1669   3.3876   3.6700   3.7792   3.8474   4.0781

     occupation numbers 
     1.0000   1.0000   1.0000   1.0000   1.0000   1.0000   1.0000   1.0000
     1.0000   1.0000   1.0000   1.0000   1.0000   1.0000   1.0000   1.0000
     1.0000   1.0000   1.0001   1.0291   0.0759  -0.0313  -0.0105  -0.0000

          k = 0.1708 0.3416-0.5124 ( 12742 PWs)   bands (ev):

   -54.9549 -34.3552 -31.1727 -31.1727 -31.1726 -15.5592 -15.5486 -15.5273
    -7.3412  -7.0677  -7.0591   0.9042   1.2306   1.5897   1.7468   2.3682
     2.6331   2.8557   3.1185   3.4017   3.7094   3.7671   3.9628   4.0847

     occupation numbers 
     1.0000   1.0000   1.0000   1.0000   1.0000   1.0000   1.0000   1.0000
     1.0000   1.0000   1.0000   1.0000   1.0000   1.0000   1.0000   1.0000
     1.0000   1.0000   1.0000   1.0330  -0.0112  -0.0342  -0.0003  -0.0000

          k = 0.1708-0.5124-0.5124 ( 12744 PWs)   bands (ev):

   -54.9549 -34.3551 -31.1727 -31.1727 -31.1726 -15.5590 -15.5590 -15.5271
    -7.2676  -7.0611  -7.0611   0.7608   1.1329   1.6147   1.6147   2.4699
     2.6900   2.8910   2.8910   3.4693   3.6939   3.6971   4.0692   4.0692

     occupation numbers 
     1.0000   1.0000   1.0000   1.0000   1.0000   1.0000   1.0000   1.0000
     1.0000   1.0000   1.0000   1.0000   1.0000   1.0000   1.0000   1.0000
     1.0000   1.0000   1.0000   1.0050   0.0139   0.0079  -0.0000  -0.0000

          k = 0.3416 0.3416 0.3416 ( 12746 PWs)   bands (ev):

   -54.9549 -34.3551 -31.1727 -31.1727 -31.1727 -15.5486 -15.5483 -15.5483
    -7.2752  -7.0568  -7.0568   0.9112   1.3381   1.3381   1.3423   2.4616
     2.4616   3.2501   3.2501   3.6688   3.6688   3.6772   3.6969   4.1404

     occupation numbers 
     1.0000   1.0000   1.0000   1.0000   1.0000   1.0000   1.0000   1.0000
     1.0000   1.0000   1.0000   1.0000   1.0000   1.0000   1.0000   1.0000
     1.0000   1.0013   1.0013   0.0797   0.0797   0.0540   0.0082  -0.0000

          k = 0.3416 0.3416-0.5124 ( 12734 PWs)   bands (ev):

   -54.9549 -34.3550 -31.1727 -31.1727 -31.1726 -15.5588 -15.5483 -15.5481
    -7.1992  -7.0572  -7.0524   0.9788   0.9960   1.1989   1.3619   2.4817
     2.5131   3.2652   3.3080   3.5759   3.6704   3.7153   3.9138   4.0388

     occupation numbers 
     1.0000   1.0000   1.0000   1.0000   1.0000   1.0000   1.0000   1.0000
     1.0000   1.0000   1.0000   1.0000   1.0000   1.0000   1.0000   1.0000
     1.0000   1.0021   1.0068   0.5693   0.0747  -0.0181  -0.0018  -0.0000

          k = 0.3416-0.5124-0.5124 ( 12744 PWs)   bands (ev):

   -54.9549 -34.3549 -31.1727 -31.1727 -31.1727 -15.5585 -15.5585 -15.5480
    -7.1227  -7.0519  -7.0519   0.8576   0.9324   1.1851   1.1851   2.4786
     2.5280   3.4044   3.4044   3.5870   3.6651   3.6955   4.0063   4.0063

     occupation numbers 
     1.0000   1.0000   1.0000   1.0000   1.0000   1.0000   1.0000   1.0000
     1.0000   1.0000   1.0000   1.0000   1.0000   1.0000   1.0000   1.0000
     1.0000   1.0336   1.0336   0.5005   0.0926   0.0108  -0.0001  -0.0001

          k =-0.5124-0.5124-0.5124 ( 12712 PWs)   bands (ev):

   -54.9549 -34.3548 -31.1727 -31.1727 -31.1727 -15.5583 -15.5583 -15.5583
    -7.0473  -7.0473  -7.0473   0.7022   1.0317   1.0317   1.0317   2.4830
     2.4830   3.6433   3.6433   3.6433   3.6885   3.6885   3.9228   3.9228

     occupation numbers 
     1.0000   1.0000   1.0000   1.0000   1.0000   1.0000   1.0000   1.0000
     1.0000   1.0000   1.0000   1.0000   1.0000   1.0000   1.0000   1.0000
     1.0000   0.1813   0.1813   0.1813   0.0254   0.0254  -0.0013  -0.0013

     the Fermi energy is     3.5871 ev

!    total energy              =    -452.04538775 Ry
     estimated scf accuracy    <          8.3E-13 Ry
     smearing contrib. (-TS)   =       0.00031705 Ry
     internal energy E=F+TS    =    -452.04570480 Ry

     The total energy is F=E-TS. E is the sum of the following terms:
     one-electron contribution =    -114.24545433 Ry
     hartree contribution      =      67.43178764 Ry
     xc contribution           =     -45.48933212 Ry
     ewald contribution        =    -161.36199743 Ry
     one-center paw contrib.   =    -198.38070855 Ry
      -> PAW hartree energy AE =      47.41391360 Ry
      -> PAW hartree energy PS =     -47.19152454 Ry
      -> PAW xc energy AE      =     -71.49552003 Ry
      -> PAW xc energy PS      =      11.28516354 Ry
      -> total E_H with PAW    =      67.65417670 Ry
      -> total E_XC with PAW   =    -105.69968862 Ry

     convergence has been achieved in  25 iterations

     Forces acting on atoms (cartesian axes, Ry/au):

     atom    1 type  1   force =     0.00000000    0.00000000    0.00000000
     atom    2 type  2   force =     0.00000000    0.00000000    0.00000000
     atom    3 type  3   force =     0.00000000    0.00000000    0.00000000
     atom    4 type  3   force =     0.00000000    0.00000000    0.00000000
     atom    5 type  3   force =     0.00000000    0.00000000    0.00000000
     The non-local contrib.  to forces
     atom    1 type  1   force =     0.00000000    0.00000000    0.00000000
     atom    2 type  2   force =     0.00000000    0.00000000    0.00000000
     atom    3 type  3   force =     0.00000000    0.00000000    0.00000000
     atom    4 type  3   force =     0.00000000    0.00000000    0.00000000
     atom    5 type  3   force =     0.00000000    0.00000000    0.00000000
     The ionic contribution  to forces
     atom    1 type  1   force =    -0.00000000   -0.00000000   -0.00000000
     atom    2 type  2   force =     0.00000000    0.00000000    0.00000000
     atom    3 type  3   force =    -0.00000000   -0.00000000   -0.00000000
     atom    4 type  3   force =    -0.00000000   -0.00000000   -0.00000000
     atom    5 type  3   force =    -0.00000000   -0.00000000   -0.00000000
     The local contribution  to forces
     atom    1 type  1   force =     0.00000000    0.00000000    0.00000000
     atom    2 type  2   force =    -0.00000000   -0.00000000   -0.00000000
     atom    3 type  3   force =     0.00000000    0.00000000   -0.00000000
     atom    4 type  3   force =     0.00000000    0.00000000    0.00000000
     atom    5 type  3   force =     0.00000000    0.00000000    0.00000000
     The core correction contribution to forces
     atom    1 type  1   force =     0.00000000    0.00000000    0.00000000
     atom    2 type  2   force =    -0.00000000   -0.00000000   -0.00000000
     atom    3 type  3   force =     0.00000000    0.00000000    0.00000000
     atom    4 type  3   force =     0.00000000    0.00000000    0.00000000
     atom    5 type  3   force =     0.00000000    0.00000000    0.00000000
     The Hubbard contrib.    to forces
     atom    1 type  1   force =     0.00000000    0.00000000    0.00000000
     atom    2 type  2   force =     0.00000000    0.00000000    0.00000000
     atom    3 type  3   force =     0.00000000    0.00000000    0.00000000
     atom    4 type  3   force =     0.00000000    0.00000000    0.00000000
     atom    5 type  3   force =     0.00000000    0.00000000    0.00000000
     The SCF correction term to forces
     atom    1 type  1   force =    -0.00000000   -0.00000000    0.00000000
     atom    2 type  2   force =    -0.00000000    0.00000000   -0.00000000
     atom    3 type  3   force =     0.00000000   -0.00000000    0.00000000
     atom    4 type  3   force =    -0.00000000   -0.00000000    0.00000000
     atom    5 type  3   force =     0.00000000   -0.00000000   -0.00000000

     Total force =     0.000000     Total SCF correction =     0.000000


     Computing stress (Cartesian axis) and pressure

          total   stress  (Ry/bohr**3)                   (kbar)     P=      -42.22
  -0.00028701   0.00000000   0.00000000          -42.22        0.00        0.00
   0.00000000  -0.00028701   0.00000000            0.00      -42.22        0.00
   0.00000000   0.00000000  -0.00028701            0.00        0.00      -42.22

     kinetic stress (kbar)   9447.99      0.00      0.00
                                0.00   9447.99      0.00
                                0.00      0.00   9447.99

     local   stress (kbar)  -4439.01      0.00     -0.00
                                0.00  -4439.01     -0.00
                               -0.00     -0.00  -4439.01

     nonloc. stress (kbar)   1696.59      0.00      0.00
                                0.00   1696.59      0.00
                                0.00      0.00   1696.59

     hartree stress (kbar)   3371.39      0.00      0.00
                                0.00   3371.39      0.00
                                0.00      0.00   3371.39

     exc-cor stress (kbar)   -856.28     -0.00      0.00
                               -0.00   -856.28     -0.00
                                0.00     -0.00   -856.28

     corecor stress (kbar)  -1195.28      0.00     -0.00
                                0.00  -1195.28      0.00
                               -0.00      0.00  -1195.28

     ewald   stress (kbar)  -8067.63     -0.00     -0.00
                               -0.00  -8067.63     -0.00
                               -0.00     -0.00  -8067.63

     hubbard stress (kbar)      0.00      0.00      0.00
                                0.00      0.00      0.00
                                0.00      0.00      0.00

     DFT-D   stress (kbar)      0.00      0.00      0.00
                                0.00      0.00      0.00
                                0.00      0.00      0.00

     XDM     stress (kbar)      0.00      0.00      0.00
                                0.00      0.00      0.00
                                0.00      0.00      0.00

     dft-nl  stress (kbar)      0.00      0.00      0.00
                                0.00      0.00      0.00
                                0.00      0.00      0.00

     TS-vdW  stress (kbar)      0.00      0.00      0.00
                                0.00      0.00      0.00
                                0.00      0.00      0.00

     MDB     stress (kbar)      0.00      0.00      0.00
                                0.00      0.00      0.00
                                0.00      0.00      0.00

     3D-RISM stress (kbar)      0.00      0.00      0.00
                                0.00      0.00      0.00
                                0.00      0.00      0.00

     Energy error            =      1.4E-02 Ry
     Gradient error          =      0.0E+00 Ry/Bohr
     Cell gradient error     =      4.2E+01 kbar

     number of scf cycles    =   3
     number of bfgs steps    =   2

     enthalpy           old  =    -452.0310916263 Ry
     enthalpy           new  =    -452.0453877462 Ry

     CASE: enthalpy          _new < enthalpy          _old

     new trust radius        =       0.1399654246 bohr
     new conv_thr            =            1.0E-12 Ry

     new unit-cell volume =    916.46642 a.u.^3 (   135.80631 Ang^3 )
     density =      2.25134 g/cm^3

CELL_PARAMETERS (angstrom)
   5.140120724   0.000000000   0.000000000
   0.000000000   5.140120724   0.000000000
   0.000000000   0.000000000   5.140120724

ATOMIC_POSITIONS (crystal)
Ca               0.0000000000        0.0000000000        0.0000000000
Ti               0.5000000000        0.5000000000        0.5000000000
S                0.5000000000        0.0000000000        0.0000000000
S                0.0000000000        0.5000000000        0.0000000000
S                0.0000000000        0.0000000000        0.5000000000



     Writing config-only to output data dir ./tmp/catis3.save/ :
     XML data file
     NEW-OLD atomic charge density approx. for the potential

     total cpu time spent up to now is     4779.5 secs

     Self-consistent Calculation

     iteration #  1     ecut=    80.00 Ry     beta= 0.30
     Davidson diagonalization with overlap

---- Real-time Memory Report at c_bands before calling an iterative solver
           195 MiB given to the printing process from OS
             0 MiB allocation reported by mallinfo(arena+hblkhd)
         57215 MiB available memory on the node where the printing process lives
------------------
     ethr =  1.00E-06,  avg # of iterations = 11.9

     total cpu time spent up to now is     4922.4 secs

     total energy              =    -452.05811393 Ry
     estimated scf accuracy    <       0.00801720 Ry

     iteration #  2     ecut=    80.00 Ry     beta= 0.30
     Davidson diagonalization with overlap

---- Real-time Memory Report at c_bands before calling an iterative solver
           195 MiB given to the printing process from OS
             0 MiB allocation reported by mallinfo(arena+hblkhd)
         57141 MiB available memory on the node where the printing process lives
------------------
     ethr =  2.00E-05,  avg # of iterations =  7.8

     total cpu time spent up to now is     5014.6 secs

     total energy              =    -452.04878154 Ry
     estimated scf accuracy    <       0.56294905 Ry

     iteration #  3     ecut=    80.00 Ry     beta= 0.30
     Davidson diagonalization with overlap

---- Real-time Memory Report at c_bands before calling an iterative solver
           195 MiB given to the printing process from OS
             0 MiB allocation reported by mallinfo(arena+hblkhd)
         57220 MiB available memory on the node where the printing process lives
------------------
     ethr =  2.00E-05,  avg # of iterations =  7.7

     total cpu time spent up to now is     5108.3 secs

     total energy              =    -452.05931813 Ry
     estimated scf accuracy    <       0.00424204 Ry

     iteration #  4     ecut=    80.00 Ry     beta= 0.30
     Davidson diagonalization with overlap

---- Real-time Memory Report at c_bands before calling an iterative solver
           195 MiB given to the printing process from OS
             0 MiB allocation reported by mallinfo(arena+hblkhd)
         57245 MiB available memory on the node where the printing process lives
------------------
     ethr =  1.06E-05,  avg # of iterations =  1.7

     total cpu time spent up to now is     5141.3 secs

     total energy              =    -452.05941514 Ry
     estimated scf accuracy    <       0.00357630 Ry

     iteration #  5     ecut=    80.00 Ry     beta= 0.30
     Davidson diagonalization with overlap

---- Real-time Memory Report at c_bands before calling an iterative solver
           195 MiB given to the printing process from OS
             0 MiB allocation reported by mallinfo(arena+hblkhd)
         57162 MiB available memory on the node where the printing process lives
------------------
     ethr =  8.94E-06,  avg # of iterations =  1.0

     total cpu time spent up to now is     5166.7 secs

     total energy              =    -452.05935498 Ry
     estimated scf accuracy    <       0.00031910 Ry

     iteration #  6     ecut=    80.00 Ry     beta= 0.30
     Davidson diagonalization with overlap

---- Real-time Memory Report at c_bands before calling an iterative solver
           195 MiB given to the printing process from OS
             0 MiB allocation reported by mallinfo(arena+hblkhd)
         57079 MiB available memory on the node where the printing process lives
------------------
     ethr =  7.98E-07,  avg # of iterations =  4.3

     total cpu time spent up to now is     5223.9 secs

     total energy              =    -452.05981536 Ry
     estimated scf accuracy    <       0.00015850 Ry

     iteration #  7     ecut=    80.00 Ry     beta= 0.30
     Davidson diagonalization with overlap

---- Real-time Memory Report at c_bands before calling an iterative solver
           195 MiB given to the printing process from OS
             0 MiB allocation reported by mallinfo(arena+hblkhd)
         57246 MiB available memory on the node where the printing process lives
------------------
     ethr =  3.96E-07,  avg # of iterations =  2.9

     total cpu time spent up to now is     5267.6 secs

     total energy              =    -452.05979303 Ry
     estimated scf accuracy    <       0.00135226 Ry

     iteration #  8     ecut=    80.00 Ry     beta= 0.30
     Davidson diagonalization with overlap

---- Real-time Memory Report at c_bands before calling an iterative solver
           195 MiB given to the printing process from OS
             0 MiB allocation reported by mallinfo(arena+hblkhd)
         57057 MiB available memory on the node where the printing process lives
------------------
     ethr =  3.96E-07,  avg # of iterations =  1.3

     total cpu time spent up to now is     5296.5 secs

     total energy              =    -452.05983472 Ry
     estimated scf accuracy    <       0.00001093 Ry

     iteration #  9     ecut=    80.00 Ry     beta= 0.30
     Davidson diagonalization with overlap

---- Real-time Memory Report at c_bands before calling an iterative solver
           195 MiB given to the printing process from OS
             0 MiB allocation reported by mallinfo(arena+hblkhd)
         57058 MiB available memory on the node where the printing process lives
------------------
     ethr =  2.73E-08,  avg # of iterations =  8.6

     total cpu time spent up to now is     5395.3 secs

     total energy              =    -452.05984533 Ry
     estimated scf accuracy    <       0.00010514 Ry

     iteration # 10     ecut=    80.00 Ry     beta= 0.30
     Davidson diagonalization with overlap

---- Real-time Memory Report at c_bands before calling an iterative solver
           195 MiB given to the printing process from OS
             0 MiB allocation reported by mallinfo(arena+hblkhd)
         57157 MiB available memory on the node where the printing process lives
------------------
     ethr =  2.73E-08,  avg # of iterations =  1.2

     total cpu time spent up to now is     5423.3 secs

     total energy              =    -452.05983786 Ry
     estimated scf accuracy    <       0.00013251 Ry

     iteration # 11     ecut=    80.00 Ry     beta= 0.30
     Davidson diagonalization with overlap

---- Real-time Memory Report at c_bands before calling an iterative solver
           195 MiB given to the printing process from OS
             0 MiB allocation reported by mallinfo(arena+hblkhd)
         57081 MiB available memory on the node where the printing process lives
------------------
     ethr =  2.73E-08,  avg # of iterations =  1.2

     total cpu time spent up to now is     5450.1 secs

     total energy              =    -452.05984080 Ry
     estimated scf accuracy    <       0.00000285 Ry

     iteration # 12     ecut=    80.00 Ry     beta= 0.30
     Davidson diagonalization with overlap

---- Real-time Memory Report at c_bands before calling an iterative solver
           195 MiB given to the printing process from OS
             0 MiB allocation reported by mallinfo(arena+hblkhd)
         56879 MiB available memory on the node where the printing process lives
------------------
     ethr =  7.13E-09,  avg # of iterations =  2.1

     total cpu time spent up to now is     5488.3 secs

     total energy              =    -452.05984089 Ry
     estimated scf accuracy    <       0.00000370 Ry

     iteration # 13     ecut=    80.00 Ry     beta= 0.30
     Davidson diagonalization with overlap

---- Real-time Memory Report at c_bands before calling an iterative solver
           195 MiB given to the printing process from OS
             0 MiB allocation reported by mallinfo(arena+hblkhd)
         57034 MiB available memory on the node where the printing process lives
------------------
     ethr =  7.13E-09,  avg # of iterations =  1.1

     total cpu time spent up to now is     5516.4 secs

     total energy              =    -452.05984087 Ry
     estimated scf accuracy    <       0.00000443 Ry

     iteration # 14     ecut=    80.00 Ry     beta= 0.30
     Davidson diagonalization with overlap

---- Real-time Memory Report at c_bands before calling an iterative solver
           195 MiB given to the printing process from OS
             0 MiB allocation reported by mallinfo(arena+hblkhd)
         57209 MiB available memory on the node where the printing process lives
------------------
     ethr =  7.13E-09,  avg # of iterations =  1.1

     total cpu time spent up to now is     5543.7 secs

     total energy              =    -452.05984094 Ry
     estimated scf accuracy    <       0.00000238 Ry

     iteration # 15     ecut=    80.00 Ry     beta= 0.30
     Davidson diagonalization with overlap

---- Real-time Memory Report at c_bands before calling an iterative solver
           195 MiB given to the printing process from OS
             0 MiB allocation reported by mallinfo(arena+hblkhd)
         57288 MiB available memory on the node where the printing process lives
------------------
     ethr =  5.94E-09,  avg # of iterations =  1.1

     total cpu time spent up to now is     5571.9 secs

     total energy              =    -452.05984092 Ry
     estimated scf accuracy    <       0.00000288 Ry

     iteration # 16     ecut=    80.00 Ry     beta= 0.30
     Davidson diagonalization with overlap

---- Real-time Memory Report at c_bands before calling an iterative solver
           195 MiB given to the printing process from OS
             0 MiB allocation reported by mallinfo(arena+hblkhd)
         57315 MiB available memory on the node where the printing process lives
------------------
     ethr =  5.94E-09,  avg # of iterations =  1.2

     total cpu time spent up to now is     5600.6 secs

     total energy              =    -452.05984090 Ry
     estimated scf accuracy    <       0.00000228 Ry

     iteration # 17     ecut=    80.00 Ry     beta= 0.30
     Davidson diagonalization with overlap

---- Real-time Memory Report at c_bands before calling an iterative solver
           195 MiB given to the printing process from OS
             0 MiB allocation reported by mallinfo(arena+hblkhd)
         57170 MiB available memory on the node where the printing process lives
------------------
     ethr =  5.70E-09,  avg # of iterations =  1.1

     total cpu time spent up to now is     5626.9 secs

     total energy              =    -452.05984085 Ry
     estimated scf accuracy    <       0.00000116 Ry

     iteration # 18     ecut=    80.00 Ry     beta= 0.30
     Davidson diagonalization with overlap

---- Real-time Memory Report at c_bands before calling an iterative solver
           195 MiB given to the printing process from OS
             0 MiB allocation reported by mallinfo(arena+hblkhd)
         57052 MiB available memory on the node where the printing process lives
------------------
     ethr =  2.89E-09,  avg # of iterations =  2.2

     total cpu time spent up to now is     5664.8 secs

     total energy              =    -452.05984091 Ry
     estimated scf accuracy    <       0.00000003 Ry

     iteration # 19     ecut=    80.00 Ry     beta= 0.30
     Davidson diagonalization with overlap

---- Real-time Memory Report at c_bands before calling an iterative solver
           195 MiB given to the printing process from OS
             0 MiB allocation reported by mallinfo(arena+hblkhd)
         57282 MiB available memory on the node where the printing process lives
------------------
     c_bands:  1 eigenvalues not converged
     c_bands:  1 eigenvalues not converged
     c_bands:  1 eigenvalues not converged
     c_bands:  1 eigenvalues not converged
     ethr =  8.60E-11,  avg # of iterations = 12.8

     total cpu time spent up to now is     5809.1 secs

     total energy              =    -452.05984104 Ry
     estimated scf accuracy    <       0.00000074 Ry

     iteration # 20     ecut=    80.00 Ry     beta= 0.30
     Davidson diagonalization with overlap

---- Real-time Memory Report at c_bands before calling an iterative solver
           195 MiB given to the printing process from OS
             0 MiB allocation reported by mallinfo(arena+hblkhd)
         57128 MiB available memory on the node where the printing process lives
------------------
     ethr =  8.60E-11,  avg # of iterations =  3.2

     total cpu time spent up to now is     5855.9 secs

     total energy              =    -452.05984104 Ry
     estimated scf accuracy    <       0.00000003 Ry

     iteration # 21     ecut=    80.00 Ry     beta= 0.30
     Davidson diagonalization with overlap

---- Real-time Memory Report at c_bands before calling an iterative solver
           195 MiB given to the printing process from OS
             0 MiB allocation reported by mallinfo(arena+hblkhd)
         56887 MiB available memory on the node where the printing process lives
------------------
     ethr =  7.39E-11,  avg # of iterations =  3.2

     total cpu time spent up to now is     5903.9 secs

     total energy              =    -452.05984104 Ry
     estimated scf accuracy    <       0.00000001 Ry

     iteration # 22     ecut=    80.00 Ry     beta= 0.30
     Davidson diagonalization with overlap

---- Real-time Memory Report at c_bands before calling an iterative solver
           195 MiB given to the printing process from OS
             0 MiB allocation reported by mallinfo(arena+hblkhd)
         57015 MiB available memory on the node where the printing process lives
------------------
     ethr =  2.73E-11,  avg # of iterations =  2.8

     total cpu time spent up to now is     5946.1 secs

     total energy              =    -452.05984104 Ry
     estimated scf accuracy    <          1.9E-09 Ry

     iteration # 23     ecut=    80.00 Ry     beta= 0.30
     Davidson diagonalization with overlap

---- Real-time Memory Report at c_bands before calling an iterative solver
           195 MiB given to the printing process from OS
             0 MiB allocation reported by mallinfo(arena+hblkhd)
         57164 MiB available memory on the node where the printing process lives
------------------
     ethr =  4.69E-12,  avg # of iterations =  8.9

     total cpu time spent up to now is     6049.8 secs

     total energy              =    -452.05984104 Ry
     estimated scf accuracy    <       0.00000002 Ry

     iteration # 24     ecut=    80.00 Ry     beta= 0.30
     Davidson diagonalization with overlap

---- Real-time Memory Report at c_bands before calling an iterative solver
           195 MiB given to the printing process from OS
             0 MiB allocation reported by mallinfo(arena+hblkhd)
         57117 MiB available memory on the node where the printing process lives
------------------
     ethr =  4.69E-12,  avg # of iterations =  1.1

     total cpu time spent up to now is     6078.3 secs

     total energy              =    -452.05984104 Ry
     estimated scf accuracy    <       0.00000002 Ry

     iteration # 25     ecut=    80.00 Ry     beta= 0.30
     Davidson diagonalization with overlap

---- Real-time Memory Report at c_bands before calling an iterative solver
           195 MiB given to the printing process from OS
             0 MiB allocation reported by mallinfo(arena+hblkhd)
         57107 MiB available memory on the node where the printing process lives
------------------
     ethr =  4.69E-12,  avg # of iterations =  1.1

     total cpu time spent up to now is     6104.9 secs

     total energy              =    -452.05984104 Ry
     estimated scf accuracy    <       0.00000001 Ry

     iteration # 26     ecut=    80.00 Ry     beta= 0.30
     Davidson diagonalization with overlap

---- Real-time Memory Report at c_bands before calling an iterative solver
           195 MiB given to the printing process from OS
             0 MiB allocation reported by mallinfo(arena+hblkhd)
         57080 MiB available memory on the node where the printing process lives
------------------
     ethr =  4.69E-12,  avg # of iterations =  1.8

     total cpu time spent up to now is     6138.2 secs

     total energy              =    -452.05984104 Ry
     estimated scf accuracy    <          5.7E-10 Ry

     iteration # 27     ecut=    80.00 Ry     beta= 0.30
     Davidson diagonalization with overlap

---- Real-time Memory Report at c_bands before calling an iterative solver
           195 MiB given to the printing process from OS
             0 MiB allocation reported by mallinfo(arena+hblkhd)
         56982 MiB available memory on the node where the printing process lives
------------------
     ethr =  1.44E-12,  avg # of iterations =  2.0

     total cpu time spent up to now is     6174.3 secs

     total energy              =    -452.05984104 Ry
     estimated scf accuracy    <          1.5E-09 Ry

     iteration # 28     ecut=    80.00 Ry     beta= 0.30
     Davidson diagonalization with overlap

---- Real-time Memory Report at c_bands before calling an iterative solver
           195 MiB given to the printing process from OS
             0 MiB allocation reported by mallinfo(arena+hblkhd)
         57088 MiB available memory on the node where the printing process lives
------------------
     ethr =  1.44E-12,  avg # of iterations =  1.1

     total cpu time spent up to now is     6201.3 secs

     total energy              =    -452.05984104 Ry
     estimated scf accuracy    <          1.4E-10 Ry

     iteration # 29     ecut=    80.00 Ry     beta= 0.30
     Davidson diagonalization with overlap

---- Real-time Memory Report at c_bands before calling an iterative solver
           195 MiB given to the printing process from OS
             0 MiB allocation reported by mallinfo(arena+hblkhd)
         57134 MiB available memory on the node where the printing process lives
------------------
     ethr =  3.40E-13,  avg # of iterations =  7.1

     total cpu time spent up to now is     6286.8 secs

     total energy              =    -452.05984104 Ry
     estimated scf accuracy    <          2.3E-10 Ry

     iteration # 30     ecut=    80.00 Ry     beta= 0.30
     Davidson diagonalization with overlap

---- Real-time Memory Report at c_bands before calling an iterative solver
           195 MiB given to the printing process from OS
             0 MiB allocation reported by mallinfo(arena+hblkhd)
         57278 MiB available memory on the node where the printing process lives
------------------
     ethr =  3.40E-13,  avg # of iterations =  1.2

     total cpu time spent up to now is     6315.0 secs

     total energy              =    -452.05984104 Ry
     estimated scf accuracy    <          7.2E-11 Ry

     iteration # 31     ecut=    80.00 Ry     beta= 0.30
     Davidson diagonalization with overlap

---- Real-time Memory Report at c_bands before calling an iterative solver
           195 MiB given to the printing process from OS
             0 MiB allocation reported by mallinfo(arena+hblkhd)
         57042 MiB available memory on the node where the printing process lives
------------------
     ethr =  1.81E-13,  avg # of iterations =  1.6

     total cpu time spent up to now is     6347.4 secs

     total energy              =    -452.05984104 Ry
     estimated scf accuracy    <          4.0E-11 Ry

     iteration # 32     ecut=    80.00 Ry     beta= 0.30
     Davidson diagonalization with overlap

---- Real-time Memory Report at c_bands before calling an iterative solver
           195 MiB given to the printing process from OS
             0 MiB allocation reported by mallinfo(arena+hblkhd)
         57196 MiB available memory on the node where the printing process lives
------------------
     ethr =  1.00E-13,  avg # of iterations =  1.9

     total cpu time spent up to now is     6382.4 secs

     total energy              =    -452.05984104 Ry
     estimated scf accuracy    <          2.0E-12 Ry

     iteration # 33     ecut=    80.00 Ry     beta= 0.30
     Davidson diagonalization with overlap

---- Real-time Memory Report at c_bands before calling an iterative solver
           195 MiB given to the printing process from OS
             0 MiB allocation reported by mallinfo(arena+hblkhd)
         57006 MiB available memory on the node where the printing process lives
------------------
     ethr =  1.00E-13,  avg # of iterations =  1.1

     total cpu time spent up to now is     6409.4 secs

     End of self-consistent calculation

          k = 0.0000 0.0000 0.0000 ( 12893 PWs)   bands (ev):

   -54.3279 -33.5090 -30.5400 -30.5400 -30.5400 -14.7252 -14.7252 -14.7252
    -7.4549  -6.5465  -6.5465   2.0380   2.0380   2.0380   3.6218   3.6218
     3.6218   4.1437   4.1437   4.2330   4.2330   4.2330   4.4674   4.4674

     occupation numbers 
     1.0000   1.0000   1.0000   1.0000   1.0000   1.0000   1.0000   1.0000
     1.0000   1.0000   1.0000   1.0000   1.0000   1.0000   1.0000   1.0000
     1.0000   0.9341   0.9341   0.4795   0.4795   0.4795  -0.0165  -0.0165

          k = 0.0000 0.0000 0.1747 ( 12821 PWs)   bands (ev):

   -54.3279 -33.5088 -30.5401 -30.5400 -30.5400 -14.7406 -14.7249 -14.7249
    -7.3820  -6.5416  -6.5400   1.9311   2.0883   2.0883   3.3235   3.3980
     3.3980   3.8348   4.1826   4.2393   4.3360   4.3360   4.4102   4.4663

     occupation numbers 
     1.0000   1.0000   1.0000   1.0000   1.0000   1.0000   1.0000   1.0000
     1.0000   1.0000   1.0000   1.0000   1.0000   1.0000   1.0000   1.0000
     1.0000   1.0002   0.7748   0.4408   0.0149   0.0149  -0.0341  -0.0169

          k = 0.0000 0.0000 0.3494 ( 12721 PWs)   bands (ev):

   -54.3279 -33.5086 -30.5402 -30.5400 -30.5400 -14.7710 -14.7244 -14.7244
    -7.2298  -6.5316  -6.5305   1.8503   2.2298   2.2298   2.9056   2.9790
     3.0348   3.0348   4.1753   4.1753   4.2519   4.2600   4.6893   4.7448

     occupation numbers 
     1.0000   1.0000   1.0000   1.0000   1.0000   1.0000   1.0000   1.0000
     1.0000   1.0000   1.0000   1.0000   1.0000   1.0000   1.0000   1.0000
     1.0000   1.0000   0.8103   0.8103   0.3644   0.3168  -0.0000  -0.0000

          k = 0.0000 0.0000-0.5241 ( 12732 PWs)   bands (ev):

   -54.3279 -33.5085 -30.5402 -30.5400 -30.5400 -14.7860 -14.7241 -14.7241
    -7.1493  -6.5285  -6.5266   1.9908   2.3362   2.3561   2.3561   2.8202
     2.8202   2.8475   4.1032   4.1032   4.2582   4.3002   4.7875   4.8699

     occupation numbers 
     1.0000   1.0000   1.0000   1.0000   1.0000   1.0000   1.0000   1.0000
     1.0000   1.0000   1.0000   1.0000   1.0000   1.0000   1.0000   1.0000
     1.0000   1.0000   1.0163   1.0163   0.3273   0.1204  -0.0000  -0.0000

          k = 0.0000 0.1747 0.1747 ( 12769 PWs)   bands (ev):

   -54.3279 -33.5087 -30.5401 -30.5401 -30.5400 -14.7405 -14.7401 -14.7247
    -7.3082  -6.5359  -6.5334   1.7537   2.1373   2.2168   2.9001   3.2448
     3.5653   3.6001   4.1642   4.2361   4.2385   4.3521   4.3592   4.4840

     occupation numbers 
     1.0000   1.0000   1.0000   1.0000   1.0000   1.0000   1.0000   1.0000
     1.0000   1.0000   1.0000   1.0000   1.0000   1.0000   1.0000   1.0000
     1.0000   1.0000   0.8600   0.4605   0.4456  -0.0113  -0.0194  -0.0119

          k = 0.0000 0.1747 0.3494 ( 12735 PWs)   bands (ev):

   -54.3279 -33.5085 -30.5402 -30.5400 -30.5400 -14.7706 -14.7397 -14.7241
    -7.1542  -6.5255  -6.5219   1.6171   2.2758   2.3574   2.4363   2.9437
     2.9547   3.5446   3.9367   4.0450   4.2978   4.3832   4.5532   4.7123

     occupation numbers 
     1.0000   1.0000   1.0000   1.0000   1.0000   1.0000   1.0000   1.0000
     1.0000   1.0000   1.0000   1.0000   1.0000   1.0000   1.0000   1.0000
     1.0000   1.0000   1.0047   1.0332   0.1299  -0.0338  -0.0020  -0.0000

          k = 0.0000 0.1747-0.5241 ( 12760 PWs)   bands (ev):

   -54.3279 -33.5083 -30.5402 -30.5400 -30.5400 -14.7856 -14.7394 -14.7238
    -7.0730  -6.5195  -6.5192   1.6584   2.1094   2.4050   2.5225   2.5838
     2.7622   3.5136   3.8317   3.9576   4.3428   4.3871   4.6790   4.7469

     occupation numbers 
     1.0000   1.0000   1.0000   1.0000   1.0000   1.0000   1.0000   1.0000
     1.0000   1.0000   1.0000   1.0000   1.0000   1.0000   1.0000   1.0000
     1.0000   1.0000   1.0001   1.0080   0.0025  -0.0347  -0.0000  -0.0000

          k = 0.0000 0.3494 0.3494 ( 12806 PWs)   bands (ev):

   -54.3279 -33.5082 -30.5402 -30.5402 -30.5400 -14.7701 -14.7697 -14.7235
    -6.9983  -6.5121  -6.5056   1.3096   2.0276   2.4029   2.5292   2.7946
     2.8868   3.3836   3.7776   3.9179   4.3130   4.5808   4.6084   4.6865

     occupation numbers 
     1.0000   1.0000   1.0000   1.0000   1.0000   1.0000   1.0000   1.0000
     1.0000   1.0000   1.0000   1.0000   1.0000   1.0000   1.0000   1.0000
     1.0000   1.0000   1.0000   1.0028   0.0748  -0.0008  -0.0003  -0.0000

          k = 0.0000 0.3494-0.5241 ( 12754 PWs)   bands (ev):

   -54.3279 -33.5081 -30.5402 -30.5402 -30.5400 -14.7848 -14.7696 -14.7232
    -6.9179  -6.5024  -6.5005   1.1965   1.8540   2.5313   2.6644   2.6649
     2.7017   3.2913   3.6434   3.9488   4.3881   4.4408   4.6429   4.7881

     occupation numbers 
     1.0000   1.0000   1.0000   1.0000   1.0000   1.0000   1.0000   1.0000
     1.0000   1.0000   1.0000   1.0000   1.0000   1.0000   1.0000   1.0000
     1.0000   1.0000   1.0000   1.0064  -0.0348  -0.0253  -0.0001  -0.0000

          k = 0.0000-0.5241-0.5241 ( 12656 PWs)   bands (ev):

   -54.3279 -33.5079 -30.5402 -30.5402 -30.5400 -14.7844 -14.7844 -14.7229
    -6.8403  -6.4910  -6.4910   1.0191   1.7307   2.6219   2.6219   2.7934
     2.7934   2.9740   3.4645   4.0399   4.3343   4.3573   4.7745   4.7745

     occupation numbers 
     1.0000   1.0000   1.0000   1.0000   1.0000   1.0000   1.0000   1.0000
     1.0000   1.0000   1.0000   1.0000   1.0000   1.0000   1.0000   1.0000
     1.0000   1.0000   1.0000   1.0319   0.0186  -0.0174  -0.0000  -0.0000

          k = 0.1747 0.1747 0.1747 ( 12821 PWs)   bands (ev):

   -54.3279 -33.5086 -30.5401 -30.5401 -30.5401 -14.7403 -14.7398 -14.7398
    -7.2329  -6.5283  -6.5283   1.6243   2.2128   2.2128   2.8986   2.8986
     3.2793   3.8307   4.0986   4.0986   4.2379   4.2379   4.3261   4.6914

     occupation numbers 
     1.0000   1.0000   1.0000   1.0000   1.0000   1.0000   1.0000   1.0000
     1.0000   1.0000   1.0000   1.0000   1.0000   1.0000   1.0000   1.0000
     1.0000   1.0001   1.0209   1.0209   0.4493   0.4493   0.0374  -0.0000

          k = 0.1747 0.1747 0.3494 ( 12754 PWs)   bands (ev):

   -54.3279 -33.5083 -30.5402 -30.5400 -30.5400 -14.7703 -14.7395 -14.7392
    -7.0762  -6.5179  -6.5153   1.5142   2.1459   2.2104   2.5473   2.6553
     3.1172   3.7363   3.7842   3.9870   4.2724   4.4218   4.4955   4.6750

     occupation numbers 
     1.0000   1.0000   1.0000   1.0000   1.0000   1.0000   1.0000   1.0000
     1.0000   1.0000   1.0000   1.0000   1.0000   1.0000   1.0000   1.0000
     1.0000   1.0000   1.0000   1.0150   0.2484  -0.0313  -0.0093  -0.0000

          k = 0.1747 0.1747-0.5241 ( 12740 PWs)   bands (ev):

   -54.3279 -33.5082 -30.5402 -30.5400 -30.5400 -14.7852 -14.7392 -14.7389
    -6.9937  -6.5127  -6.5109   1.5861   1.9323   2.0773   2.4142   2.6248
     3.2839   3.5139   3.6387   3.9377   4.2985   4.5620   4.5897   4.7016

     occupation numbers 
     1.0000   1.0000   1.0000   1.0000   1.0000   1.0000   1.0000   1.0000
     1.0000   1.0000   1.0000   1.0000   1.0000   1.0000   1.0000   1.0000
     1.0000   1.0000   1.0000   1.0048   0.1269  -0.0015  -0.0006  -0.0000

          k = 0.1747 0.3494 0.3494 ( 12746 PWs)   bands (ev):

   -54.3279 -33.5081 -30.5402 -30.5402 -30.5400 -14.7697 -14.7694 -14.7388
    -6.9154  -6.5046  -6.5001   1.3252   1.8535   2.1302   2.2678   2.9233
     2.9246   3.6400   3.7715   3.9904   4.3144   4.4356   4.5087   4.7657

     occupation numbers 
     1.0000   1.0000   1.0000   1.0000   1.0000   1.0000   1.0000   1.0000
     1.0000   1.0000   1.0000   1.0000   1.0000   1.0000   1.0000   1.0000
     1.0000   1.0000   1.0000   1.0160   0.0703  -0.0271  -0.0068  -0.0000

          k = 0.1747 0.3494-0.5241 ( 12742 PWs)   bands (ev):

   -54.3279 -33.5079 -30.5402 -30.5401 -30.5400 -14.7845 -14.7692 -14.7385
    -6.8322  -6.4965  -6.4939   1.2597   1.7095   1.9931   2.1888   2.8893
     3.1902   3.3987   3.7125   4.0082   4.3579   4.4264   4.6362   4.7745

     occupation numbers 
     1.0000   1.0000   1.0000   1.0000   1.0000   1.0000   1.0000   1.0000
     1.0000   1.0000   1.0000   1.0000   1.0000   1.0000   1.0000   1.0000
     1.0000   1.0000   1.0000   1.0218  -0.0180  -0.0300  -0.0001  -0.0000

          k = 0.1747-0.5241-0.5241 ( 12744 PWs)   bands (ev):

   -54.3279 -33.5078 -30.5402 -30.5402 -30.5400 -14.7841 -14.7841 -14.7382
    -6.7512  -6.4853  -6.4853   1.0986   1.6204   2.0213   2.0213   2.9791
     3.2852   3.4373   3.4373   4.0892   4.3397   4.3510   4.7574   4.7574

     occupation numbers 
     1.0000   1.0000   1.0000   1.0000   1.0000   1.0000   1.0000   1.0000
     1.0000   1.0000   1.0000   1.0000   1.0000   1.0000   1.0000   1.0000
     1.0000   1.0000   1.0000   1.0282   0.0078  -0.0098  -0.0000  -0.0000

          k = 0.3494 0.3494 0.3494 ( 12746 PWs)   bands (ev):

   -54.3279 -33.5078 -30.5401 -30.5401 -30.5401 -14.7692 -14.7687 -14.7687
    -6.7436  -6.4890  -6.4890   1.3036   1.7164   1.7164   1.8319   2.9888
     2.9888   3.8438   3.8438   4.3071   4.3142   4.3142   4.3455   4.8371

     occupation numbers 
     1.0000   1.0000   1.0000   1.0000   1.0000   1.0000   1.0000   1.0000
     1.0000   1.0000   1.0000   1.0000   1.0000   1.0000   1.0000   1.0000
     1.0000   1.0002   1.0002   0.0946   0.0710   0.0710  -0.0019  -0.0000

          k = 0.3494 0.3494-0.5241 ( 12734 PWs)   bands (ev):

   -54.3279 -33.5077 -30.5402 -30.5401 -30.5401 -14.7837 -14.7687 -14.7684
    -6.6548  -6.4834  -6.4805   1.3549   1.4454   1.5625   1.7658   3.0123
     3.0357   3.8597   3.9087   4.2029   4.3170   4.3685   4.5798   4.7221

     occupation numbers 
     1.0000   1.0000   1.0000   1.0000   1.0000   1.0000   1.0000   1.0000
     1.0000   1.0000   1.0000   1.0000   1.0000   1.0000   1.0000   1.0000
     1.0000   1.0004   1.0021   0.6633   0.0622  -0.0271  -0.0008  -0.0000

          k = 0.3494-0.5241-0.5241 ( 12744 PWs)   bands (ev):

   -54.3279 -33.5075 -30.5402 -30.5402 -30.5401 -14.7834 -14.7834 -14.7682
    -6.5653  -6.4737  -6.4737   1.2784   1.3328   1.5501   1.5501   2.9893
     3.0593   4.0145   4.0145   4.2212   4.3137   4.3440   4.6848   4.6848

     occupation numbers 
     1.0000   1.0000   1.0000   1.0000   1.0000   1.0000   1.0000   1.0000
     1.0000   1.0000   1.0000   1.0000   1.0000   1.0000   1.0000   1.0000
     1.0000   1.0239   1.0239   0.5530   0.0726   0.0005  -0.0000  -0.0000

          k =-0.5241-0.5241-0.5241 ( 12712 PWs)   bands (ev):

   -54.3279 -33.5074 -30.5402 -30.5402 -30.5402 -14.7830 -14.7830 -14.7830
    -6.4678  -6.4678  -6.4678   1.1620   1.3821   1.3821   1.3821   2.9944
     2.9944   4.2885   4.2885   4.2885   4.3374   4.3374   4.5851   4.5851

     occupation numbers 
     1.0000   1.0000   1.0000   1.0000   1.0000   1.0000   1.0000   1.0000
     1.0000   1.0000   1.0000   1.0000   1.0000   1.0000   1.0000   1.0000
     1.0000   0.1697   0.1697   0.1697   0.0122   0.0122  -0.0007  -0.0007

     the Fermi energy is     4.2297 ev

!    total energy              =    -452.05984104 Ry
     estimated scf accuracy    <          3.5E-14 Ry
     smearing contrib. (-TS)   =       0.00009062 Ry
     internal energy E=F+TS    =    -452.05993166 Ry

     The total energy is F=E-TS. E is the sum of the following terms:
     one-electron contribution =    -108.57472387 Ry
     hartree contribution      =      65.55273220 Ry
     xc contribution           =     -45.59937660 Ry
     ewald contribution        =    -165.05029733 Ry
     one-center paw contrib.   =    -198.38826607 Ry
      -> PAW hartree energy AE =      47.84237869 Ry
      -> PAW hartree energy PS =     -47.61957274 Ry
      -> PAW xc energy AE      =     -71.54405219 Ry
      -> PAW xc energy PS      =      11.33268917 Ry
      -> total E_H with PAW    =      65.77553816 Ry
      -> total E_XC with PAW   =    -105.81073962 Ry

     convergence has been achieved in  33 iterations

     Forces acting on atoms (cartesian axes, Ry/au):

     atom    1 type  1   force =     0.00000000    0.00000000    0.00000000
     atom    2 type  2   force =     0.00000000    0.00000000    0.00000000
     atom    3 type  3   force =     0.00000000    0.00000000    0.00000000
     atom    4 type  3   force =     0.00000000    0.00000000    0.00000000
     atom    5 type  3   force =     0.00000000    0.00000000    0.00000000
     The non-local contrib.  to forces
     atom    1 type  1   force =     0.00000000    0.00000000    0.00000000
     atom    2 type  2   force =     0.00000000    0.00000000    0.00000000
     atom    3 type  3   force =     0.00000000    0.00000000    0.00000000
     atom    4 type  3   force =     0.00000000    0.00000000    0.00000000
     atom    5 type  3   force =     0.00000000    0.00000000    0.00000000
     The ionic contribution  to forces
     atom    1 type  1   force =    -0.00000000   -0.00000000   -0.00000000
     atom    2 type  2   force =     0.00000000    0.00000000    0.00000000
     atom    3 type  3   force =    -0.00000000   -0.00000000   -0.00000000
     atom    4 type  3   force =    -0.00000000   -0.00000000   -0.00000000
     atom    5 type  3   force =    -0.00000000   -0.00000000   -0.00000000
     The local contribution  to forces
     atom    1 type  1   force =     0.00000000    0.00000000    0.00000000
     atom    2 type  2   force =    -0.00000000   -0.00000000   -0.00000000
     atom    3 type  3   force =     0.00000000    0.00000000    0.00000000
     atom    4 type  3   force =     0.00000000    0.00000000    0.00000000
     atom    5 type  3   force =     0.00000000    0.00000000    0.00000000
     The core correction contribution to forces
     atom    1 type  1   force =     0.00000000    0.00000000    0.00000000
     atom    2 type  2   force =    -0.00000000   -0.00000000   -0.00000000
     atom    3 type  3   force =     0.00000000    0.00000000    0.00000000
     atom    4 type  3   force =     0.00000000    0.00000000    0.00000000
     atom    5 type  3   force =     0.00000000    0.00000000    0.00000000
     The Hubbard contrib.    to forces
     atom    1 type  1   force =     0.00000000    0.00000000    0.00000000
     atom    2 type  2   force =     0.00000000    0.00000000    0.00000000
     atom    3 type  3   force =     0.00000000    0.00000000    0.00000000
     atom    4 type  3   force =     0.00000000    0.00000000    0.00000000
     atom    5 type  3   force =     0.00000000    0.00000000    0.00000000
     The SCF correction term to forces
     atom    1 type  1   force =    -0.00000000    0.00000000   -0.00000000
     atom    2 type  2   force =     0.00000000   -0.00000000   -0.00000000
     atom    3 type  3   force =    -0.00000000   -0.00000000    0.00000000
     atom    4 type  3   force =    -0.00000000    0.00000000    0.00000000
     atom    5 type  3   force =     0.00000000    0.00000000   -0.00000000

     Total force =     0.000000     Total SCF correction =     0.000000


     Computing stress (Cartesian axis) and pressure

          total   stress  (Ry/bohr**3)                   (kbar)     P=      -22.65
  -0.00015397   0.00000000   0.00000000          -22.65        0.00        0.00
   0.00000000  -0.00015397   0.00000000            0.00      -22.65        0.00
   0.00000000   0.00000000  -0.00015397            0.00        0.00      -22.65

     kinetic stress (kbar)  10137.15      0.00      0.00
                                0.00  10137.15      0.00
                                0.00      0.00  10137.15

     local   stress (kbar)  -4457.51     -0.00     -0.00
                               -0.00  -4457.51     -0.00
                               -0.00     -0.00  -4457.51

     nonloc. stress (kbar)   1821.82      0.00      0.00
                                0.00   1821.82      0.00
                                0.00      0.00   1821.82

     hartree stress (kbar)   3507.36      0.00      0.00
                                0.00   3507.36      0.00
                                0.00      0.00   3507.36

     exc-cor stress (kbar)   -921.15     -0.00      0.00
                               -0.00   -921.15     -0.00
                                0.00     -0.00   -921.15

     corecor stress (kbar)  -1279.40     -0.00      0.00
                               -0.00  -1279.40     -0.00
                                0.00     -0.00  -1279.40

     ewald   stress (kbar)  -8830.92     -0.00     -0.00
                               -0.00  -8830.92     -0.00
                               -0.00     -0.00  -8830.92

     hubbard stress (kbar)      0.00      0.00      0.00
                                0.00      0.00      0.00
                                0.00      0.00      0.00

     DFT-D   stress (kbar)      0.00      0.00      0.00
                                0.00      0.00      0.00
                                0.00      0.00      0.00

     XDM     stress (kbar)      0.00      0.00      0.00
                                0.00      0.00      0.00
                                0.00      0.00      0.00

     dft-nl  stress (kbar)      0.00      0.00      0.00
                                0.00      0.00      0.00
                                0.00      0.00      0.00

     TS-vdW  stress (kbar)      0.00      0.00      0.00
                                0.00      0.00      0.00
                                0.00      0.00      0.00

     MDB     stress (kbar)      0.00      0.00      0.00
                                0.00      0.00      0.00
                                0.00      0.00      0.00

     3D-RISM stress (kbar)      0.00      0.00      0.00
                                0.00      0.00      0.00
                                0.00      0.00      0.00

     Energy error            =      1.4E-02 Ry
     Gradient error          =      0.0E+00 Ry/Bohr
     Cell gradient error     =      2.3E+01 kbar

     number of scf cycles    =   4
     number of bfgs steps    =   3

     enthalpy           old  =    -452.0453877462 Ry
     enthalpy           new  =    -452.0598410426 Ry

     CASE: enthalpy          _new < enthalpy          _old

     new trust radius        =       0.1456444805 bohr
     new conv_thr            =            1.0E-12 Ry

     new unit-cell volume =    851.90773 a.u.^3 (   126.23970 Ang^3 )
     density =      2.42195 g/cm^3

CELL_PARAMETERS (angstrom)
   5.016475008   0.000000000   0.000000000
   0.000000000   5.016475008   0.000000000
   0.000000000   0.000000000   5.016475008

ATOMIC_POSITIONS (crystal)
Ca               0.0000000000        0.0000000000        0.0000000000
Ti               0.5000000000        0.5000000000        0.5000000000
S                0.5000000000        0.0000000000        0.0000000000
S                0.0000000000        0.5000000000        0.0000000000
S                0.0000000000        0.0000000000        0.5000000000



     Writing config-only to output data dir ./tmp/catis3.save/ :
     XML data file
     NEW-OLD atomic charge density approx. for the potential

     total cpu time spent up to now is     6438.0 secs

     Self-consistent Calculation

     iteration #  1     ecut=    80.00 Ry     beta= 0.30
     Davidson diagonalization with overlap

---- Real-time Memory Report at c_bands before calling an iterative solver
           195 MiB given to the printing process from OS
             0 MiB allocation reported by mallinfo(arena+hblkhd)
         57207 MiB available memory on the node where the printing process lives
------------------
     c_bands:  1 eigenvalues not converged
     ethr =  1.00E-06,  avg # of iterations = 12.2

     total cpu time spent up to now is     6582.9 secs

     total energy              =    -452.06142965 Ry
     estimated scf accuracy    <       0.01005368 Ry

     iteration #  2     ecut=    80.00 Ry     beta= 0.30
     Davidson diagonalization with overlap

---- Real-time Memory Report at c_bands before calling an iterative solver
           195 MiB given to the printing process from OS
             0 MiB allocation reported by mallinfo(arena+hblkhd)
         57081 MiB available memory on the node where the printing process lives
------------------
     ethr =  2.51E-05,  avg # of iterations =  8.0

     total cpu time spent up to now is     6680.8 secs

     total energy              =    -452.05154826 Ry
     estimated scf accuracy    <       0.58380202 Ry

     iteration #  3     ecut=    80.00 Ry     beta= 0.30
     Davidson diagonalization with overlap

---- Real-time Memory Report at c_bands before calling an iterative solver
           195 MiB given to the printing process from OS
             0 MiB allocation reported by mallinfo(arena+hblkhd)
         57143 MiB available memory on the node where the printing process lives
------------------
     ethr =  2.51E-05,  avg # of iterations =  7.1

     total cpu time spent up to now is     6768.0 secs

     total energy              =    -452.06364855 Ry
     estimated scf accuracy    <       0.00347350 Ry

     iteration #  4     ecut=    80.00 Ry     beta= 0.30
     Davidson diagonalization with overlap

---- Real-time Memory Report at c_bands before calling an iterative solver
           195 MiB given to the printing process from OS
             0 MiB allocation reported by mallinfo(arena+hblkhd)
         57013 MiB available memory on the node where the printing process lives
------------------
     ethr =  8.68E-06,  avg # of iterations =  3.4

     total cpu time spent up to now is     6817.4 secs

     total energy              =    -452.06371083 Ry
     estimated scf accuracy    <       0.00380542 Ry

     iteration #  5     ecut=    80.00 Ry     beta= 0.30
     Davidson diagonalization with overlap

---- Real-time Memory Report at c_bands before calling an iterative solver
           195 MiB given to the printing process from OS
             0 MiB allocation reported by mallinfo(arena+hblkhd)
         57146 MiB available memory on the node where the printing process lives
------------------
     ethr =  8.68E-06,  avg # of iterations =  1.0

     total cpu time spent up to now is     6843.3 secs

     total energy              =    -452.06377725 Ry
     estimated scf accuracy    <       0.00140695 Ry

     iteration #  6     ecut=    80.00 Ry     beta= 0.30
     Davidson diagonalization with overlap

---- Real-time Memory Report at c_bands before calling an iterative solver
           195 MiB given to the printing process from OS
             0 MiB allocation reported by mallinfo(arena+hblkhd)
         57069 MiB available memory on the node where the printing process lives
------------------
     ethr =  3.52E-06,  avg # of iterations =  1.1

     total cpu time spent up to now is     6871.5 secs

     total energy              =    -452.06371584 Ry
     estimated scf accuracy    <       0.00075878 Ry

     iteration #  7     ecut=    80.00 Ry     beta= 0.30
     Davidson diagonalization with overlap

---- Real-time Memory Report at c_bands before calling an iterative solver
           195 MiB given to the printing process from OS
             0 MiB allocation reported by mallinfo(arena+hblkhd)
         57086 MiB available memory on the node where the printing process lives
------------------
     ethr =  1.90E-06,  avg # of iterations =  1.6

     total cpu time spent up to now is     6903.3 secs

     total energy              =    -452.06382752 Ry
     estimated scf accuracy    <       0.00021444 Ry

     iteration #  8     ecut=    80.00 Ry     beta= 0.30
     Davidson diagonalization with overlap

---- Real-time Memory Report at c_bands before calling an iterative solver
           195 MiB given to the printing process from OS
             0 MiB allocation reported by mallinfo(arena+hblkhd)
         57184 MiB available memory on the node where the printing process lives
------------------
     ethr =  5.36E-07,  avg # of iterations =  3.0

     total cpu time spent up to now is     6947.3 secs

     total energy              =    -452.06384551 Ry
     estimated scf accuracy    <       0.00008787 Ry

     iteration #  9     ecut=    80.00 Ry     beta= 0.30
     Davidson diagonalization with overlap

---- Real-time Memory Report at c_bands before calling an iterative solver
           195 MiB given to the printing process from OS
             0 MiB allocation reported by mallinfo(arena+hblkhd)
         57012 MiB available memory on the node where the printing process lives
------------------
     ethr =  2.20E-07,  avg # of iterations =  1.9

     total cpu time spent up to now is     6980.8 secs

     total energy              =    -452.06384830 Ry
     estimated scf accuracy    <       0.00002377 Ry

     iteration # 10     ecut=    80.00 Ry     beta= 0.30
     Davidson diagonalization with overlap

---- Real-time Memory Report at c_bands before calling an iterative solver
           195 MiB given to the printing process from OS
             0 MiB allocation reported by mallinfo(arena+hblkhd)
         57138 MiB available memory on the node where the printing process lives
------------------
     ethr =  5.94E-08,  avg # of iterations =  6.8

     total cpu time spent up to now is     7065.7 secs

     total energy              =    -452.06385392 Ry
     estimated scf accuracy    <       0.00000055 Ry

     iteration # 11     ecut=    80.00 Ry     beta= 0.30
     Davidson diagonalization with overlap

---- Real-time Memory Report at c_bands before calling an iterative solver
           195 MiB given to the printing process from OS
             0 MiB allocation reported by mallinfo(arena+hblkhd)
         57082 MiB available memory on the node where the printing process lives
------------------
     c_bands:  1 eigenvalues not converged
     ethr =  1.36E-09,  avg # of iterations =  7.8

     total cpu time spent up to now is     7159.0 secs

     total energy              =    -452.06385489 Ry
     estimated scf accuracy    <       0.00000098 Ry

     iteration # 12     ecut=    80.00 Ry     beta= 0.30
     Davidson diagonalization with overlap

---- Real-time Memory Report at c_bands before calling an iterative solver
           195 MiB given to the printing process from OS
             0 MiB allocation reported by mallinfo(arena+hblkhd)
         57138 MiB available memory on the node where the printing process lives
------------------
     ethr =  1.36E-09,  avg # of iterations =  2.0

     total cpu time spent up to now is     7196.3 secs

     total energy              =    -452.06385516 Ry
     estimated scf accuracy    <       0.00000728 Ry

     iteration # 13     ecut=    80.00 Ry     beta= 0.30
     Davidson diagonalization with overlap

---- Real-time Memory Report at c_bands before calling an iterative solver
           195 MiB given to the printing process from OS
             0 MiB allocation reported by mallinfo(arena+hblkhd)
         57236 MiB available memory on the node where the printing process lives
------------------
     ethr =  1.36E-09,  avg # of iterations =  1.1

     total cpu time spent up to now is     7223.1 secs

     total energy              =    -452.06385540 Ry
     estimated scf accuracy    <       0.00000767 Ry

     iteration # 14     ecut=    80.00 Ry     beta= 0.30
     Davidson diagonalization with overlap

---- Real-time Memory Report at c_bands before calling an iterative solver
           195 MiB given to the printing process from OS
             0 MiB allocation reported by mallinfo(arena+hblkhd)
         57081 MiB available memory on the node where the printing process lives
------------------
     ethr =  1.36E-09,  avg # of iterations =  1.4

     total cpu time spent up to now is     7254.1 secs

     total energy              =    -452.06385527 Ry
     estimated scf accuracy    <       0.00001212 Ry

     iteration # 15     ecut=    80.00 Ry     beta= 0.30
     Davidson diagonalization with overlap

---- Real-time Memory Report at c_bands before calling an iterative solver
           195 MiB given to the printing process from OS
             0 MiB allocation reported by mallinfo(arena+hblkhd)
         57099 MiB available memory on the node where the printing process lives
------------------
     ethr =  1.36E-09,  avg # of iterations =  1.2

     total cpu time spent up to now is     7281.3 secs

     total energy              =    -452.06385436 Ry
     estimated scf accuracy    <       0.00001049 Ry

     iteration # 16     ecut=    80.00 Ry     beta= 0.30
     Davidson diagonalization with overlap

---- Real-time Memory Report at c_bands before calling an iterative solver
           195 MiB given to the printing process from OS
             0 MiB allocation reported by mallinfo(arena+hblkhd)
         57033 MiB available memory on the node where the printing process lives
------------------
     ethr =  1.36E-09,  avg # of iterations =  2.9

     total cpu time spent up to now is     7326.3 secs

     total energy              =    -452.06385455 Ry
     estimated scf accuracy    <       0.00000237 Ry

     iteration # 17     ecut=    80.00 Ry     beta= 0.30
     Davidson diagonalization with overlap

---- Real-time Memory Report at c_bands before calling an iterative solver
           195 MiB given to the printing process from OS
             0 MiB allocation reported by mallinfo(arena+hblkhd)
         57029 MiB available memory on the node where the printing process lives
------------------
     ethr =  1.36E-09,  avg # of iterations =  1.4

     total cpu time spent up to now is     7357.2 secs

     total energy              =    -452.06385456 Ry
     estimated scf accuracy    <       0.00000247 Ry

     iteration # 18     ecut=    80.00 Ry     beta= 0.30
     Davidson diagonalization with overlap

---- Real-time Memory Report at c_bands before calling an iterative solver
           195 MiB given to the printing process from OS
             0 MiB allocation reported by mallinfo(arena+hblkhd)
         57139 MiB available memory on the node where the printing process lives
------------------
     ethr =  1.36E-09,  avg # of iterations =  1.6

     total cpu time spent up to now is     7389.3 secs

     total energy              =    -452.06385441 Ry
     estimated scf accuracy    <       0.00000224 Ry

     iteration # 19     ecut=    80.00 Ry     beta= 0.30
     Davidson diagonalization with overlap

---- Real-time Memory Report at c_bands before calling an iterative solver
           195 MiB given to the printing process from OS
             0 MiB allocation reported by mallinfo(arena+hblkhd)
         57212 MiB available memory on the node where the printing process lives
------------------
     ethr =  1.36E-09,  avg # of iterations =  1.4

     total cpu time spent up to now is     7418.0 secs

     total energy              =    -452.06385440 Ry
     estimated scf accuracy    <       0.00000017 Ry

     iteration # 20     ecut=    80.00 Ry     beta= 0.30
     Davidson diagonalization with overlap

---- Real-time Memory Report at c_bands before calling an iterative solver
           195 MiB given to the printing process from OS
             0 MiB allocation reported by mallinfo(arena+hblkhd)
         57279 MiB available memory on the node where the printing process lives
------------------
     ethr =  4.24E-10,  avg # of iterations =  5.6

     total cpu time spent up to now is     7490.7 secs

     total energy              =    -452.06385447 Ry
     estimated scf accuracy    <       0.00000003 Ry

     iteration # 21     ecut=    80.00 Ry     beta= 0.30
     Davidson diagonalization with overlap

---- Real-time Memory Report at c_bands before calling an iterative solver
           195 MiB given to the printing process from OS
             0 MiB allocation reported by mallinfo(arena+hblkhd)
         57107 MiB available memory on the node where the printing process lives
------------------
     ethr =  7.16E-11,  avg # of iterations =  4.8

     total cpu time spent up to now is     7553.2 secs

     total energy              =    -452.06385448 Ry
     estimated scf accuracy    <       0.00000002 Ry

     iteration # 22     ecut=    80.00 Ry     beta= 0.30
     Davidson diagonalization with overlap

---- Real-time Memory Report at c_bands before calling an iterative solver
           195 MiB given to the printing process from OS
             0 MiB allocation reported by mallinfo(arena+hblkhd)
         57200 MiB available memory on the node where the printing process lives
------------------
     ethr =  4.27E-11,  avg # of iterations =  1.4

     total cpu time spent up to now is     7582.1 secs

     total energy              =    -452.06385448 Ry
     estimated scf accuracy    <       0.00000002 Ry

     iteration # 23     ecut=    80.00 Ry     beta= 0.30
     Davidson diagonalization with overlap

---- Real-time Memory Report at c_bands before calling an iterative solver
           195 MiB given to the printing process from OS
             0 MiB allocation reported by mallinfo(arena+hblkhd)
         57033 MiB available memory on the node where the printing process lives
------------------
     ethr =  4.05E-11,  avg # of iterations =  1.2

     total cpu time spent up to now is     7609.9 secs

     total energy              =    -452.06385447 Ry
     estimated scf accuracy    <       0.00000001 Ry

     iteration # 24     ecut=    80.00 Ry     beta= 0.30
     Davidson diagonalization with overlap

---- Real-time Memory Report at c_bands before calling an iterative solver
           195 MiB given to the printing process from OS
             0 MiB allocation reported by mallinfo(arena+hblkhd)
         57254 MiB available memory on the node where the printing process lives
------------------
     ethr =  2.54E-11,  avg # of iterations =  1.2

     total cpu time spent up to now is     7639.2 secs

     total energy              =    -452.06385447 Ry
     estimated scf accuracy    <          7.6E-09 Ry

     iteration # 25     ecut=    80.00 Ry     beta= 0.30
     Davidson diagonalization with overlap

---- Real-time Memory Report at c_bands before calling an iterative solver
           195 MiB given to the printing process from OS
             0 MiB allocation reported by mallinfo(arena+hblkhd)
         57140 MiB available memory on the node where the printing process lives
------------------
     ethr =  1.90E-11,  avg # of iterations =  3.0

     total cpu time spent up to now is     7684.2 secs

     total energy              =    -452.06385447 Ry
     estimated scf accuracy    <          4.0E-09 Ry

     iteration # 26     ecut=    80.00 Ry     beta= 0.30
     Davidson diagonalization with overlap

---- Real-time Memory Report at c_bands before calling an iterative solver
           195 MiB given to the printing process from OS
             0 MiB allocation reported by mallinfo(arena+hblkhd)
         57108 MiB available memory on the node where the printing process lives
------------------
     ethr =  9.90E-12,  avg # of iterations =  3.0

     total cpu time spent up to now is     7730.7 secs

     total energy              =    -452.06385447 Ry
     estimated scf accuracy    <          1.9E-09 Ry

     iteration # 27     ecut=    80.00 Ry     beta= 0.30
     Davidson diagonalization with overlap

---- Real-time Memory Report at c_bands before calling an iterative solver
           195 MiB given to the printing process from OS
             0 MiB allocation reported by mallinfo(arena+hblkhd)
         57174 MiB available memory on the node where the printing process lives
------------------
     ethr =  4.82E-12,  avg # of iterations =  6.1

     total cpu time spent up to now is     7806.8 secs

     total energy              =    -452.06385447 Ry
     estimated scf accuracy    <          8.4E-10 Ry

     iteration # 28     ecut=    80.00 Ry     beta= 0.30
     Davidson diagonalization with overlap

---- Real-time Memory Report at c_bands before calling an iterative solver
           195 MiB given to the printing process from OS
             0 MiB allocation reported by mallinfo(arena+hblkhd)
         57080 MiB available memory on the node where the printing process lives
------------------
     ethr =  2.10E-12,  avg # of iterations =  2.0

     total cpu time spent up to now is     7843.2 secs

     total energy              =    -452.06385447 Ry
     estimated scf accuracy    <          3.8E-10 Ry

     iteration # 29     ecut=    80.00 Ry     beta= 0.30
     Davidson diagonalization with overlap

---- Real-time Memory Report at c_bands before calling an iterative solver
           195 MiB given to the printing process from OS
             0 MiB allocation reported by mallinfo(arena+hblkhd)
         57111 MiB available memory on the node where the printing process lives
------------------
     ethr =  9.54E-13,  avg # of iterations =  4.1

     total cpu time spent up to now is     7899.9 secs

     total energy              =    -452.06385447 Ry
     estimated scf accuracy    <          1.0E-10 Ry

     iteration # 30     ecut=    80.00 Ry     beta= 0.30
     Davidson diagonalization with overlap

---- Real-time Memory Report at c_bands before calling an iterative solver
           195 MiB given to the printing process from OS
             0 MiB allocation reported by mallinfo(arena+hblkhd)
         57220 MiB available memory on the node where the printing process lives
------------------
     ethr =  2.59E-13,  avg # of iterations =  7.2

     total cpu time spent up to now is     7989.4 secs

     total energy              =    -452.06385447 Ry
     estimated scf accuracy    <          5.3E-11 Ry

     iteration # 31     ecut=    80.00 Ry     beta= 0.30
     Davidson diagonalization with overlap

---- Real-time Memory Report at c_bands before calling an iterative solver
           195 MiB given to the printing process from OS
             0 MiB allocation reported by mallinfo(arena+hblkhd)
         57094 MiB available memory on the node where the printing process lives
------------------
     ethr =  1.34E-13,  avg # of iterations =  1.9

     total cpu time spent up to now is     8024.6 secs

     total energy              =    -452.06385447 Ry
     estimated scf accuracy    <          4.8E-11 Ry

     iteration # 32     ecut=    80.00 Ry     beta= 0.30
     Davidson diagonalization with overlap

---- Real-time Memory Report at c_bands before calling an iterative solver
           195 MiB given to the printing process from OS
             0 MiB allocation reported by mallinfo(arena+hblkhd)
         57323 MiB available memory on the node where the printing process lives
------------------
     ethr =  1.20E-13,  avg # of iterations =  1.7

     total cpu time spent up to now is     8057.9 secs

     total energy              =    -452.06385447 Ry
     estimated scf accuracy    <          7.9E-12 Ry

     iteration # 33     ecut=    80.00 Ry     beta= 0.30
     Davidson diagonalization with overlap

---- Real-time Memory Report at c_bands before calling an iterative solver
           195 MiB given to the printing process from OS
             0 MiB allocation reported by mallinfo(arena+hblkhd)
         57031 MiB available memory on the node where the printing process lives
------------------
     ethr =  1.00E-13,  avg # of iterations =  1.1

     total cpu time spent up to now is     8086.3 secs

     End of self-consistent calculation

          k = 0.0000 0.0000 0.0000 ( 12893 PWs)   bands (ev):

   -53.5896 -32.5772 -29.7966 -29.7966 -29.7966 -13.8618 -13.8618 -13.8618
    -6.9747  -5.9320  -5.9320   2.5909   2.5909   2.5909   4.2691   4.2691
     4.2691   4.8644   4.8644   4.9606   4.9606   4.9606   5.2801   5.2801

     occupation numbers 
     1.0000   1.0000   1.0000   1.0000   1.0000   1.0000   1.0000   1.0000
     1.0000   1.0000   1.0000   1.0000   1.0000   1.0000   1.0000   1.0000
     1.0000   0.9991   0.9991   0.6095   0.6095   0.6095  -0.0037  -0.0037

          k = 0.0000 0.0000 0.1790 ( 12821 PWs)   bands (ev):

   -53.5896 -32.5770 -29.7967 -29.7966 -29.7966 -13.8843 -13.8614 -13.8614
    -6.8886  -5.9255  -5.9151   2.4677   2.6410   2.6410   3.9312   4.0128
     4.0128   4.5908   4.9110   4.9690   5.1245   5.1245   5.1690   5.2368

     occupation numbers 
     1.0000   1.0000   1.0000   1.0000   1.0000   1.0000   1.0000   1.0000
     1.0000   1.0000   1.0000   1.0000   1.0000   1.0000   1.0000   1.0000
     1.0000   1.0002   0.8674   0.5583  -0.0312  -0.0312  -0.0317  -0.0109

          k = 0.0000 0.0000 0.3580 ( 12721 PWs)   bands (ev):

   -53.5896 -32.5766 -29.7969 -29.7966 -29.7966 -13.9285 -13.8605 -13.8605
    -6.7127  -5.9125  -5.8807   2.3723   2.7867   2.7867   3.5423   3.5551
     3.6017   3.6017   4.9640   4.9640   4.9859   5.0048   5.4880   5.5445

     occupation numbers 
     1.0000   1.0000   1.0000   1.0000   1.0000   1.0000   1.0000   1.0000
     1.0000   1.0000   1.0000   1.0000   1.0000   1.0000   1.0000   1.0000
     1.0000   1.0000   0.5892   0.5892   0.4534   0.3393  -0.0000  -0.0000

          k = 0.0000 0.0000-0.5370 ( 12732 PWs)   bands (ev):

   -53.5896 -32.5764 -29.7969 -29.7966 -29.7966 -13.9501 -13.8601 -13.8601
    -6.6227  -5.9060  -5.8632   2.5281   2.9165   2.9268   2.9268   3.3559
     3.3559   3.3942   4.8883   4.8883   4.9944   5.0538   5.5998   5.6883

     occupation numbers 
     1.0000   1.0000   1.0000   1.0000   1.0000   1.0000   1.0000   1.0000
     1.0000   1.0000   1.0000   1.0000   1.0000   1.0000   1.0000   1.0000
     1.0000   1.0000   0.9460   0.9460   0.4011   0.1016  -0.0000  -0.0000

          k = 0.0000 0.1790 0.1790 ( 12769 PWs)   bands (ev):

   -53.5896 -32.5768 -29.7967 -29.7967 -29.7966 -13.8842 -13.8835 -13.8609
    -6.8007  -5.9135  -5.9033   2.2663   2.6889   2.7752   3.4672   3.8403
     4.2065   4.3420   4.9146   4.9739   5.0219   5.1022   5.1047   5.2504

     occupation numbers 
     1.0000   1.0000   1.0000   1.0000   1.0000   1.0000   1.0000   1.0000
     1.0000   1.0000   1.0000   1.0000   1.0000   1.0000   1.0000   1.0000
     1.0000   1.0000   0.8528   0.5279   0.2441  -0.0130  -0.0159  -0.0080

          k = 0.0000 0.1790 0.3580 ( 12735 PWs)   bands (ev):

   -53.5896 -32.5764 -29.7968 -29.7967 -29.7966 -13.9279 -13.8829 -13.8601
    -6.6218  -5.8976  -5.8697   2.1016   2.8285   2.9204   2.9885   3.5140
     3.5663   4.1891   4.6644   4.8198   5.0448   5.1312   5.3325   5.5071

     occupation numbers 
     1.0000   1.0000   1.0000   1.0000   1.0000   1.0000   1.0000   1.0000
     1.0000   1.0000   1.0000   1.0000   1.0000   1.0000   1.0000   1.0000
     1.0000   1.0000   1.0026   1.0349   0.1367  -0.0336  -0.0007  -0.0000

          k = 0.0000 0.1790-0.5370 ( 12760 PWs)   bands (ev):

   -53.5896 -32.5762 -29.7969 -29.7967 -29.7966 -13.9495 -13.8824 -13.8596
    -6.5308  -5.8901  -5.8510   2.1292   2.6855   2.9691   3.0940   3.1214
     3.2946   4.1427   4.5606   4.7278   5.0993   5.1380   5.4733   5.5522

     occupation numbers 
     1.0000   1.0000   1.0000   1.0000   1.0000   1.0000   1.0000   1.0000
     1.0000   1.0000   1.0000   1.0000   1.0000   1.0000   1.0000   1.0000
     1.0000   1.0000   1.0001   1.0129  -0.0093  -0.0350  -0.0000  -0.0000

          k = 0.0000 0.3580 0.3580 ( 12806 PWs)   bands (ev):

   -53.5896 -32.5760 -29.7968 -29.7968 -29.7966 -13.9271 -13.9264 -13.8592
    -6.4403  -5.8638  -5.8442   1.7393   2.5931   2.9463   3.0869   3.3365
     3.4936   4.0168   4.5347   4.6106   5.0630   5.3666   5.3844   5.4801

     occupation numbers 
     1.0000   1.0000   1.0000   1.0000   1.0000   1.0000   1.0000   1.0000
     1.0000   1.0000   1.0000   1.0000   1.0000   1.0000   1.0000   1.0000
     1.0000   1.0000   1.0000   1.0004   0.0705  -0.0002  -0.0001  -0.0000

          k = 0.0000 0.3580-0.5370 ( 12754 PWs)   bands (ev):

   -53.5896 -32.5758 -29.7969 -29.7968 -29.7966 -13.9482 -13.9262 -13.8587
    -6.3515  -5.8462  -5.8262   1.6039   2.4258   3.0746   3.1904   3.2315
     3.2593   3.9191   4.3980   4.6472   5.1453   5.2124   5.4278   5.6017

     occupation numbers 
     1.0000   1.0000   1.0000   1.0000   1.0000   1.0000   1.0000   1.0000
     1.0000   1.0000   1.0000   1.0000   1.0000   1.0000   1.0000   1.0000
     1.0000   1.0000   1.0000   1.0015  -0.0355  -0.0177  -0.0000  -0.0000

          k = 0.0000-0.5370-0.5370 ( 12656 PWs)   bands (ev):

   -53.5896 -32.5756 -29.7969 -29.7969 -29.7966 -13.9476 -13.9476 -13.8583
    -6.2679  -5.8136  -5.8136   1.4050   2.2974   3.1449   3.1449   3.3602
     3.3602   3.5559   4.2244   4.7550   5.0842   5.1217   5.5800   5.5800

     occupation numbers 
     1.0000   1.0000   1.0000   1.0000   1.0000   1.0000   1.0000   1.0000
     1.0000   1.0000   1.0000   1.0000   1.0000   1.0000   1.0000   1.0000
     1.0000   1.0000   1.0000   1.0211   0.0159  -0.0298  -0.0000  -0.0000

          k = 0.1790 0.1790 0.1790 ( 12821 PWs)   bands (ev):

   -53.5896 -32.5766 -29.7967 -29.7967 -29.7967 -13.8840 -13.8830 -13.8830
    -6.7103  -5.8967  -5.8967   2.1218   2.7548   2.7548   3.4685   3.4685
     4.0107   4.5015   4.8451   4.8451   4.9729   4.9729   5.0739   5.4867

     occupation numbers 
     1.0000   1.0000   1.0000   1.0000   1.0000   1.0000   1.0000   1.0000
     1.0000   1.0000   1.0000   1.0000   1.0000   1.0000   1.0000   1.0000
     1.0000   1.0000   1.0229   1.0229   0.5341   0.5341   0.0395  -0.0000

          k = 0.1790 0.1790 0.3580 ( 12754 PWs)   bands (ev):

   -53.5896 -32.5762 -29.7968 -29.7967 -29.7967 -13.9273 -13.8827 -13.8821
    -6.5266  -5.8834  -5.8603   1.9894   2.6350   2.7405   3.1566   3.2370
     3.7532   4.3923   4.4875   4.7256   5.0174   5.1799   5.2647   5.4686

     occupation numbers 
     1.0000   1.0000   1.0000   1.0000   1.0000   1.0000   1.0000   1.0000
     1.0000   1.0000   1.0000   1.0000   1.0000   1.0000   1.0000   1.0000
     1.0000   1.0000   1.0000   1.0123   0.2683  -0.0285  -0.0056  -0.0000

          k = 0.1790 0.1790-0.5370 ( 12740 PWs)   bands (ev):

   -53.5896 -32.5760 -29.7969 -29.7967 -29.7967 -13.9489 -13.8822 -13.8816
    -6.4335  -5.8766  -5.8400   2.0491   2.4870   2.5415   2.9721   3.2180
     3.9001   4.2128   4.2797   4.6746   5.0492   5.3347   5.3754   5.4999

     occupation numbers 
     1.0000   1.0000   1.0000   1.0000   1.0000   1.0000   1.0000   1.0000
     1.0000   1.0000   1.0000   1.0000   1.0000   1.0000   1.0000   1.0000
     1.0000   1.0000   1.0000   1.0035   0.1189  -0.0007  -0.0001  -0.0000

          k = 0.1790 0.3580 0.3580 ( 12746 PWs)   bands (ev):

   -53.5896 -32.5758 -29.7968 -29.7968 -29.7967 -13.9265 -13.9259 -13.8815
    -6.3354  -5.8521  -5.8372   1.7616   2.3554   2.6157   2.8497   3.5187
     3.5517   4.3009   4.4780   4.6891   5.0654   5.2011   5.2796   5.5676

     occupation numbers 
     1.0000   1.0000   1.0000   1.0000   1.0000   1.0000   1.0000   1.0000
     1.0000   1.0000   1.0000   1.0000   1.0000   1.0000   1.0000   1.0000
     1.0000   1.0000   1.0000   1.0052   0.0630  -0.0214  -0.0038  -0.0000

          k = 0.1790 0.3580-0.5370 ( 12742 PWs)   bands (ev):

   -53.5896 -32.5756 -29.7969 -29.7968 -29.7966 -13.9477 -13.9256 -13.8810
    -6.2420  -5.8378  -5.8177   1.6708   2.2607   2.4583   2.7101   3.4893
     3.8393   4.0280   4.4068   4.7120   5.1136   5.1968   5.4207   5.5794

     occupation numbers 
     1.0000   1.0000   1.0000   1.0000   1.0000   1.0000   1.0000   1.0000
     1.0000   1.0000   1.0000   1.0000   1.0000   1.0000   1.0000   1.0000
     1.0000   1.0000   1.0000   1.0091  -0.0244  -0.0228  -0.0000  -0.0000

          k = 0.1790-0.5370-0.5370 ( 12744 PWs)   bands (ev):

   -53.5896 -32.5754 -29.7969 -29.7969 -29.7966 -13.9471 -13.9471 -13.8805
    -6.1532  -5.8064  -5.8064   1.4888   2.1928   2.4902   2.4902   3.5619
     3.9831   4.0706   4.0706   4.8104   5.0917   5.1155   5.5606   5.5606

     occupation numbers 
     1.0000   1.0000   1.0000   1.0000   1.0000   1.0000   1.0000   1.0000
     1.0000   1.0000   1.0000   1.0000   1.0000   1.0000   1.0000   1.0000
     1.0000   1.0000   1.0000   1.0354   0.0020  -0.0259  -0.0000  -0.0000

          k = 0.3580 0.3580 0.3580 ( 12746 PWs)   bands (ev):

   -53.5896 -32.5754 -29.7968 -29.7968 -29.7968 -13.9257 -13.9248 -13.9248
    -6.1217  -5.8229  -5.8229   1.7481   2.1525   2.1525   2.4232   3.5973
     3.5973   4.5334   4.5334   5.0372   5.0665   5.0665   5.1021   5.6502

     occupation numbers 
     1.0000   1.0000   1.0000   1.0000   1.0000   1.0000   1.0000   1.0000
     1.0000   1.0000   1.0000   1.0000   1.0000   1.0000   1.0000   1.0000
     1.0000   1.0000   1.0000   0.1696   0.0598   0.0598  -0.0130  -0.0000

          k = 0.3580 0.3580-0.5370 ( 12734 PWs)   bands (ev):

   -53.5896 -32.5752 -29.7969 -29.7968 -29.7968 -13.9465 -13.9249 -13.9243
    -6.0173  -5.8158  -5.8004   1.7699   1.9706   1.9814   2.2596   3.6244
     3.6365   4.5508   4.6068   4.9309   5.0713   5.1317   5.3553   5.5192

     occupation numbers 
     1.0000   1.0000   1.0000   1.0000   1.0000   1.0000   1.0000   1.0000
     1.0000   1.0000   1.0000   1.0000   1.0000   1.0000   1.0000   1.0000
     1.0000   1.0000   1.0004   0.7764   0.0463  -0.0338  -0.0003  -0.0000

          k = 0.3580-0.5370-0.5370 ( 12744 PWs)   bands (ev):

   -53.5896 -32.5750 -29.7969 -29.7969 -29.7968 -13.9460 -13.9460 -13.9241
    -5.9119  -5.7916  -5.7916   1.6777   1.8946   1.9712   1.9712   3.5739
     3.6714   4.7241   4.7241   4.9595   5.0716   5.0999   5.4759   5.4759

     occupation numbers 
     1.0000   1.0000   1.0000   1.0000   1.0000   1.0000   1.0000   1.0000
     1.0000   1.0000   1.0000   1.0000   1.0000   1.0000   1.0000   1.0000
     1.0000   1.0119   1.0119   0.6167   0.0455  -0.0101  -0.0000  -0.0000

          k =-0.5370-0.5370-0.5370 ( 12712 PWs)   bands (ev):

   -53.5896 -32.5747 -29.7969 -29.7969 -29.7969 -13.9454 -13.9454 -13.9454
    -5.7842  -5.7842  -5.7842   1.7052   1.7864   1.7864   1.7864   3.5800
     3.5800   5.0421   5.0421   5.0421   5.0943   5.0943   5.3548   5.3548

     occupation numbers 
     1.0000   1.0000   1.0000   1.0000   1.0000   1.0000   1.0000   1.0000
     1.0000   1.0000   1.0000   1.0000   1.0000   1.0000   1.0000   1.0000
     1.0000   0.1479   0.1479   0.1479  -0.0021  -0.0021  -0.0003  -0.0003

     the Fermi energy is     4.9784 ev

!    total energy              =    -452.06385447 Ry
     estimated scf accuracy    <          8.5E-13 Ry
     smearing contrib. (-TS)   =      -0.00007783 Ry
     internal energy E=F+TS    =    -452.06377664 Ry

     The total energy is F=E-TS. E is the sum of the following terms:
     one-electron contribution =    -102.36329583 Ry
     hartree contribution      =      63.54646629 Ry
     xc contribution           =     -45.73107724 Ry
     ewald contribution        =    -169.11844523 Ry
     one-center paw contrib.   =    -198.39742463 Ry
      -> PAW hartree energy AE =      48.36705033 Ry
      -> PAW hartree energy PS =     -48.14374320 Ry
      -> PAW xc energy AE      =     -71.60323690 Ry
      -> PAW xc energy PS      =      11.39076854 Ry
      -> total E_H with PAW    =      63.76977341 Ry
      -> total E_XC with PAW   =    -105.94354560 Ry

     convergence has been achieved in  33 iterations

     Forces acting on atoms (cartesian axes, Ry/au):

     atom    1 type  1   force =     0.00000000    0.00000000    0.00000000
     atom    2 type  2   force =     0.00000000    0.00000000    0.00000000
     atom    3 type  3   force =     0.00000000    0.00000000    0.00000000
     atom    4 type  3   force =     0.00000000    0.00000000    0.00000000
     atom    5 type  3   force =     0.00000000    0.00000000    0.00000000
     The non-local contrib.  to forces
     atom    1 type  1   force =     0.00000000    0.00000000    0.00000000
     atom    2 type  2   force =     0.00000000    0.00000000    0.00000000
     atom    3 type  3   force =     0.00000000    0.00000000    0.00000000
     atom    4 type  3   force =     0.00000000    0.00000000    0.00000000
     atom    5 type  3   force =     0.00000000    0.00000000    0.00000000
     The ionic contribution  to forces
     atom    1 type  1   force =    -0.00000000   -0.00000000   -0.00000000
     atom    2 type  2   force =     0.00000000    0.00000000    0.00000000
     atom    3 type  3   force =    -0.00000000   -0.00000000   -0.00000000
     atom    4 type  3   force =    -0.00000000   -0.00000000   -0.00000000
     atom    5 type  3   force =    -0.00000000   -0.00000000   -0.00000000
     The local contribution  to forces
     atom    1 type  1   force =     0.00000000    0.00000000    0.00000000
     atom    2 type  2   force =    -0.00000000   -0.00000000   -0.00000000
     atom    3 type  3   force =     0.00000000    0.00000000   -0.00000000
     atom    4 type  3   force =     0.00000000    0.00000000   -0.00000000
     atom    5 type  3   force =     0.00000000    0.00000000    0.00000000
     The core correction contribution to forces
     atom    1 type  1   force =     0.00000000    0.00000000    0.00000000
     atom    2 type  2   force =    -0.00000000   -0.00000000   -0.00000000
     atom    3 type  3   force =     0.00000000    0.00000000    0.00000000
     atom    4 type  3   force =     0.00000000    0.00000000    0.00000000
     atom    5 type  3   force =     0.00000000    0.00000000    0.00000000
     The Hubbard contrib.    to forces
     atom    1 type  1   force =     0.00000000    0.00000000    0.00000000
     atom    2 type  2   force =     0.00000000    0.00000000    0.00000000
     atom    3 type  3   force =     0.00000000    0.00000000    0.00000000
     atom    4 type  3   force =     0.00000000    0.00000000    0.00000000
     atom    5 type  3   force =     0.00000000    0.00000000    0.00000000
     The SCF correction term to forces
     atom    1 type  1   force =    -0.00000000   -0.00000000   -0.00000000
     atom    2 type  2   force =     0.00000000   -0.00000000    0.00000000
     atom    3 type  3   force =    -0.00000000   -0.00000000    0.00000000
     atom    4 type  3   force =    -0.00000000    0.00000000   -0.00000000
     atom    5 type  3   force =    -0.00000000   -0.00000000   -0.00000000

     Total force =     0.000000     Total SCF correction =     0.000000


     Computing stress (Cartesian axis) and pressure

          total   stress  (Ry/bohr**3)                   (kbar)     P=        6.17
   0.00004195   0.00000000   0.00000000            6.17        0.00        0.00
   0.00000000   0.00004195   0.00000000            0.00        6.17        0.00
   0.00000000   0.00000000   0.00004195            0.00        0.00        6.17

     kinetic stress (kbar)  10941.25      0.00      0.00
                                0.00  10941.25      0.00
                                0.00      0.00  10941.25

     local   stress (kbar)  -4451.75      0.00     -0.00
                                0.00  -4451.75     -0.00
                               -0.00     -0.00  -4451.75

     nonloc. stress (kbar)   1967.19      0.00      0.00
                                0.00   1967.19      0.00
                                0.00      0.00   1967.19

     hartree stress (kbar)   3657.68      0.00     -0.00
                                0.00   3657.68      0.00
                               -0.00      0.00   3657.68

     exc-cor stress (kbar)   -997.18     -0.00     -0.00
                               -0.00   -997.18     -0.00
                               -0.00     -0.00   -997.18

     corecor stress (kbar)  -1376.71      0.00      0.00
                                0.00  -1376.71     -0.00
                                0.00     -0.00  -1376.71

     ewald   stress (kbar)  -9734.30     -0.00     -0.00
                               -0.00  -9734.30     -0.00
                               -0.00     -0.00  -9734.30

     hubbard stress (kbar)      0.00      0.00      0.00
                                0.00      0.00      0.00
                                0.00      0.00      0.00

     DFT-D   stress (kbar)      0.00      0.00      0.00
                                0.00      0.00      0.00
                                0.00      0.00      0.00

     XDM     stress (kbar)      0.00      0.00      0.00
                                0.00      0.00      0.00
                                0.00      0.00      0.00

     dft-nl  stress (kbar)      0.00      0.00      0.00
                                0.00      0.00      0.00
                                0.00      0.00      0.00

     TS-vdW  stress (kbar)      0.00      0.00      0.00
                                0.00      0.00      0.00
                                0.00      0.00      0.00

     MDB     stress (kbar)      0.00      0.00      0.00
                                0.00      0.00      0.00
                                0.00      0.00      0.00

     3D-RISM stress (kbar)      0.00      0.00      0.00
                                0.00      0.00      0.00
                                0.00      0.00      0.00

     Energy error            =      4.0E-03 Ry
     Gradient error          =      0.0E+00 Ry/Bohr
     Cell gradient error     =      6.2E+00 kbar

     number of scf cycles    =   5
     number of bfgs steps    =   4

     enthalpy           old  =    -452.0598410426 Ry
     enthalpy           new  =    -452.0638544731 Ry

     CASE: enthalpy          _new < enthalpy          _old

     new trust radius        =       0.0296450534 bohr
     new conv_thr            =            1.0E-12 Ry

     new unit-cell volume =    864.95271 a.u.^3 (   128.17277 Ang^3 )
     density =      2.38543 g/cm^3

CELL_PARAMETERS (angstrom)
   5.041950619   0.000000000   0.000000000
   0.000000000   5.041950619   0.000000000
   0.000000000   0.000000000   5.041950619

ATOMIC_POSITIONS (crystal)
Ca               0.0000000000        0.0000000000        0.0000000000
Ti               0.5000000000        0.5000000000        0.5000000000
S                0.5000000000        0.0000000000        0.0000000000
S                0.0000000000        0.5000000000        0.0000000000
S                0.0000000000        0.0000000000        0.5000000000



     Writing config-only to output data dir ./tmp/catis3.save/ :
     XML data file
     NEW-OLD atomic charge density approx. for the potential

     total cpu time spent up to now is     8114.6 secs

     Self-consistent Calculation

     iteration #  1     ecut=    80.00 Ry     beta= 0.30
     Davidson diagonalization with overlap

---- Real-time Memory Report at c_bands before calling an iterative solver
           195 MiB given to the printing process from OS
             0 MiB allocation reported by mallinfo(arena+hblkhd)
         57265 MiB available memory on the node where the printing process lives
------------------
     ethr =  1.00E-06,  avg # of iterations =  7.3

     total cpu time spent up to now is     8207.3 secs

     total energy              =    -452.06397387 Ry
     estimated scf accuracy    <       0.00044701 Ry

     iteration #  2     ecut=    80.00 Ry     beta= 0.30
     Davidson diagonalization with overlap

---- Real-time Memory Report at c_bands before calling an iterative solver
           195 MiB given to the printing process from OS
             0 MiB allocation reported by mallinfo(arena+hblkhd)
         56985 MiB available memory on the node where the printing process lives
------------------
     ethr =  1.12E-06,  avg # of iterations =  8.2

     total cpu time spent up to now is     8303.4 secs

     total energy              =    -452.06279994 Ry
     estimated scf accuracy    <       0.06599408 Ry

     iteration #  3     ecut=    80.00 Ry     beta= 0.30
     Davidson diagonalization with overlap

---- Real-time Memory Report at c_bands before calling an iterative solver
           195 MiB given to the printing process from OS
             0 MiB allocation reported by mallinfo(arena+hblkhd)
         57174 MiB available memory on the node where the printing process lives
------------------
     ethr =  1.12E-06,  avg # of iterations =  7.8

     total cpu time spent up to now is     8394.9 secs

     total energy              =    -452.06410244 Ry
     estimated scf accuracy    <       0.00001316 Ry

     iteration #  4     ecut=    80.00 Ry     beta= 0.30
     Davidson diagonalization with overlap

---- Real-time Memory Report at c_bands before calling an iterative solver
           195 MiB given to the printing process from OS
             0 MiB allocation reported by mallinfo(arena+hblkhd)
         57308 MiB available memory on the node where the printing process lives
------------------
     ethr =  3.29E-08,  avg # of iterations =  5.4

     total cpu time spent up to now is     8467.1 secs

     total energy              =    -452.06410263 Ry
     estimated scf accuracy    <       0.00000123 Ry

     iteration #  5     ecut=    80.00 Ry     beta= 0.30
     Davidson diagonalization with overlap

---- Real-time Memory Report at c_bands before calling an iterative solver
           195 MiB given to the printing process from OS
             0 MiB allocation reported by mallinfo(arena+hblkhd)
         56975 MiB available memory on the node where the printing process lives
------------------
     ethr =  3.08E-09,  avg # of iterations =  5.0

     total cpu time spent up to now is     8534.0 secs

     total energy              =    -452.06409997 Ry
     estimated scf accuracy    <       0.00000166 Ry

     iteration #  6     ecut=    80.00 Ry     beta= 0.30
     Davidson diagonalization with overlap

---- Real-time Memory Report at c_bands before calling an iterative solver
           195 MiB given to the printing process from OS
             0 MiB allocation reported by mallinfo(arena+hblkhd)
         57177 MiB available memory on the node where the printing process lives
------------------
     ethr =  3.08E-09,  avg # of iterations =  2.0

     total cpu time spent up to now is     8571.5 secs

     total energy              =    -452.06409938 Ry
     estimated scf accuracy    <       0.00000038 Ry

     iteration #  7     ecut=    80.00 Ry     beta= 0.30
     Davidson diagonalization with overlap

---- Real-time Memory Report at c_bands before calling an iterative solver
           195 MiB given to the printing process from OS
             0 MiB allocation reported by mallinfo(arena+hblkhd)
         57138 MiB available memory on the node where the printing process lives
------------------
     ethr =  9.52E-10,  avg # of iterations =  3.2

     total cpu time spent up to now is     8620.4 secs

     total energy              =    -452.06409949 Ry
     estimated scf accuracy    <       0.00000002 Ry

     iteration #  8     ecut=    80.00 Ry     beta= 0.30
     Davidson diagonalization with overlap

---- Real-time Memory Report at c_bands before calling an iterative solver
           195 MiB given to the printing process from OS
             0 MiB allocation reported by mallinfo(arena+hblkhd)
         57122 MiB available memory on the node where the printing process lives
------------------
     c_bands:  1 eigenvalues not converged
     ethr =  4.01E-11,  avg # of iterations =  9.3

     total cpu time spent up to now is     8731.4 secs

     total energy              =    -452.06409951 Ry
     estimated scf accuracy    <       0.00000025 Ry

     iteration #  9     ecut=    80.00 Ry     beta= 0.30
     Davidson diagonalization with overlap

---- Real-time Memory Report at c_bands before calling an iterative solver
           195 MiB given to the printing process from OS
             0 MiB allocation reported by mallinfo(arena+hblkhd)
         57197 MiB available memory on the node where the printing process lives
------------------
     ethr =  4.01E-11,  avg # of iterations =  3.3

     total cpu time spent up to now is     8780.6 secs

     total energy              =    -452.06409952 Ry
     estimated scf accuracy    <       0.00000005 Ry

     iteration # 10     ecut=    80.00 Ry     beta= 0.30
     Davidson diagonalization with overlap

---- Real-time Memory Report at c_bands before calling an iterative solver
           195 MiB given to the printing process from OS
             0 MiB allocation reported by mallinfo(arena+hblkhd)
         57194 MiB available memory on the node where the printing process lives
------------------
     ethr =  4.01E-11,  avg # of iterations =  4.8

     total cpu time spent up to now is     8845.1 secs

     total energy              =    -452.06409953 Ry
     estimated scf accuracy    <       0.00000003 Ry

     iteration # 11     ecut=    80.00 Ry     beta= 0.30
     Davidson diagonalization with overlap

---- Real-time Memory Report at c_bands before calling an iterative solver
           195 MiB given to the printing process from OS
             0 MiB allocation reported by mallinfo(arena+hblkhd)
         57132 MiB available memory on the node where the printing process lives
------------------
     ethr =  4.01E-11,  avg # of iterations =  1.1

     total cpu time spent up to now is     8873.7 secs

     total energy              =    -452.06409953 Ry
     estimated scf accuracy    <          3.3E-09 Ry

     iteration # 12     ecut=    80.00 Ry     beta= 0.30
     Davidson diagonalization with overlap

---- Real-time Memory Report at c_bands before calling an iterative solver
           195 MiB given to the printing process from OS
             0 MiB allocation reported by mallinfo(arena+hblkhd)
         57066 MiB available memory on the node where the printing process lives
------------------
     ethr =  8.30E-12,  avg # of iterations =  2.8

     total cpu time spent up to now is     8917.6 secs

     total energy              =    -452.06409953 Ry
     estimated scf accuracy    <          4.6E-10 Ry

     iteration # 13     ecut=    80.00 Ry     beta= 0.30
     Davidson diagonalization with overlap

---- Real-time Memory Report at c_bands before calling an iterative solver
           195 MiB given to the printing process from OS
             0 MiB allocation reported by mallinfo(arena+hblkhd)
         57058 MiB available memory on the node where the printing process lives
------------------
     c_bands:  1 eigenvalues not converged
     ethr =  1.14E-12,  avg # of iterations =  8.1

     total cpu time spent up to now is     9012.9 secs

     total energy              =    -452.06409953 Ry
     estimated scf accuracy    <          1.6E-11 Ry

     iteration # 14     ecut=    80.00 Ry     beta= 0.30
     Davidson diagonalization with overlap

---- Real-time Memory Report at c_bands before calling an iterative solver
           195 MiB given to the printing process from OS
             0 MiB allocation reported by mallinfo(arena+hblkhd)
         57043 MiB available memory on the node where the printing process lives
------------------
     ethr =  1.00E-13,  avg # of iterations =  5.8

     total cpu time spent up to now is     9089.6 secs

     total energy              =    -452.06409953 Ry
     estimated scf accuracy    <          3.0E-11 Ry

     iteration # 15     ecut=    80.00 Ry     beta= 0.30
     Davidson diagonalization with overlap

---- Real-time Memory Report at c_bands before calling an iterative solver
           195 MiB given to the printing process from OS
             0 MiB allocation reported by mallinfo(arena+hblkhd)
         57092 MiB available memory on the node where the printing process lives
------------------
     ethr =  1.00E-13,  avg # of iterations =  2.3

     total cpu time spent up to now is     9130.6 secs

     total energy              =    -452.06409953 Ry
     estimated scf accuracy    <          1.1E-11 Ry

     iteration # 16     ecut=    80.00 Ry     beta= 0.30
     Davidson diagonalization with overlap

---- Real-time Memory Report at c_bands before calling an iterative solver
           195 MiB given to the printing process from OS
             0 MiB allocation reported by mallinfo(arena+hblkhd)
         57274 MiB available memory on the node where the printing process lives
------------------
     ethr =  1.00E-13,  avg # of iterations =  1.6

     total cpu time spent up to now is     9162.5 secs

     total energy              =    -452.06409953 Ry
     estimated scf accuracy    <          6.8E-12 Ry

     iteration # 17     ecut=    80.00 Ry     beta= 0.30
     Davidson diagonalization with overlap

---- Real-time Memory Report at c_bands before calling an iterative solver
           195 MiB given to the printing process from OS
             0 MiB allocation reported by mallinfo(arena+hblkhd)
         57044 MiB available memory on the node where the printing process lives
------------------
     ethr =  1.00E-13,  avg # of iterations =  1.0

     total cpu time spent up to now is     9190.3 secs

     total energy              =    -452.06409953 Ry
     estimated scf accuracy    <          1.3E-12 Ry

     iteration # 18     ecut=    80.00 Ry     beta= 0.30
     Davidson diagonalization with overlap

---- Real-time Memory Report at c_bands before calling an iterative solver
           195 MiB given to the printing process from OS
             0 MiB allocation reported by mallinfo(arena+hblkhd)
         57222 MiB available memory on the node where the printing process lives
------------------
     ethr =  1.00E-13,  avg # of iterations =  1.0

     total cpu time spent up to now is     9216.4 secs

     End of self-consistent calculation

          k = 0.0000 0.0000 0.0000 ( 12893 PWs)   bands (ev):

   -53.7488 -32.7725 -29.9568 -29.9568 -29.9568 -14.0419 -14.0419 -14.0419
    -7.0772  -6.0632  -6.0632   2.4719   2.4719   2.4719   4.1306   4.1306
     4.1306   4.7099   4.7099   4.8047   4.8047   4.8047   5.1050   5.1050

     occupation numbers 
     1.0000   1.0000   1.0000   1.0000   1.0000   1.0000   1.0000   1.0000
     1.0000   1.0000   1.0000   1.0000   1.0000   1.0000   1.0000   1.0000
     1.0000   0.9881   0.9881   0.5801   0.5801   0.5801  -0.0055  -0.0055

          k = 0.0000 0.0000 0.1781 ( 12821 PWs)   bands (ev):

   -53.7488 -32.7723 -29.9568 -29.9568 -29.9568 -14.0627 -14.0415 -14.0415
    -6.9940  -6.0571  -6.0488   2.3522   2.5222   2.5222   3.8012   3.8814
     3.8814   4.4279   4.7548   4.8126   4.9554   4.9554   5.0061   5.0707

     occupation numbers 
     1.0000   1.0000   1.0000   1.0000   1.0000   1.0000   1.0000   1.0000
     1.0000   1.0000   1.0000   1.0000   1.0000   1.0000   1.0000   1.0000
     1.0000   1.0002   0.8487   0.5314  -0.0263  -0.0263  -0.0323  -0.0122

          k = 0.0000 0.0000 0.3562 ( 12721 PWs)   bands (ev):

   -53.7488 -32.7719 -29.9570 -29.9567 -29.9567 -14.1037 -14.0407 -14.0407
    -6.8232  -6.0448  -6.0204   2.2600   2.6672   2.6672   3.4155   3.4220
     3.4806   3.4806   4.7939   4.7939   4.8285   4.8449   5.3164   5.3727

     occupation numbers 
     1.0000   1.0000   1.0000   1.0000   1.0000   1.0000   1.0000   1.0000
     1.0000   1.0000   1.0000   1.0000   1.0000   1.0000   1.0000   1.0000
     1.0000   1.0000   0.6456   0.6456   0.4329   0.3346  -0.0000  -0.0000

          k = 0.0000 0.0000-0.5343 ( 12732 PWs)   bands (ev):

   -53.7488 -32.7717 -29.9571 -29.9567 -29.9567 -14.1237 -14.0403 -14.0403
    -6.7352  -6.0386  -6.0066   2.4123   2.7923   2.8043   2.8043   3.2416
     3.2416   3.2774   4.7189   4.7189   4.8365   4.8919   5.4252   5.5124

     occupation numbers 
     1.0000   1.0000   1.0000   1.0000   1.0000   1.0000   1.0000   1.0000
     1.0000   1.0000   1.0000   1.0000   1.0000   1.0000   1.0000   1.0000
     1.0000   1.0000   0.9686   0.9686   0.3842   0.1060  -0.0000  -0.0000

          k = 0.0000 0.1781 0.1781 ( 12769 PWs)   bands (ev):

   -53.7488 -32.7721 -29.9568 -29.9568 -29.9568 -14.0626 -14.0620 -14.0411
    -6.9092  -6.0466  -6.0383   2.1561   2.5704   2.6551   3.3461   3.7130
     4.0693   4.1819   4.7534   4.8161   4.8530   4.9426   4.9431   5.0859

     occupation numbers 
     1.0000   1.0000   1.0000   1.0000   1.0000   1.0000   1.0000   1.0000
     1.0000   1.0000   1.0000   1.0000   1.0000   1.0000   1.0000   1.0000
     1.0000   1.0000   0.8547   0.5097   0.2885  -0.0144  -0.0150  -0.0088

          k = 0.0000 0.1781 0.3562 ( 12735 PWs)   bands (ev):

   -53.7488 -32.7717 -29.9570 -29.9568 -29.9567 -14.1031 -14.0614 -14.0403
    -6.7356  -6.0319  -6.0100   1.9977   2.7100   2.7998   2.8704   3.3946
     3.4322   4.0511   4.5079   4.6527   4.8844   4.9707   5.1651   5.3364

     occupation numbers 
     1.0000   1.0000   1.0000   1.0000   1.0000   1.0000   1.0000   1.0000
     1.0000   1.0000   1.0000   1.0000   1.0000   1.0000   1.0000   1.0000
     1.0000   1.0000   1.0030   1.0354   0.1352  -0.0337  -0.0009  -0.0000

          k = 0.0000 0.1781-0.5343 ( 12760 PWs)   bands (ev):

   -53.7488 -32.7715 -29.9571 -29.9568 -29.9567 -14.1232 -14.0610 -14.0399
    -6.6468  -6.0249  -5.9951   2.0283   2.5619   2.8483   2.9716   3.0061
     3.1810   4.0082   4.4037   4.5616   4.9368   4.9769   5.3026   5.3791

     occupation numbers 
     1.0000   1.0000   1.0000   1.0000   1.0000   1.0000   1.0000   1.0000
     1.0000   1.0000   1.0000   1.0000   1.0000   1.0000   1.0000   1.0000
     1.0000   1.0000   1.0001   1.0115  -0.0069  -0.0350  -0.0000  -0.0000

          k = 0.0000 0.3562 0.3562 ( 12806 PWs)   bands (ev):

   -53.7488 -32.7713 -29.9570 -29.9570 -29.9567 -14.1024 -14.1018 -14.0395
    -6.5597  -6.0032  -5.9866   1.6473   2.4719   2.8302   2.9674   3.2208
     3.3628   3.8813   4.3712   4.4621   4.9020   5.1977   5.2179   5.3096

     occupation numbers 
     1.0000   1.0000   1.0000   1.0000   1.0000   1.0000   1.0000   1.0000
     1.0000   1.0000   1.0000   1.0000   1.0000   1.0000   1.0000   1.0000
     1.0000   1.0000   1.0000   1.0007   0.0714  -0.0003  -0.0001  -0.0000

          k = 0.0000 0.3562-0.5343 ( 12754 PWs)   bands (ev):

   -53.7488 -32.7711 -29.9570 -29.9570 -29.9567 -14.1221 -14.1016 -14.0391
    -6.4726  -5.9873  -5.9717   1.5167   2.3030   2.9586   3.0781   3.1102
     3.1396   3.7846   4.2349   4.4975   4.9828   5.0465   5.2593   5.4213

     occupation numbers 
     1.0000   1.0000   1.0000   1.0000   1.0000   1.0000   1.0000   1.0000
     1.0000   1.0000   1.0000   1.0000   1.0000   1.0000   1.0000   1.0000
     1.0000   1.0000   1.0000   1.0022  -0.0354  -0.0193  -0.0000  -0.0000

          k = 0.0000-0.5343-0.5343 ( 12656 PWs)   bands (ev):

   -53.7488 -32.7710 -29.9570 -29.9570 -29.9567 -14.1215 -14.1215 -14.0387
    -6.3902  -5.9598  -5.9598   1.3224   2.1756   3.0333   3.0333   3.2386
     3.2386   3.4320   4.0602   4.6016   4.9233   4.9573   5.4070   5.4070

     occupation numbers 
     1.0000   1.0000   1.0000   1.0000   1.0000   1.0000   1.0000   1.0000
     1.0000   1.0000   1.0000   1.0000   1.0000   1.0000   1.0000   1.0000
     1.0000   1.0000   1.0000   1.0236   0.0164  -0.0277  -0.0000  -0.0000

          k = 0.1781 0.1781 0.1781 ( 12821 PWs)   bands (ev):

   -53.7488 -32.7719 -29.9568 -29.9568 -29.9568 -14.0624 -14.0616 -14.0616
    -6.8222  -6.0320  -6.0320   2.0150   2.6386   2.6386   3.3465   3.3465
     3.8527   4.3579   4.6848   4.6848   4.8152   4.8152   4.9134   5.3159

     occupation numbers 
     1.0000   1.0000   1.0000   1.0000   1.0000   1.0000   1.0000   1.0000
     1.0000   1.0000   1.0000   1.0000   1.0000   1.0000   1.0000   1.0000
     1.0000   1.0000   1.0226   1.0226   0.5153   0.5153   0.0389  -0.0000

          k = 0.1781 0.1781 0.3562 ( 12754 PWs)   bands (ev):

   -53.7488 -32.7715 -29.9570 -29.9568 -29.9568 -14.1026 -14.0613 -14.0607
    -6.6443  -6.0193  -6.0012   1.8876   2.5306   2.6272   3.0259   3.1121
     3.6160   4.2520   4.3364   4.5668   4.8574   5.0172   5.0995   5.2981

     occupation numbers 
     1.0000   1.0000   1.0000   1.0000   1.0000   1.0000   1.0000   1.0000
     1.0000   1.0000   1.0000   1.0000   1.0000   1.0000   1.0000   1.0000
     1.0000   1.0000   1.0000   1.0128   0.2640  -0.0291  -0.0063  -0.0000

          k = 0.1781 0.1781-0.5343 ( 12740 PWs)   bands (ev):

   -53.7488 -32.7713 -29.9571 -29.9568 -29.9568 -14.1226 -14.0608 -14.0603
    -6.5534  -6.0130  -5.9847   1.9498   2.3685   2.4424   2.8523   3.0908
     3.7680   4.0623   4.1427   4.5161   4.8880   5.1689   5.2065   5.3284

     occupation numbers 
     1.0000   1.0000   1.0000   1.0000   1.0000   1.0000   1.0000   1.0000
     1.0000   1.0000   1.0000   1.0000   1.0000   1.0000   1.0000   1.0000
     1.0000   1.0000   1.0000   1.0037   0.1208  -0.0008  -0.0002  -0.0000

          k = 0.1781 0.3562 0.3562 ( 12746 PWs)   bands (ev):

   -53.7488 -32.7711 -29.9570 -29.9570 -29.9568 -14.1019 -14.1013 -14.0601
    -6.4598  -5.9923  -5.9799   1.6683   2.2489   2.5119   2.7234   3.3916
     3.4166   4.1593   4.3261   4.5394   4.9041   5.0367   5.1140   5.3954

     occupation numbers 
     1.0000   1.0000   1.0000   1.0000   1.0000   1.0000   1.0000   1.0000
     1.0000   1.0000   1.0000   1.0000   1.0000   1.0000   1.0000   1.0000
     1.0000   1.0000   1.0000   1.0069   0.0647  -0.0226  -0.0043  -0.0000

          k = 0.1781 0.3562-0.5343 ( 12742 PWs)   bands (ev):

   -53.7488 -32.7710 -29.9570 -29.9570 -29.9568 -14.1216 -14.1011 -14.0597
    -6.3684  -5.9795  -5.9636   1.5828   2.1432   2.3588   2.5974   3.3612
     3.7000   3.8931   4.2575   4.5611   4.9513   5.0312   5.2523   5.4065

     occupation numbers 
     1.0000   1.0000   1.0000   1.0000   1.0000   1.0000   1.0000   1.0000
     1.0000   1.0000   1.0000   1.0000   1.0000   1.0000   1.0000   1.0000
     1.0000   1.0000   1.0000   1.0114  -0.0232  -0.0245  -0.0000  -0.0000

          k = 0.1781-0.5343-0.5343 ( 12744 PWs)   bands (ev):

   -53.7488 -32.7708 -29.9570 -29.9570 -29.9568 -14.1210 -14.1210 -14.0593
    -6.2813  -5.9529  -5.9529   1.4053   2.0695   2.3899   2.3899   3.4378
     3.8329   3.9349   3.9349   4.6556   4.9303   4.9511   5.3881   5.3881

     occupation numbers 
     1.0000   1.0000   1.0000   1.0000   1.0000   1.0000   1.0000   1.0000
     1.0000   1.0000   1.0000   1.0000   1.0000   1.0000   1.0000   1.0000
     1.0000   1.0000   1.0000   1.0353   0.0032  -0.0230  -0.0000  -0.0000

          k = 0.3562 0.3562 0.3562 ( 12746 PWs)   bands (ev):

   -53.7488 -32.7708 -29.9570 -29.9570 -29.9570 -14.1011 -14.1004 -14.1004
    -6.2555  -5.9664  -5.9664   1.6535   2.0593   2.0593   2.2946   3.4672
     3.4672   4.3855   4.3855   4.8808   4.9049   4.9049   4.9396   5.4755

     occupation numbers 
     1.0000   1.0000   1.0000   1.0000   1.0000   1.0000   1.0000   1.0000
     1.0000   1.0000   1.0000   1.0000   1.0000   1.0000   1.0000   1.0000
     1.0000   1.0000   1.0000   0.1505   0.0623   0.0623  -0.0107  -0.0000

          k = 0.3562 0.3562-0.5343 ( 12734 PWs)   bands (ev):

   -53.7488 -32.7706 -29.9570 -29.9570 -29.9569 -14.1205 -14.1004 -14.0999
    -6.1545  -5.9595  -5.9472   1.6811   1.8605   1.8919   2.1505   3.4936
     3.5082   4.4025   4.4571   4.7748   4.9093   4.9677   5.1888   5.3479

     occupation numbers 
     1.0000   1.0000   1.0000   1.0000   1.0000   1.0000   1.0000   1.0000
     1.0000   1.0000   1.0000   1.0000   1.0000   1.0000   1.0000   1.0000
     1.0000   1.0001   1.0006   0.7523   0.0498  -0.0328  -0.0004  -0.0000

          k = 0.3562-0.5343-0.5343 ( 12744 PWs)   bands (ev):

   -53.7488 -32.7704 -29.9570 -29.9570 -29.9569 -14.1200 -14.1200 -14.0997
    -6.0525  -5.9389  -5.9389   1.5923   1.7733   1.8811   1.8811   3.4494
     3.5407   4.5719   4.5719   4.8010   4.9087   4.9376   5.3060   5.3060

     occupation numbers 
     1.0000   1.0000   1.0000   1.0000   1.0000   1.0000   1.0000   1.0000
     1.0000   1.0000   1.0000   1.0000   1.0000   1.0000   1.0000   1.0000
     1.0000   1.0142   1.0142   0.6029   0.0515  -0.0080  -0.0000  -0.0000

          k =-0.5343-0.5343-0.5343 ( 12712 PWs)   bands (ev):

   -53.7488 -32.7702 -29.9570 -29.9570 -29.9570 -14.1195 -14.1195 -14.1195
    -5.9318  -5.9318  -5.9318   1.5879   1.6999   1.6999   1.6999   3.4552
     3.4552   4.8801   4.8801   4.8801   4.9317   4.9317   5.1897   5.1897

     occupation numbers 
     1.0000   1.0000   1.0000   1.0000   1.0000   1.0000   1.0000   1.0000
     1.0000   1.0000   1.0000   1.0000   1.0000   1.0000   1.0000   1.0000
     1.0000   0.1533   0.1533   0.1533   0.0009   0.0009  -0.0004  -0.0004

     the Fermi energy is     4.8177 ev

!    total energy              =    -452.06409953 Ry
     estimated scf accuracy    <          1.9E-13 Ry
     smearing contrib. (-TS)   =      -0.00005409 Ry
     internal energy E=F+TS    =    -452.06404544 Ry

     The total energy is F=E-TS. E is the sum of the following terms:
     one-electron contribution =    -103.66447121 Ry
     hartree contribution      =      63.96232702 Ry
     xc contribution           =     -45.70253040 Ry
     ewald contribution        =    -168.26393552 Ry
     one-center paw contrib.   =    -198.39543533 Ry
      -> PAW hartree energy AE =      48.25213451 Ry
      -> PAW hartree energy PS =     -48.02893549 Ry
      -> PAW xc energy AE      =     -71.59030170 Ry
      -> PAW xc energy PS      =      11.37806061 Ry
      -> total E_H with PAW    =      64.18552604 Ry
      -> total E_XC with PAW   =    -105.91477148 Ry

     convergence has been achieved in  18 iterations

     Forces acting on atoms (cartesian axes, Ry/au):

     atom    1 type  1   force =     0.00000000    0.00000000    0.00000000
     atom    2 type  2   force =     0.00000000    0.00000000    0.00000000
     atom    3 type  3   force =     0.00000000    0.00000000    0.00000000
     atom    4 type  3   force =     0.00000000    0.00000000    0.00000000
     atom    5 type  3   force =     0.00000000    0.00000000    0.00000000
     The non-local contrib.  to forces
     atom    1 type  1   force =     0.00000000    0.00000000    0.00000000
     atom    2 type  2   force =     0.00000000    0.00000000    0.00000000
     atom    3 type  3   force =     0.00000000    0.00000000    0.00000000
     atom    4 type  3   force =     0.00000000    0.00000000    0.00000000
     atom    5 type  3   force =     0.00000000    0.00000000    0.00000000
     The ionic contribution  to forces
     atom    1 type  1   force =    -0.00000000   -0.00000000   -0.00000000
     atom    2 type  2   force =     0.00000000    0.00000000    0.00000000
     atom    3 type  3   force =    -0.00000000   -0.00000000   -0.00000000
     atom    4 type  3   force =    -0.00000000   -0.00000000   -0.00000000
     atom    5 type  3   force =    -0.00000000   -0.00000000   -0.00000000
     The local contribution  to forces
     atom    1 type  1   force =     0.00000000    0.00000000    0.00000000
     atom    2 type  2   force =    -0.00000000   -0.00000000   -0.00000000
     atom    3 type  3   force =     0.00000000    0.00000000    0.00000000
     atom    4 type  3   force =     0.00000000    0.00000000    0.00000000
     atom    5 type  3   force =     0.00000000    0.00000000    0.00000000
     The core correction contribution to forces
     atom    1 type  1   force =     0.00000000    0.00000000   -0.00000000
     atom    2 type  2   force =    -0.00000000   -0.00000000   -0.00000000
     atom    3 type  3   force =     0.00000000    0.00000000   -0.00000000
     atom    4 type  3   force =     0.00000000    0.00000000   -0.00000000
     atom    5 type  3   force =     0.00000000    0.00000000    0.00000000
     The Hubbard contrib.    to forces
     atom    1 type  1   force =     0.00000000    0.00000000    0.00000000
     atom    2 type  2   force =     0.00000000    0.00000000    0.00000000
     atom    3 type  3   force =     0.00000000    0.00000000    0.00000000
     atom    4 type  3   force =     0.00000000    0.00000000    0.00000000
     atom    5 type  3   force =     0.00000000    0.00000000    0.00000000
     The SCF correction term to forces
     atom    1 type  1   force =    -0.00000000    0.00000000   -0.00000000
     atom    2 type  2   force =    -0.00000000   -0.00000000   -0.00000000
     atom    3 type  3   force =     0.00000000    0.00000000   -0.00000000
     atom    4 type  3   force =     0.00000000    0.00000000   -0.00000000
     atom    5 type  3   force =    -0.00000000    0.00000000    0.00000000

     Total force =     0.000000     Total SCF correction =     0.000000


     Computing stress (Cartesian axis) and pressure

          total   stress  (Ry/bohr**3)                   (kbar)     P=       -0.56
  -0.00000380   0.00000000   0.00000000           -0.56        0.00        0.00
   0.00000000  -0.00000380   0.00000000            0.00       -0.56        0.00
   0.00000000   0.00000000  -0.00000380            0.00        0.00       -0.56

     kinetic stress (kbar)  10768.42      0.00      0.00
                                0.00  10768.42      0.00
                                0.00      0.00  10768.42

     local   stress (kbar)  -4455.36     -0.00      0.00
                               -0.00  -4455.36     -0.00
                                0.00     -0.00  -4455.36

     nonloc. stress (kbar)   1936.02      0.00      0.00
                                0.00   1936.02      0.00
                                0.00      0.00   1936.02

     hartree stress (kbar)   3626.09     -0.00     -0.00
                               -0.00   3626.09      0.00
                               -0.00      0.00   3626.09

     exc-cor stress (kbar)   -980.81     -0.00     -0.00
                               -0.00   -980.81      0.00
                               -0.00      0.00   -980.81

     corecor stress (kbar)  -1355.87     -0.00     -0.00
                               -0.00  -1355.87     -0.00
                               -0.00     -0.00  -1355.87

     ewald   stress (kbar)  -9539.05     -0.00     -0.00
                               -0.00  -9539.05     -0.00
                               -0.00     -0.00  -9539.05

     hubbard stress (kbar)      0.00      0.00      0.00
                                0.00      0.00      0.00
                                0.00      0.00      0.00

     DFT-D   stress (kbar)      0.00      0.00      0.00
                                0.00      0.00      0.00
                                0.00      0.00      0.00

     XDM     stress (kbar)      0.00      0.00      0.00
                                0.00      0.00      0.00
                                0.00      0.00      0.00

     dft-nl  stress (kbar)      0.00      0.00      0.00
                                0.00      0.00      0.00
                                0.00      0.00      0.00

     TS-vdW  stress (kbar)      0.00      0.00      0.00
                                0.00      0.00      0.00
                                0.00      0.00      0.00

     MDB     stress (kbar)      0.00      0.00      0.00
                                0.00      0.00      0.00
                                0.00      0.00      0.00

     3D-RISM stress (kbar)      0.00      0.00      0.00
                                0.00      0.00      0.00
                                0.00      0.00      0.00

     Energy error            =      2.5E-04 Ry
     Gradient error          =      0.0E+00 Ry/Bohr
     Cell gradient error     =      5.6E-01 kbar

     number of scf cycles    =   6
     number of bfgs steps    =   5

     enthalpy           old  =    -452.0638544731 Ry
     enthalpy           new  =    -452.0640995312 Ry

     CASE: enthalpy          _new < enthalpy          _old

     new trust radius        =       0.0024899554 bohr
     new conv_thr            =            1.0E-12 Ry

     new unit-cell volume =    863.85473 a.u.^3 (   128.01006 Ang^3 )
     density =      2.38846 g/cm^3

CELL_PARAMETERS (angstrom)
   5.039816277   0.000000000   0.000000000
   0.000000000   5.039816277   0.000000000
   0.000000000   0.000000000   5.039816277

ATOMIC_POSITIONS (crystal)
Ca               0.0000000000        0.0000000000        0.0000000000
Ti               0.5000000000        0.5000000000        0.5000000000
S                0.5000000000        0.0000000000        0.0000000000
S                0.0000000000        0.5000000000        0.0000000000
S                0.0000000000        0.0000000000        0.5000000000



     Writing config-only to output data dir ./tmp/catis3.save/ :
     XML data file
     NEW-OLD atomic charge density approx. for the potential

     total cpu time spent up to now is     9247.5 secs

     Self-consistent Calculation

     iteration #  1     ecut=    80.00 Ry     beta= 0.30
     Davidson diagonalization with overlap

---- Real-time Memory Report at c_bands before calling an iterative solver
           195 MiB given to the printing process from OS
             0 MiB allocation reported by mallinfo(arena+hblkhd)
         57421 MiB available memory on the node where the printing process lives
------------------
     ethr =  1.00E-06,  avg # of iterations =  2.0

     Threshold (ethr) on eigenvalues was too large:
     Diagonalizing with lowered threshold

     Davidson diagonalization with overlap

---- Real-time Memory Report at c_bands before calling an iterative solver
           195 MiB given to the printing process from OS
             0 MiB allocation reported by mallinfo(arena+hblkhd)
         57334 MiB available memory on the node where the printing process lives
------------------
     ethr =  7.42E-09,  avg # of iterations =  5.2

     total cpu time spent up to now is     9350.5 secs

     total energy              =    -452.06410094 Ry
     estimated scf accuracy    <       0.00000301 Ry

     iteration #  2     ecut=    80.00 Ry     beta= 0.30
     Davidson diagonalization with overlap

---- Real-time Memory Report at c_bands before calling an iterative solver
           195 MiB given to the printing process from OS
             0 MiB allocation reported by mallinfo(arena+hblkhd)
         57097 MiB available memory on the node where the printing process lives
------------------
     ethr =  7.51E-09,  avg # of iterations =  7.7

     total cpu time spent up to now is     9445.3 secs

     total energy              =    -452.06409390 Ry
     estimated scf accuracy    <       0.00038780 Ry

     iteration #  3     ecut=    80.00 Ry     beta= 0.30
     Davidson diagonalization with overlap

---- Real-time Memory Report at c_bands before calling an iterative solver
           195 MiB given to the printing process from OS
             0 MiB allocation reported by mallinfo(arena+hblkhd)
         57192 MiB available memory on the node where the printing process lives
------------------
     ethr =  7.51E-09,  avg # of iterations =  8.0

     total cpu time spent up to now is     9539.4 secs

     total energy              =    -452.06410172 Ry
     estimated scf accuracy    <       0.00000016 Ry

     iteration #  4     ecut=    80.00 Ry     beta= 0.30
     Davidson diagonalization with overlap

---- Real-time Memory Report at c_bands before calling an iterative solver
           195 MiB given to the printing process from OS
             0 MiB allocation reported by mallinfo(arena+hblkhd)
         57108 MiB available memory on the node where the printing process lives
------------------
     ethr =  3.98E-10,  avg # of iterations =  4.4

     total cpu time spent up to now is     9599.1 secs

     total energy              =    -452.06410171 Ry
     estimated scf accuracy    <       0.00000003 Ry

     iteration #  5     ecut=    80.00 Ry     beta= 0.30
     Davidson diagonalization with overlap

---- Real-time Memory Report at c_bands before calling an iterative solver
           195 MiB given to the printing process from OS
             0 MiB allocation reported by mallinfo(arena+hblkhd)
         57121 MiB available memory on the node where the printing process lives
------------------
     ethr =  6.44E-11,  avg # of iterations =  4.3

     total cpu time spent up to now is     9658.6 secs

     total energy              =    -452.06410167 Ry
     estimated scf accuracy    <       0.00000002 Ry

     iteration #  6     ecut=    80.00 Ry     beta= 0.30
     Davidson diagonalization with overlap

---- Real-time Memory Report at c_bands before calling an iterative solver
           195 MiB given to the printing process from OS
             0 MiB allocation reported by mallinfo(arena+hblkhd)
         57222 MiB available memory on the node where the printing process lives
------------------
     ethr =  3.91E-11,  avg # of iterations =  2.6

     total cpu time spent up to now is     9700.3 secs

     total energy              =    -452.06410166 Ry
     estimated scf accuracy    <          7.4E-09 Ry

     iteration #  7     ecut=    80.00 Ry     beta= 0.30
     Davidson diagonalization with overlap

---- Real-time Memory Report at c_bands before calling an iterative solver
           195 MiB given to the printing process from OS
             0 MiB allocation reported by mallinfo(arena+hblkhd)
         57186 MiB available memory on the node where the printing process lives
------------------
     ethr =  1.84E-11,  avg # of iterations =  2.8

     total cpu time spent up to now is     9743.3 secs

     total energy              =    -452.06410167 Ry
     estimated scf accuracy    <          8.0E-10 Ry

     iteration #  8     ecut=    80.00 Ry     beta= 0.30
     Davidson diagonalization with overlap

---- Real-time Memory Report at c_bands before calling an iterative solver
           195 MiB given to the printing process from OS
             0 MiB allocation reported by mallinfo(arena+hblkhd)
         57201 MiB available memory on the node where the printing process lives
------------------
     ethr =  2.01E-12,  avg # of iterations =  7.2

     total cpu time spent up to now is     9830.5 secs

     total energy              =    -452.06410167 Ry
     estimated scf accuracy    <          3.6E-09 Ry

     iteration #  9     ecut=    80.00 Ry     beta= 0.30
     Davidson diagonalization with overlap

---- Real-time Memory Report at c_bands before calling an iterative solver
           195 MiB given to the printing process from OS
             0 MiB allocation reported by mallinfo(arena+hblkhd)
         57255 MiB available memory on the node where the printing process lives
------------------
     ethr =  2.01E-12,  avg # of iterations =  1.8

     total cpu time spent up to now is     9863.8 secs

     total energy              =    -452.06410167 Ry
     estimated scf accuracy    <          2.1E-10 Ry

     iteration # 10     ecut=    80.00 Ry     beta= 0.30
     Davidson diagonalization with overlap

---- Real-time Memory Report at c_bands before calling an iterative solver
           195 MiB given to the printing process from OS
             0 MiB allocation reported by mallinfo(arena+hblkhd)
         57323 MiB available memory on the node where the printing process lives
------------------
     ethr =  5.32E-13,  avg # of iterations =  2.2

     total cpu time spent up to now is     9902.7 secs

     total energy              =    -452.06410167 Ry
     estimated scf accuracy    <          5.2E-10 Ry

     iteration # 11     ecut=    80.00 Ry     beta= 0.30
     Davidson diagonalization with overlap

---- Real-time Memory Report at c_bands before calling an iterative solver
           195 MiB given to the printing process from OS
             0 MiB allocation reported by mallinfo(arena+hblkhd)
         57062 MiB available memory on the node where the printing process lives
------------------
     ethr =  5.32E-13,  avg # of iterations =  1.8

     total cpu time spent up to now is     9934.3 secs

     total energy              =    -452.06410167 Ry
     estimated scf accuracy    <          2.5E-11 Ry

     iteration # 12     ecut=    80.00 Ry     beta= 0.30
     Davidson diagonalization with overlap

---- Real-time Memory Report at c_bands before calling an iterative solver
           195 MiB given to the printing process from OS
             0 MiB allocation reported by mallinfo(arena+hblkhd)
         57130 MiB available memory on the node where the printing process lives
------------------
     ethr =  1.00E-13,  avg # of iterations =  7.5

     total cpu time spent up to now is    10022.9 secs

     total energy              =    -452.06410167 Ry
     estimated scf accuracy    <          1.8E-11 Ry

     iteration # 13     ecut=    80.00 Ry     beta= 0.30
     Davidson diagonalization with overlap

---- Real-time Memory Report at c_bands before calling an iterative solver
           195 MiB given to the printing process from OS
             0 MiB allocation reported by mallinfo(arena+hblkhd)
         56957 MiB available memory on the node where the printing process lives
------------------
     ethr =  1.00E-13,  avg # of iterations =  1.2

     total cpu time spent up to now is    10051.9 secs

     total energy              =    -452.06410167 Ry
     estimated scf accuracy    <          4.4E-11 Ry

     iteration # 14     ecut=    80.00 Ry     beta= 0.30
     Davidson diagonalization with overlap

---- Real-time Memory Report at c_bands before calling an iterative solver
           195 MiB given to the printing process from OS
             0 MiB allocation reported by mallinfo(arena+hblkhd)
         56994 MiB available memory on the node where the printing process lives
------------------
     ethr =  1.00E-13,  avg # of iterations =  1.2

     total cpu time spent up to now is    10081.3 secs

     End of self-consistent calculation

          k = 0.0000 0.0000 0.0000 ( 12893 PWs)   bands (ev):

   -53.7356 -32.7562 -29.9435 -29.9435 -29.9435 -14.0269 -14.0269 -14.0269
    -7.0686  -6.0523  -6.0523   2.4818   2.4818   2.4818   4.1421   4.1421
     4.1421   4.7227   4.7227   4.8177   4.8177   4.8177   5.1195   5.1195

     occupation numbers 
     1.0000   1.0000   1.0000   1.0000   1.0000   1.0000   1.0000   1.0000
     1.0000   1.0000   1.0000   1.0000   1.0000   1.0000   1.0000   1.0000
     1.0000   0.9890   0.9890   0.5825   0.5825   0.5825  -0.0053  -0.0053

          k = 0.0000 0.0000 0.1782 ( 12821 PWs)   bands (ev):

   -53.7356 -32.7560 -29.9436 -29.9435 -29.9435 -14.0478 -14.0265 -14.0265
    -6.9852  -6.0462  -6.0377   2.3618   2.5320   2.5320   3.8120   3.8923
     3.8923   4.4414   4.7678   4.8256   4.9694   4.9694   5.0196   5.0845

     occupation numbers 
     1.0000   1.0000   1.0000   1.0000   1.0000   1.0000   1.0000   1.0000
     1.0000   1.0000   1.0000   1.0000   1.0000   1.0000   1.0000   1.0000
     1.0000   1.0002   0.8503   0.5336  -0.0268  -0.0268  -0.0323  -0.0121

          k = 0.0000 0.0000 0.3564 ( 12721 PWs)   bands (ev):

   -53.7356 -32.7556 -29.9437 -29.9435 -29.9435 -14.0890 -14.0257 -14.0257
    -6.8140  -6.0338  -6.0089   2.2693   2.6771   2.6771   3.4271   3.4320
     3.4907   3.4907   4.8080   4.8080   4.8416   4.8581   5.3306   5.3870

     occupation numbers 
     1.0000   1.0000   1.0000   1.0000   1.0000   1.0000   1.0000   1.0000
     1.0000   1.0000   1.0000   1.0000   1.0000   1.0000   1.0000   1.0000
     1.0000   1.0000   0.6411   0.6411   0.4346   0.3350  -0.0000  -0.0000

          k = 0.0000 0.0000-0.5346 ( 12732 PWs)   bands (ev):

   -53.7356 -32.7554 -29.9438 -29.9435 -29.9435 -14.1092 -14.0253 -14.0253
    -6.7259  -6.0276  -5.9947   2.4219   2.8026   2.8144   2.8144   3.2511
     3.2511   3.2871   4.7329   4.7329   4.8496   4.9053   5.4397   5.5270

     occupation numbers 
     1.0000   1.0000   1.0000   1.0000   1.0000   1.0000   1.0000   1.0000
     1.0000   1.0000   1.0000   1.0000   1.0000   1.0000   1.0000   1.0000
     1.0000   1.0000   0.9670   0.9670   0.3856   0.1056  -0.0000  -0.0000

          k = 0.0000 0.1782 0.1782 ( 12769 PWs)   bands (ev):

   -53.7356 -32.7558 -29.9436 -29.9436 -29.9435 -14.0477 -14.0471 -14.0261
    -6.9002  -6.0356  -6.0271   2.1653   2.5802   2.6651   3.3561   3.7236
     4.0807   4.1952   4.7667   4.8292   4.8670   4.9558   4.9565   5.0996

     occupation numbers 
     1.0000   1.0000   1.0000   1.0000   1.0000   1.0000   1.0000   1.0000
     1.0000   1.0000   1.0000   1.0000   1.0000   1.0000   1.0000   1.0000
     1.0000   1.0000   0.8546   0.5112   0.2848  -0.0143  -0.0151  -0.0087

          k = 0.0000 0.1782 0.3564 ( 12735 PWs)   bands (ev):

   -53.7356 -32.7554 -29.9437 -29.9435 -29.9435 -14.0885 -14.0465 -14.0253
    -6.7262  -6.0208  -5.9984   2.0063   2.7198   2.8098   2.8802   3.4045
     3.4433   4.0625   4.5208   4.6665   4.8977   4.9841   5.1790   5.3506

     occupation numbers 
     1.0000   1.0000   1.0000   1.0000   1.0000   1.0000   1.0000   1.0000
     1.0000   1.0000   1.0000   1.0000   1.0000   1.0000   1.0000   1.0000
     1.0000   1.0000   1.0029   1.0354   0.1353  -0.0337  -0.0009  -0.0000

          k = 0.0000 0.1782-0.5346 ( 12760 PWs)   bands (ev):

   -53.7356 -32.7552 -29.9438 -29.9435 -29.9435 -14.1087 -14.0461 -14.0249
    -6.6371  -6.0137  -5.9832   2.0366   2.5722   2.8583   2.9818   3.0156
     3.1904   4.0193   4.4167   4.5753   4.9502   4.9903   5.3167   5.3935

     occupation numbers 
     1.0000   1.0000   1.0000   1.0000   1.0000   1.0000   1.0000   1.0000
     1.0000   1.0000   1.0000   1.0000   1.0000   1.0000   1.0000   1.0000
     1.0000   1.0000   1.0001   1.0116  -0.0071  -0.0350  -0.0000  -0.0000

          k = 0.0000 0.3564 0.3564 ( 12806 PWs)   bands (ev):

   -53.7356 -32.7550 -29.9437 -29.9437 -29.9435 -14.0877 -14.0872 -14.0245
    -6.5498  -5.9916  -5.9748   1.6550   2.4819   2.8398   2.9773   3.2304
     3.3736   3.8926   4.3848   4.4744   4.9153   5.2118   5.2317   5.3238

     occupation numbers 
     1.0000   1.0000   1.0000   1.0000   1.0000   1.0000   1.0000   1.0000
     1.0000   1.0000   1.0000   1.0000   1.0000   1.0000   1.0000   1.0000
     1.0000   1.0000   1.0000   1.0007   0.0714  -0.0003  -0.0001  -0.0000

          k = 0.0000 0.3564-0.5346 ( 12754 PWs)   bands (ev):

   -53.7356 -32.7548 -29.9438 -29.9437 -29.9434 -14.1075 -14.0869 -14.0240
    -6.4626  -5.9756  -5.9596   1.5239   2.3132   2.9683   3.0875   3.1202
     3.1496   3.7958   4.2484   4.5099   4.9963   5.0603   5.2732   5.4357

     occupation numbers 
     1.0000   1.0000   1.0000   1.0000   1.0000   1.0000   1.0000   1.0000
     1.0000   1.0000   1.0000   1.0000   1.0000   1.0000   1.0000   1.0000
     1.0000   1.0000   1.0000   1.0021  -0.0354  -0.0192  -0.0000  -0.0000

          k = 0.0000-0.5346-0.5346 ( 12656 PWs)   bands (ev):

   -53.7356 -32.7547 -29.9438 -29.9438 -29.9434 -14.1070 -14.1070 -14.0236
    -6.3801  -5.9477  -5.9477   1.3293   2.1857   3.0425   3.0425   3.2486
     3.2486   3.4423   4.0738   4.6143   4.9366   4.9710   5.4213   5.4213

     occupation numbers 
     1.0000   1.0000   1.0000   1.0000   1.0000   1.0000   1.0000   1.0000
     1.0000   1.0000   1.0000   1.0000   1.0000   1.0000   1.0000   1.0000
     1.0000   1.0000   1.0000   1.0234   0.0163  -0.0279  -0.0000  -0.0000

          k = 0.1782 0.1782 0.1782 ( 12821 PWs)   bands (ev):

   -53.7356 -32.7556 -29.9436 -29.9436 -29.9436 -14.0475 -14.0467 -14.0467
    -6.8129  -6.0208  -6.0208   2.0239   2.6483   2.6483   3.3566   3.3566
     3.8658   4.3698   4.6981   4.6981   4.8283   4.8283   4.9267   5.3300

     occupation numbers 
     1.0000   1.0000   1.0000   1.0000   1.0000   1.0000   1.0000   1.0000
     1.0000   1.0000   1.0000   1.0000   1.0000   1.0000   1.0000   1.0000
     1.0000   1.0000   1.0226   1.0226   0.5169   0.5169   0.0390  -0.0000

          k = 0.1782 0.1782 0.3564 ( 12754 PWs)   bands (ev):

   -53.7356 -32.7552 -29.9437 -29.9435 -29.9435 -14.0880 -14.0463 -14.0458
    -6.6345  -6.0081  -5.9895   1.8960   2.5393   2.6366   3.0368   3.1224
     3.6274   4.2636   4.3489   4.5800   4.8707   5.0307   5.1132   5.3122

     occupation numbers 
     1.0000   1.0000   1.0000   1.0000   1.0000   1.0000   1.0000   1.0000
     1.0000   1.0000   1.0000   1.0000   1.0000   1.0000   1.0000   1.0000
     1.0000   1.0000   1.0000   1.0128   0.2643  -0.0291  -0.0062  -0.0000

          k = 0.1782 0.1782-0.5346 ( 12740 PWs)   bands (ev):

   -53.7356 -32.7550 -29.9438 -29.9435 -29.9435 -14.1081 -14.0459 -14.0454
    -6.5435  -6.0016  -5.9727   1.9580   2.3784   2.4506   2.8622   3.1013
     3.7790   4.0747   4.1540   4.5292   4.9014   5.1826   5.2205   5.3426

     occupation numbers 
     1.0000   1.0000   1.0000   1.0000   1.0000   1.0000   1.0000   1.0000
     1.0000   1.0000   1.0000   1.0000   1.0000   1.0000   1.0000   1.0000
     1.0000   1.0000   1.0000   1.0037   0.1207  -0.0008  -0.0002  -0.0000

          k = 0.1782 0.3564 0.3564 ( 12746 PWs)   bands (ev):

   -53.7356 -32.7548 -29.9437 -29.9437 -29.9435 -14.0872 -14.0867 -14.0452
    -6.4495  -5.9807  -5.9681   1.6761   2.2577   2.5205   2.7339   3.4022
     3.4278   4.1711   4.3387   4.5518   4.9175   5.0503   5.1277   5.4097

     occupation numbers 
     1.0000   1.0000   1.0000   1.0000   1.0000   1.0000   1.0000   1.0000
     1.0000   1.0000   1.0000   1.0000   1.0000   1.0000   1.0000   1.0000
     1.0000   1.0000   1.0000   1.0067   0.0645  -0.0225  -0.0043  -0.0000

          k = 0.1782 0.3564-0.5346 ( 12742 PWs)   bands (ev):

   -53.7356 -32.7547 -29.9438 -29.9437 -29.9435 -14.1070 -14.0864 -14.0448
    -6.3579  -5.9678  -5.9515   1.5901   2.1530   2.3671   2.6067   3.3718
     3.7115   3.9043   4.2699   4.5737   4.9648   5.0449   5.2663   5.4208

     occupation numbers 
     1.0000   1.0000   1.0000   1.0000   1.0000   1.0000   1.0000   1.0000
     1.0000   1.0000   1.0000   1.0000   1.0000   1.0000   1.0000   1.0000
     1.0000   1.0000   1.0000   1.0112  -0.0233  -0.0244  -0.0000  -0.0000

          k = 0.1782-0.5346-0.5346 ( 12744 PWs)   bands (ev):

   -53.7356 -32.7545 -29.9438 -29.9438 -29.9435 -14.1065 -14.1065 -14.0443
    -6.2707  -5.9407  -5.9407   1.4122   2.0797   2.3983   2.3983   3.4481
     3.8453   3.9462   3.9462   4.6685   4.9437   4.9648   5.4024   5.4024

     occupation numbers 
     1.0000   1.0000   1.0000   1.0000   1.0000   1.0000   1.0000   1.0000
     1.0000   1.0000   1.0000   1.0000   1.0000   1.0000   1.0000   1.0000
     1.0000   1.0000   1.0000   1.0353   0.0031  -0.0233  -0.0000  -0.0000

          k = 0.3564 0.3564 0.3564 ( 12746 PWs)   bands (ev):

   -53.7356 -32.7545 -29.9437 -29.9437 -29.9437 -14.0865 -14.0857 -14.0857
    -6.2444  -5.9545  -5.9545   1.6614   2.0670   2.0670   2.3053   3.4780
     3.4780   4.3978   4.3978   4.8937   4.9183   4.9183   4.9531   5.4900

     occupation numbers 
     1.0000   1.0000   1.0000   1.0000   1.0000   1.0000   1.0000   1.0000
     1.0000   1.0000   1.0000   1.0000   1.0000   1.0000   1.0000   1.0000
     1.0000   1.0000   1.0000   0.1521   0.0621   0.0621  -0.0109  -0.0000

          k = 0.3564 0.3564-0.5346 ( 12734 PWs)   bands (ev):

   -53.7356 -32.7543 -29.9438 -29.9437 -29.9437 -14.1060 -14.0857 -14.0852
    -6.1432  -5.9476  -5.9350   1.6884   1.8697   1.8993   2.1595   3.5045
     3.5189   4.4149   4.4695   4.7878   4.9227   4.9813   5.2026   5.3622

     occupation numbers 
     1.0000   1.0000   1.0000   1.0000   1.0000   1.0000   1.0000   1.0000
     1.0000   1.0000   1.0000   1.0000   1.0000   1.0000   1.0000   1.0000
     1.0000   1.0001   1.0006   0.7543   0.0495  -0.0328  -0.0004  -0.0000

          k = 0.3564-0.5346-0.5346 ( 12744 PWs)   bands (ev):

   -53.7356 -32.7541 -29.9438 -29.9438 -29.9437 -14.1054 -14.1054 -14.0850
    -6.0409  -5.9267  -5.9267   1.5994   1.7833   1.8886   1.8886   3.4597
     3.5515   4.5845   4.5845   4.8141   4.9222   4.9510   5.3200   5.3200

     occupation numbers 
     1.0000   1.0000   1.0000   1.0000   1.0000   1.0000   1.0000   1.0000
     1.0000   1.0000   1.0000   1.0000   1.0000   1.0000   1.0000   1.0000
     1.0000   1.0140   1.0140   0.6041   0.0510  -0.0082  -0.0000  -0.0000

          k =-0.5346-0.5346-0.5346 ( 12712 PWs)   bands (ev):

   -53.7356 -32.7539 -29.9437 -29.9437 -29.9437 -14.1049 -14.1049 -14.1049
    -5.9195  -5.9195  -5.9195   1.5976   1.7071   1.7071   1.7071   3.4656
     3.4656   4.8936   4.8936   4.8936   4.9452   4.9452   5.2034   5.2034

     occupation numbers 
     1.0000   1.0000   1.0000   1.0000   1.0000   1.0000   1.0000   1.0000
     1.0000   1.0000   1.0000   1.0000   1.0000   1.0000   1.0000   1.0000
     1.0000   0.1529   0.1529   0.1529   0.0006   0.0006  -0.0004  -0.0004

     the Fermi energy is     4.8310 ev

!    total energy              =    -452.06410167 Ry
     estimated scf accuracy    <          4.4E-13 Ry
     smearing contrib. (-TS)   =      -0.00005633 Ry
     internal energy E=F+TS    =    -452.06404534 Ry

     The total energy is F=E-TS. E is the sum of the following terms:
     one-electron contribution =    -103.55588926 Ry
     hartree contribution      =      63.92753203 Ry
     xc contribution           =     -45.70489316 Ry
     ewald contribution        =    -168.33519461 Ry
     one-center paw contrib.   =    -198.39560034 Ry
      -> PAW hartree energy AE =      48.26161454 Ry
      -> PAW hartree energy PS =     -48.03840655 Ry
      -> PAW xc energy AE      =     -71.59136951 Ry
      -> PAW xc energy PS      =      11.37910928 Ry
      -> total E_H with PAW    =      64.15074002 Ry
      -> total E_XC with PAW   =    -105.91715339 Ry

     convergence has been achieved in  14 iterations

     Forces acting on atoms (cartesian axes, Ry/au):

     atom    1 type  1   force =     0.00000000    0.00000000    0.00000000
     atom    2 type  2   force =     0.00000000    0.00000000    0.00000000
     atom    3 type  3   force =     0.00000000    0.00000000    0.00000000
     atom    4 type  3   force =     0.00000000    0.00000000    0.00000000
     atom    5 type  3   force =     0.00000000    0.00000000    0.00000000
     The non-local contrib.  to forces
     atom    1 type  1   force =     0.00000000    0.00000000    0.00000000
     atom    2 type  2   force =     0.00000000    0.00000000    0.00000000
     atom    3 type  3   force =     0.00000000    0.00000000    0.00000000
     atom    4 type  3   force =     0.00000000    0.00000000    0.00000000
     atom    5 type  3   force =     0.00000000    0.00000000    0.00000000
     The ionic contribution  to forces
     atom    1 type  1   force =    -0.00000000   -0.00000000   -0.00000000
     atom    2 type  2   force =     0.00000000    0.00000000    0.00000000
     atom    3 type  3   force =    -0.00000000   -0.00000000   -0.00000000
     atom    4 type  3   force =    -0.00000000   -0.00000000   -0.00000000
     atom    5 type  3   force =    -0.00000000   -0.00000000   -0.00000000
     The local contribution  to forces
     atom    1 type  1   force =     0.00000000    0.00000000    0.00000000
     atom    2 type  2   force =    -0.00000000   -0.00000000   -0.00000000
     atom    3 type  3   force =     0.00000000    0.00000000    0.00000000
     atom    4 type  3   force =     0.00000000    0.00000000    0.00000000
     atom    5 type  3   force =     0.00000000    0.00000000    0.00000000
     The core correction contribution to forces
     atom    1 type  1   force =     0.00000000    0.00000000   -0.00000000
     atom    2 type  2   force =    -0.00000000   -0.00000000   -0.00000000
     atom    3 type  3   force =     0.00000000    0.00000000   -0.00000000
     atom    4 type  3   force =     0.00000000    0.00000000   -0.00000000
     atom    5 type  3   force =     0.00000000    0.00000000    0.00000000
     The Hubbard contrib.    to forces
     atom    1 type  1   force =     0.00000000    0.00000000    0.00000000
     atom    2 type  2   force =     0.00000000    0.00000000    0.00000000
     atom    3 type  3   force =     0.00000000    0.00000000    0.00000000
     atom    4 type  3   force =     0.00000000    0.00000000    0.00000000
     atom    5 type  3   force =     0.00000000    0.00000000    0.00000000
     The SCF correction term to forces
     atom    1 type  1   force =    -0.00000000    0.00000000    0.00000000
     atom    2 type  2   force =    -0.00000000   -0.00000000    0.00000000
     atom    3 type  3   force =     0.00000000   -0.00000000    0.00000000
     atom    4 type  3   force =    -0.00000000   -0.00000000    0.00000000
     atom    5 type  3   force =     0.00000000   -0.00000000   -0.00000000

     Total force =     0.000000     Total SCF correction =     0.000000


     Computing stress (Cartesian axis) and pressure

          total   stress  (Ry/bohr**3)                   (kbar)     P=       -0.01
  -0.00000008   0.00000000   0.00000000           -0.01        0.00        0.00
   0.00000000  -0.00000008   0.00000000            0.00       -0.01        0.00
   0.00000000   0.00000000  -0.00000008            0.00        0.00       -0.01

     kinetic stress (kbar)  10782.75      0.00      0.00
                                0.00  10782.75      0.00
                                0.00      0.00  10782.75

     local   stress (kbar)  -4455.10      0.00      0.00
                                0.00  -4455.10     -0.00
                                0.00     -0.00  -4455.10

     nonloc. stress (kbar)   1938.60      0.00      0.00
                                0.00   1938.60      0.00
                                0.00      0.00   1938.60

     hartree stress (kbar)   3628.72     -0.00     -0.00
                               -0.00   3628.72      0.00
                               -0.00      0.00   3628.72

     exc-cor stress (kbar)   -982.17     -0.00      0.00
                               -0.00   -982.17      0.00
                                0.00      0.00   -982.17

     corecor stress (kbar)  -1357.60     -0.00      0.00
                               -0.00  -1357.60     -0.00
                                0.00     -0.00  -1357.60

     ewald   stress (kbar)  -9555.22     -0.00     -0.00
                               -0.00  -9555.22     -0.00
                               -0.00     -0.00  -9555.22

     hubbard stress (kbar)      0.00      0.00      0.00
                                0.00      0.00      0.00
                                0.00      0.00      0.00

     DFT-D   stress (kbar)      0.00      0.00      0.00
                                0.00      0.00      0.00
                                0.00      0.00      0.00

     XDM     stress (kbar)      0.00      0.00      0.00
                                0.00      0.00      0.00
                                0.00      0.00      0.00

     dft-nl  stress (kbar)      0.00      0.00      0.00
                                0.00      0.00      0.00
                                0.00      0.00      0.00

     TS-vdW  stress (kbar)      0.00      0.00      0.00
                                0.00      0.00      0.00
                                0.00      0.00      0.00

     MDB     stress (kbar)      0.00      0.00      0.00
                                0.00      0.00      0.00
                                0.00      0.00      0.00

     3D-RISM stress (kbar)      0.00      0.00      0.00
                                0.00      0.00      0.00
                                0.00      0.00      0.00

     Energy error            =      2.1E-06 Ry
     Gradient error          =      0.0E+00 Ry/Bohr
     Cell gradient error     =      1.2E-02 kbar

     number of scf cycles    =   7
     number of bfgs steps    =   6

     enthalpy           old  =    -452.0640995312 Ry
     enthalpy           new  =    -452.0641016670 Ry

     CASE: enthalpy          _new < enthalpy          _old

     small trust_radius: resetting bfgs history

     new trust radius        =       0.0000117810 bohr
     new conv_thr            =            1.0E-12 Ry

     new unit-cell volume =    863.84954 a.u.^3 (   128.00929 Ang^3 )
     density =      2.38847 g/cm^3

CELL_PARAMETERS (angstrom)
   5.039806177   0.000000000   0.000000000
   0.000000000   5.039806177   0.000000000
   0.000000000   0.000000000   5.039806177

ATOMIC_POSITIONS (crystal)
Ca               0.0000000000        0.0000000000        0.0000000000
Ti               0.5000000000        0.5000000000        0.5000000000
S                0.5000000000        0.0000000000        0.0000000000
S                0.0000000000        0.5000000000        0.0000000000
S                0.0000000000        0.0000000000        0.5000000000



     Writing config-only to output data dir ./tmp/catis3.save/ :
     XML data file
     NEW-OLD atomic charge density approx. for the potential

     total cpu time spent up to now is    10108.9 secs

     Self-consistent Calculation

     iteration #  1     ecut=    80.00 Ry     beta= 0.30
     Davidson diagonalization with overlap

---- Real-time Memory Report at c_bands before calling an iterative solver
           195 MiB given to the printing process from OS
             0 MiB allocation reported by mallinfo(arena+hblkhd)
         57188 MiB available memory on the node where the printing process lives
------------------
     ethr =  1.00E-06,  avg # of iterations =  2.0

     Threshold (ethr) on eigenvalues was too large:
     Diagonalizing with lowered threshold

     Davidson diagonalization with overlap

---- Real-time Memory Report at c_bands before calling an iterative solver
           195 MiB given to the printing process from OS
             0 MiB allocation reported by mallinfo(arena+hblkhd)
         57577 MiB available memory on the node where the printing process lives
------------------
     ethr =  1.89E-12,  avg # of iterations =  2.5

     total cpu time spent up to now is    10183.6 secs

     total energy              =    -452.06410167 Ry
     estimated scf accuracy    <          7.9E-10 Ry

     iteration #  2     ecut=    80.00 Ry     beta= 0.30
     Davidson diagonalization with overlap

---- Real-time Memory Report at c_bands before calling an iterative solver
           195 MiB given to the printing process from OS
             0 MiB allocation reported by mallinfo(arena+hblkhd)
         57248 MiB available memory on the node where the printing process lives
------------------
     ethr =  1.98E-12,  avg # of iterations =  8.1

     total cpu time spent up to now is    10279.7 secs

     total energy              =    -452.06410167 Ry
     estimated scf accuracy    <       0.00000011 Ry

     iteration #  3     ecut=    80.00 Ry     beta= 0.30
     Davidson diagonalization with overlap

---- Real-time Memory Report at c_bands before calling an iterative solver
           195 MiB given to the printing process from OS
             0 MiB allocation reported by mallinfo(arena+hblkhd)
         57196 MiB available memory on the node where the printing process lives
------------------
     ethr =  1.98E-12,  avg # of iterations =  8.1

     total cpu time spent up to now is    10375.3 secs

     total energy              =    -452.06410167 Ry
     estimated scf accuracy    <          4.8E-12 Ry

     iteration #  4     ecut=    80.00 Ry     beta= 0.30
     Davidson diagonalization with overlap

---- Real-time Memory Report at c_bands before calling an iterative solver
           195 MiB given to the printing process from OS
             0 MiB allocation reported by mallinfo(arena+hblkhd)
         57018 MiB available memory on the node where the printing process lives
------------------
     ethr =  1.00E-13,  avg # of iterations =  4.0

     total cpu time spent up to now is    10429.3 secs

     total energy              =    -452.06410167 Ry
     estimated scf accuracy    <          4.5E-12 Ry

     iteration #  5     ecut=    80.00 Ry     beta= 0.30
     Davidson diagonalization with overlap

---- Real-time Memory Report at c_bands before calling an iterative solver
           195 MiB given to the printing process from OS
             0 MiB allocation reported by mallinfo(arena+hblkhd)
         57240 MiB available memory on the node where the printing process lives
------------------
     ethr =  1.00E-13,  avg # of iterations =  1.1

     total cpu time spent up to now is    10457.4 secs

     total energy              =    -452.06410167 Ry
     estimated scf accuracy    <          1.1E-11 Ry

     iteration #  6     ecut=    80.00 Ry     beta= 0.30
     Davidson diagonalization with overlap

---- Real-time Memory Report at c_bands before calling an iterative solver
           195 MiB given to the printing process from OS
             0 MiB allocation reported by mallinfo(arena+hblkhd)
         57271 MiB available memory on the node where the printing process lives
------------------
     ethr =  1.00E-13,  avg # of iterations =  1.1

     total cpu time spent up to now is    10485.0 secs

     total energy              =    -452.06410167 Ry
     estimated scf accuracy    <          8.0E-11 Ry

     iteration #  7     ecut=    80.00 Ry     beta= 0.30
     Davidson diagonalization with overlap

---- Real-time Memory Report at c_bands before calling an iterative solver
           195 MiB given to the printing process from OS
             0 MiB allocation reported by mallinfo(arena+hblkhd)
         56980 MiB available memory on the node where the printing process lives
------------------
     ethr =  1.00E-13,  avg # of iterations =  1.2

     total cpu time spent up to now is    10512.2 secs

     total energy              =    -452.06410167 Ry
     estimated scf accuracy    <          1.3E-10 Ry

     iteration #  8     ecut=    80.00 Ry     beta= 0.30
     Davidson diagonalization with overlap

---- Real-time Memory Report at c_bands before calling an iterative solver
           195 MiB given to the printing process from OS
             0 MiB allocation reported by mallinfo(arena+hblkhd)
         57095 MiB available memory on the node where the printing process lives
------------------
     ethr =  1.00E-13,  avg # of iterations =  1.4

     total cpu time spent up to now is    10542.4 secs

     total energy              =    -452.06410167 Ry
     estimated scf accuracy    <          3.1E-10 Ry

     iteration #  9     ecut=    80.00 Ry     beta= 0.30
     Davidson diagonalization with overlap

---- Real-time Memory Report at c_bands before calling an iterative solver
           195 MiB given to the printing process from OS
             0 MiB allocation reported by mallinfo(arena+hblkhd)
         56983 MiB available memory on the node where the printing process lives
------------------
     ethr =  1.00E-13,  avg # of iterations =  1.4

     total cpu time spent up to now is    10572.1 secs

     total energy              =    -452.06410167 Ry
     estimated scf accuracy    <          3.8E-10 Ry

     iteration # 10     ecut=    80.00 Ry     beta= 0.30
     Davidson diagonalization with overlap

---- Real-time Memory Report at c_bands before calling an iterative solver
           195 MiB given to the printing process from OS
             0 MiB allocation reported by mallinfo(arena+hblkhd)
         57166 MiB available memory on the node where the printing process lives
------------------
     ethr =  1.00E-13,  avg # of iterations =  1.1

     total cpu time spent up to now is    10598.9 secs

     total energy              =    -452.06410167 Ry
     estimated scf accuracy    <          1.6E-10 Ry

     iteration # 11     ecut=    80.00 Ry     beta= 0.30
     Davidson diagonalization with overlap

---- Real-time Memory Report at c_bands before calling an iterative solver
           195 MiB given to the printing process from OS
             0 MiB allocation reported by mallinfo(arena+hblkhd)
         57274 MiB available memory on the node where the printing process lives
------------------
     ethr =  1.00E-13,  avg # of iterations =  2.0

     total cpu time spent up to now is    10637.4 secs

     total energy              =    -452.06410167 Ry
     estimated scf accuracy    <          1.1E-12 Ry

     iteration # 12     ecut=    80.00 Ry     beta= 0.30
     Davidson diagonalization with overlap

---- Real-time Memory Report at c_bands before calling an iterative solver
           195 MiB given to the printing process from OS
             0 MiB allocation reported by mallinfo(arena+hblkhd)
         57210 MiB available memory on the node where the printing process lives
------------------
     ethr =  1.00E-13,  avg # of iterations =  1.0

     total cpu time spent up to now is    10664.6 secs

     total energy              =    -452.06410167 Ry
     estimated scf accuracy    <          9.1E-12 Ry

     iteration # 13     ecut=    80.00 Ry     beta= 0.30
     Davidson diagonalization with overlap

---- Real-time Memory Report at c_bands before calling an iterative solver
           195 MiB given to the printing process from OS
             0 MiB allocation reported by mallinfo(arena+hblkhd)
         57005 MiB available memory on the node where the printing process lives
------------------
     ethr =  1.00E-13,  avg # of iterations =  1.0

     total cpu time spent up to now is    10689.8 secs

     End of self-consistent calculation

          k = 0.0000 0.0000 0.0000 ( 12893 PWs)   bands (ev):

   -53.7355 -32.7561 -29.9434 -29.9434 -29.9434 -14.0268 -14.0268 -14.0268
    -7.0686  -6.0523  -6.0523   2.4818   2.4818   2.4818   4.1421   4.1421
     4.1421   4.7228   4.7228   4.8177   4.8177   4.8177   5.1196   5.1196

     occupation numbers 
     1.0000   1.0000   1.0000   1.0000   1.0000   1.0000   1.0000   1.0000
     1.0000   1.0000   1.0000   1.0000   1.0000   1.0000   1.0000   1.0000
     1.0000   0.9891   0.9891   0.5825   0.5825   0.5825  -0.0053  -0.0053

          k = 0.0000 0.0000 0.1782 ( 12821 PWs)   bands (ev):

   -53.7355 -32.7559 -29.9435 -29.9434 -29.9434 -14.0478 -14.0264 -14.0264
    -6.9852  -6.0461  -6.0377   2.3619   2.5321   2.5321   3.8121   3.8924
     3.8924   4.4415   4.7678   4.8257   4.9695   4.9695   5.0197   5.0845

     occupation numbers 
     1.0000   1.0000   1.0000   1.0000   1.0000   1.0000   1.0000   1.0000
     1.0000   1.0000   1.0000   1.0000   1.0000   1.0000   1.0000   1.0000
     1.0000   1.0002   0.8503   0.5336  -0.0268  -0.0268  -0.0323  -0.0121

          k = 0.0000 0.0000 0.3564 ( 12721 PWs)   bands (ev):

   -53.7355 -32.7555 -29.9437 -29.9434 -29.9434 -14.0889 -14.0256 -14.0256
    -6.8140  -6.0338  -6.0088   2.2694   2.6772   2.6772   3.4271   3.4320
     3.4907   3.4907   4.8080   4.8080   4.8416   4.8582   5.3307   5.3870

     occupation numbers 
     1.0000   1.0000   1.0000   1.0000   1.0000   1.0000   1.0000   1.0000
     1.0000   1.0000   1.0000   1.0000   1.0000   1.0000   1.0000   1.0000
     1.0000   1.0000   0.6410   0.6410   0.4346   0.3350  -0.0000  -0.0000

          k = 0.0000 0.0000-0.5346 ( 12732 PWs)   bands (ev):

   -53.7355 -32.7553 -29.9437 -29.9434 -29.9434 -14.1092 -14.0252 -14.0252
    -6.7258  -6.0276  -5.9947   2.4219   2.8027   2.8145   2.8145   3.2511
     3.2511   3.2872   4.7330   4.7330   4.8497   4.9054   5.4397   5.5271

     occupation numbers 
     1.0000   1.0000   1.0000   1.0000   1.0000   1.0000   1.0000   1.0000
     1.0000   1.0000   1.0000   1.0000   1.0000   1.0000   1.0000   1.0000
     1.0000   1.0000   0.9670   0.9670   0.3856   0.1056  -0.0000  -0.0000

          k = 0.0000 0.1782 0.1782 ( 12769 PWs)   bands (ev):

   -53.7355 -32.7557 -29.9435 -29.9435 -29.9434 -14.0476 -14.0470 -14.0260
    -6.9001  -6.0355  -6.0270   2.1653   2.5802   2.6651   3.3562   3.7237
     4.0807   4.1952   4.7668   4.8293   4.8670   4.9559   4.9566   5.0996

     occupation numbers 
     1.0000   1.0000   1.0000   1.0000   1.0000   1.0000   1.0000   1.0000
     1.0000   1.0000   1.0000   1.0000   1.0000   1.0000   1.0000   1.0000
     1.0000   1.0000   0.8546   0.5112   0.2847  -0.0143  -0.0151  -0.0087

          k = 0.0000 0.1782 0.3564 ( 12735 PWs)   bands (ev):

   -53.7355 -32.7553 -29.9436 -29.9435 -29.9434 -14.0884 -14.0464 -14.0252
    -6.7262  -6.0207  -5.9984   2.0064   2.7199   2.8099   2.8803   3.4046
     3.4434   4.0626   4.5209   4.6666   4.8978   4.9841   5.1791   5.3507

     occupation numbers 
     1.0000   1.0000   1.0000   1.0000   1.0000   1.0000   1.0000   1.0000
     1.0000   1.0000   1.0000   1.0000   1.0000   1.0000   1.0000   1.0000
     1.0000   1.0000   1.0029   1.0354   0.1353  -0.0337  -0.0009  -0.0000

          k = 0.0000 0.1782-0.5346 ( 12760 PWs)   bands (ev):

   -53.7355 -32.7551 -29.9437 -29.9435 -29.9434 -14.1086 -14.0460 -14.0248
    -6.6371  -6.0136  -5.9831   2.0367   2.5722   2.8583   2.9818   3.0157
     3.1905   4.0194   4.4168   4.5754   4.9503   4.9903   5.3168   5.3936

     occupation numbers 
     1.0000   1.0000   1.0000   1.0000   1.0000   1.0000   1.0000   1.0000
     1.0000   1.0000   1.0000   1.0000   1.0000   1.0000   1.0000   1.0000
     1.0000   1.0000   1.0001   1.0116  -0.0071  -0.0350  -0.0000  -0.0000

          k = 0.0000 0.3564 0.3564 ( 12806 PWs)   bands (ev):

   -53.7355 -32.7550 -29.9436 -29.9436 -29.9434 -14.0877 -14.0871 -14.0244
    -6.5497  -5.9916  -5.9747   1.6550   2.4820   2.8399   2.9774   3.2305
     3.3737   3.8926   4.3848   4.4745   4.9154   5.2118   5.2318   5.3239

     occupation numbers 
     1.0000   1.0000   1.0000   1.0000   1.0000   1.0000   1.0000   1.0000
     1.0000   1.0000   1.0000   1.0000   1.0000   1.0000   1.0000   1.0000
     1.0000   1.0000   1.0000   1.0007   0.0714  -0.0003  -0.0001  -0.0000

          k = 0.0000 0.3564-0.5346 ( 12754 PWs)   bands (ev):

   -53.7355 -32.7548 -29.9437 -29.9436 -29.9434 -14.1075 -14.0868 -14.0240
    -6.4625  -5.9756  -5.9596   1.5240   2.3132   2.9683   3.0875   3.1203
     3.1496   3.7959   4.2485   4.5099   4.9963   5.0603   5.2733   5.4358

     occupation numbers 
     1.0000   1.0000   1.0000   1.0000   1.0000   1.0000   1.0000   1.0000
     1.0000   1.0000   1.0000   1.0000   1.0000   1.0000   1.0000   1.0000
     1.0000   1.0000   1.0000   1.0021  -0.0354  -0.0192  -0.0000  -0.0000

          k = 0.0000-0.5346-0.5346 ( 12656 PWs)   bands (ev):

   -53.7355 -32.7546 -29.9437 -29.9437 -29.9434 -14.1069 -14.1069 -14.0236
    -6.3800  -5.9476  -5.9476   1.3293   2.1858   3.0426   3.0426   3.2487
     3.2487   3.4423   4.0739   4.6144   4.9367   4.9710   5.4214   5.4214

     occupation numbers 
     1.0000   1.0000   1.0000   1.0000   1.0000   1.0000   1.0000   1.0000
     1.0000   1.0000   1.0000   1.0000   1.0000   1.0000   1.0000   1.0000
     1.0000   1.0000   1.0000   1.0234   0.0163  -0.0279  -0.0000  -0.0000

          k = 0.1782 0.1782 0.1782 ( 12821 PWs)   bands (ev):

   -53.7355 -32.7555 -29.9435 -29.9435 -29.9435 -14.0475 -14.0466 -14.0466
    -6.8128  -6.0207  -6.0207   2.0239   2.6483   2.6483   3.3566   3.3566
     3.8659   4.3699   4.6981   4.6981   4.8284   4.8284   4.9268   5.3301

     occupation numbers 
     1.0000   1.0000   1.0000   1.0000   1.0000   1.0000   1.0000   1.0000
     1.0000   1.0000   1.0000   1.0000   1.0000   1.0000   1.0000   1.0000
     1.0000   1.0000   1.0226   1.0226   0.5169   0.5169   0.0390  -0.0000

          k = 0.1782 0.1782 0.3564 ( 12754 PWs)   bands (ev):

   -53.7355 -32.7551 -29.9436 -29.9435 -29.9435 -14.0879 -14.0463 -14.0457
    -6.6345  -6.0080  -5.9895   1.8961   2.5393   2.6366   3.0368   3.1225
     3.6275   4.2637   4.3490   4.5801   4.8708   5.0308   5.1133   5.3123

     occupation numbers 
     1.0000   1.0000   1.0000   1.0000   1.0000   1.0000   1.0000   1.0000
     1.0000   1.0000   1.0000   1.0000   1.0000   1.0000   1.0000   1.0000
     1.0000   1.0000   1.0000   1.0128   0.2643  -0.0291  -0.0062  -0.0000

          k = 0.1782 0.1782-0.5346 ( 12740 PWs)   bands (ev):

   -53.7355 -32.7550 -29.9437 -29.9435 -29.9435 -14.1080 -14.0458 -14.0453
    -6.5434  -6.0016  -5.9726   1.9580   2.3784   2.4506   2.8622   3.1014
     3.7790   4.0748   4.1541   4.5293   4.9014   5.1827   5.2206   5.3427

     occupation numbers 
     1.0000   1.0000   1.0000   1.0000   1.0000   1.0000   1.0000   1.0000
     1.0000   1.0000   1.0000   1.0000   1.0000   1.0000   1.0000   1.0000
     1.0000   1.0000   1.0000   1.0037   0.1207  -0.0008  -0.0002  -0.0000

          k = 0.1782 0.3564 0.3564 ( 12746 PWs)   bands (ev):

   -53.7355 -32.7548 -29.9436 -29.9436 -29.9435 -14.0872 -14.0866 -14.0451
    -6.4494  -5.9807  -5.9680   1.6761   2.2578   2.5206   2.7339   3.4022
     3.4279   4.1711   4.3388   4.5519   4.9176   5.0504   5.1278   5.4097

     occupation numbers 
     1.0000   1.0000   1.0000   1.0000   1.0000   1.0000   1.0000   1.0000
     1.0000   1.0000   1.0000   1.0000   1.0000   1.0000   1.0000   1.0000
     1.0000   1.0000   1.0000   1.0067   0.0645  -0.0225  -0.0043  -0.0000

          k = 0.1782 0.3564-0.5346 ( 12742 PWs)   bands (ev):

   -53.7355 -32.7546 -29.9437 -29.9436 -29.9435 -14.1069 -14.0864 -14.0447
    -6.3579  -5.9677  -5.9514   1.5902   2.1530   2.3671   2.6067   3.3719
     3.7116   3.9044   4.2699   4.5737   4.9648   5.0450   5.2663   5.4209

     occupation numbers 
     1.0000   1.0000   1.0000   1.0000   1.0000   1.0000   1.0000   1.0000
     1.0000   1.0000   1.0000   1.0000   1.0000   1.0000   1.0000   1.0000
     1.0000   1.0000   1.0000   1.0112  -0.0233  -0.0244  -0.0000  -0.0000

          k = 0.1782-0.5346-0.5346 ( 12744 PWs)   bands (ev):

   -53.7355 -32.7544 -29.9437 -29.9437 -29.9435 -14.1064 -14.1064 -14.0443
    -6.2706  -5.9407  -5.9407   1.4123   2.0798   2.3983   2.3983   3.4481
     3.8454   3.9462   3.9462   4.6685   4.9438   4.9648   5.4024   5.4024

     occupation numbers 
     1.0000   1.0000   1.0000   1.0000   1.0000   1.0000   1.0000   1.0000
     1.0000   1.0000   1.0000   1.0000   1.0000   1.0000   1.0000   1.0000
     1.0000   1.0000   1.0000   1.0353   0.0031  -0.0233  -0.0000  -0.0000

          k = 0.3564 0.3564 0.3564 ( 12746 PWs)   bands (ev):

   -53.7355 -32.7544 -29.9436 -29.9436 -29.9436 -14.0864 -14.0856 -14.0856
    -6.2444  -5.9544  -5.9544   1.6614   2.0670   2.0670   2.3053   3.4780
     3.4780   4.3978   4.3978   4.8938   4.9184   4.9184   4.9531   5.4901

     occupation numbers 
     1.0000   1.0000   1.0000   1.0000   1.0000   1.0000   1.0000   1.0000
     1.0000   1.0000   1.0000   1.0000   1.0000   1.0000   1.0000   1.0000
     1.0000   1.0000   1.0000   0.1521   0.0621   0.0621  -0.0109  -0.0000

          k = 0.3564 0.3564-0.5346 ( 12734 PWs)   bands (ev):

   -53.7355 -32.7542 -29.9437 -29.9436 -29.9436 -14.1059 -14.0856 -14.0852
    -6.1431  -5.9476  -5.9349   1.6885   1.8697   1.8994   2.1595   3.5045
     3.5189   4.4149   4.4696   4.7879   4.9228   4.9813   5.2027   5.3622

     occupation numbers 
     1.0000   1.0000   1.0000   1.0000   1.0000   1.0000   1.0000   1.0000
     1.0000   1.0000   1.0000   1.0000   1.0000   1.0000   1.0000   1.0000
     1.0000   1.0001   1.0006   0.7543   0.0495  -0.0328  -0.0004  -0.0000

          k = 0.3564-0.5346-0.5346 ( 12744 PWs)   bands (ev):

   -53.7355 -32.7540 -29.9437 -29.9437 -29.9436 -14.1054 -14.1054 -14.0849
    -6.0408  -5.9266  -5.9266   1.5994   1.7834   1.8887   1.8887   3.4598
     3.5516   4.5846   4.5846   4.8142   4.9222   4.9511   5.3201   5.3201

     occupation numbers 
     1.0000   1.0000   1.0000   1.0000   1.0000   1.0000   1.0000   1.0000
     1.0000   1.0000   1.0000   1.0000   1.0000   1.0000   1.0000   1.0000
     1.0000   1.0140   1.0140   0.6041   0.0510  -0.0082  -0.0000  -0.0000

          k =-0.5346-0.5346-0.5346 ( 12712 PWs)   bands (ev):

   -53.7355 -32.7538 -29.9437 -29.9437 -29.9437 -14.1049 -14.1049 -14.1049
    -5.9195  -5.9195  -5.9195   1.5977   1.7071   1.7071   1.7071   3.4656
     3.4656   4.8936   4.8936   4.8936   4.9452   4.9452   5.2034   5.2034

     occupation numbers 
     1.0000   1.0000   1.0000   1.0000   1.0000   1.0000   1.0000   1.0000
     1.0000   1.0000   1.0000   1.0000   1.0000   1.0000   1.0000   1.0000
     1.0000   0.1529   0.1529   0.1529   0.0006   0.0006  -0.0004  -0.0004

     the Fermi energy is     4.8311 ev

!    total energy              =    -452.06410167 Ry
     estimated scf accuracy    <          8.7E-13 Ry
     smearing contrib. (-TS)   =      -0.00005635 Ry
     internal energy E=F+TS    =    -452.06404532 Ry

     The total energy is F=E-TS. E is the sum of the following terms:
     one-electron contribution =    -103.55538634 Ry
     hartree contribution      =      63.92737835 Ry
     xc contribution           =     -45.70490483 Ry
     ewald contribution        =    -168.33553199 Ry
     one-center paw contrib.   =    -198.39560051 Ry
      -> PAW hartree energy AE =      48.26166677 Ry
      -> PAW hartree energy PS =     -48.03845872 Ry
      -> PAW xc energy AE      =     -71.59137547 Ry
      -> PAW xc energy PS      =      11.37911513 Ry
      -> total E_H with PAW    =      64.15058640 Ry
      -> total E_XC with PAW   =    -105.91716517 Ry

     convergence has been achieved in  13 iterations

     Forces acting on atoms (cartesian axes, Ry/au):

     atom    1 type  1   force =     0.00000000    0.00000000    0.00000000
     atom    2 type  2   force =     0.00000000    0.00000000    0.00000000
     atom    3 type  3   force =     0.00000000    0.00000000    0.00000000
     atom    4 type  3   force =     0.00000000    0.00000000    0.00000000
     atom    5 type  3   force =     0.00000000    0.00000000    0.00000000
     The non-local contrib.  to forces
     atom    1 type  1   force =     0.00000000    0.00000000    0.00000000
     atom    2 type  2   force =     0.00000000    0.00000000    0.00000000
     atom    3 type  3   force =     0.00000000    0.00000000    0.00000000
     atom    4 type  3   force =     0.00000000    0.00000000    0.00000000
     atom    5 type  3   force =     0.00000000    0.00000000    0.00000000
     The ionic contribution  to forces
     atom    1 type  1   force =    -0.00000000   -0.00000000   -0.00000000
     atom    2 type  2   force =     0.00000000    0.00000000    0.00000000
     atom    3 type  3   force =    -0.00000000   -0.00000000   -0.00000000
     atom    4 type  3   force =    -0.00000000   -0.00000000   -0.00000000
     atom    5 type  3   force =    -0.00000000   -0.00000000   -0.00000000
     The local contribution  to forces
     atom    1 type  1   force =     0.00000000    0.00000000   -0.00000000
     atom    2 type  2   force =    -0.00000000   -0.00000000   -0.00000000
     atom    3 type  3   force =     0.00000000   -0.00000000    0.00000000
     atom    4 type  3   force =     0.00000000    0.00000000   -0.00000000
     atom    5 type  3   force =    -0.00000000    0.00000000    0.00000000
     The core correction contribution to forces
     atom    1 type  1   force =     0.00000000    0.00000000   -0.00000000
     atom    2 type  2   force =    -0.00000000   -0.00000000   -0.00000000
     atom    3 type  3   force =     0.00000000    0.00000000   -0.00000000
     atom    4 type  3   force =     0.00000000    0.00000000    0.00000000
     atom    5 type  3   force =     0.00000000    0.00000000    0.00000000
     The Hubbard contrib.    to forces
     atom    1 type  1   force =     0.00000000    0.00000000    0.00000000
     atom    2 type  2   force =     0.00000000    0.00000000    0.00000000
     atom    3 type  3   force =     0.00000000    0.00000000    0.00000000
     atom    4 type  3   force =     0.00000000    0.00000000    0.00000000
     atom    5 type  3   force =     0.00000000    0.00000000    0.00000000
     The SCF correction term to forces
     atom    1 type  1   force =    -0.00000000   -0.00000000   -0.00000000
     atom    2 type  2   force =     0.00000000   -0.00000000    0.00000000
     atom    3 type  3   force =     0.00000000    0.00000000    0.00000000
     atom    4 type  3   force =     0.00000000    0.00000000    0.00000000
     atom    5 type  3   force =     0.00000000   -0.00000000    0.00000000

     Total force =     0.000000     Total SCF correction =     0.000000


     Computing stress (Cartesian axis) and pressure

          total   stress  (Ry/bohr**3)                   (kbar)     P=       -0.01
  -0.00000006   0.00000000   0.00000000           -0.01        0.00        0.00
   0.00000000  -0.00000006   0.00000000            0.00       -0.01        0.00
   0.00000000   0.00000000  -0.00000006            0.00        0.00       -0.01

     kinetic stress (kbar)  10782.82      0.00      0.00
                                0.00  10782.82      0.00
                                0.00      0.00  10782.82

     local   stress (kbar)  -4455.10      0.00     -0.00
                                0.00  -4455.10     -0.00
                               -0.00     -0.00  -4455.10

     nonloc. stress (kbar)   1938.62      0.00      0.00
                                0.00   1938.62      0.00
                                0.00      0.00   1938.62

     hartree stress (kbar)   3628.73     -0.00      0.00
                               -0.00   3628.73      0.00
                                0.00      0.00   3628.73

     exc-cor stress (kbar)   -982.17     -0.00      0.00
                               -0.00   -982.17     -0.00
                                0.00     -0.00   -982.17

     corecor stress (kbar)  -1357.61     -0.00      0.00
                               -0.00  -1357.61     -0.00
                                0.00     -0.00  -1357.61

     ewald   stress (kbar)  -9555.30     -0.00     -0.00
                               -0.00  -9555.30     -0.00
                               -0.00     -0.00  -9555.30

     hubbard stress (kbar)      0.00      0.00      0.00
                                0.00      0.00      0.00
                                0.00      0.00      0.00

     DFT-D   stress (kbar)      0.00      0.00      0.00
                                0.00      0.00      0.00
                                0.00      0.00      0.00

     XDM     stress (kbar)      0.00      0.00      0.00
                                0.00      0.00      0.00
                                0.00      0.00      0.00

     dft-nl  stress (kbar)      0.00      0.00      0.00
                                0.00      0.00      0.00
                                0.00      0.00      0.00

     TS-vdW  stress (kbar)      0.00      0.00      0.00
                                0.00      0.00      0.00
                                0.00      0.00      0.00

     MDB     stress (kbar)      0.00      0.00      0.00
                                0.00      0.00      0.00
                                0.00      0.00      0.00

     3D-RISM stress (kbar)      0.00      0.00      0.00
                                0.00      0.00      0.00
                                0.00      0.00      0.00

     Energy error            =      3.4E-10 Ry
     Gradient error          =      0.0E+00 Ry/Bohr
     Cell gradient error     =      8.5E-03 kbar

     bfgs converged in   8 scf cycles and   7 bfgs steps
     (criteria: energy <  1.0E-07 Ry, force <  1.0E-06 Ry/Bohr, cell <  1.0E-01 kbar)

     End of BFGS Geometry Optimization

     Final enthalpy           =    -452.0641016674 Ry

     File ./tmp/catis3.bfgs deleted, as requested
Begin final coordinates
     new unit-cell volume =    863.84954 a.u.^3 (   128.00929 Ang^3 )
     density =      2.38847 g/cm^3

CELL_PARAMETERS (angstrom)
   5.039806177   0.000000000   0.000000000
   0.000000000   5.039806177   0.000000000
   0.000000000   0.000000000   5.039806177

ATOMIC_POSITIONS (crystal)
Ca               0.0000000000        0.0000000000        0.0000000000
Ti               0.5000000000        0.5000000000        0.5000000000
S                0.5000000000        0.0000000000        0.0000000000
S                0.0000000000        0.5000000000        0.0000000000
S                0.0000000000        0.0000000000        0.5000000000
End final coordinates



     Writing config-only to output data dir ./tmp/catis3.save/ :
     XML data file

     Final scf calculation at the relaxed structure.
     The G-vectors are recalculated for the final unit cell
     Results may differ from those at the preceding step.

     Parallelization info
     --------------------
     sticks:   dense  smooth     PW     G-vecs:    dense   smooth      PW
     Min         579     289     82                29573    10449    1569
     Max         580     290     84                29576    10452    1571
     Sum        4637    2313    665               236601    83599   12557

     Using Slab Decomposition



     bravais-lattice index     =            0
     lattice parameter (alat)  =      10.1821  a.u.
     unit-cell volume          =     863.8495 (a.u.)^3
     number of atoms/cell      =            5
     number of atomic types    =            3
     number of electrons       =        40.00
     number of Kohn-Sham states=           24
     kinetic-energy cutoff     =      80.0000  Ry
     charge density cutoff     =     640.0000  Ry
     scf convergence threshold =      1.0E-12
     mixing beta               =       0.3000
     number of iterations used =            8  plain     mixing
     press convergence thresh. =      1.0E-01
     Exchange-correlation= PBE
                           (   1   4   3   4   0   0   0)

     celldm(1)=  10.182135  celldm(2)=   0.000000  celldm(3)=   0.000000
     celldm(4)=   0.000000  celldm(5)=   0.000000  celldm(6)=   0.000000

     crystal axes: (cart. coord. in units of alat)
               a(1) = (   0.935349   0.000000   0.000000 )  
               a(2) = (   0.000000   0.935349   0.000000 )  
               a(3) = (   0.000000   0.000000   0.935349 )  

     reciprocal axes: (cart. coord. in units 2 pi/alat)
               b(1) = (  1.069119  0.000000  0.000000 )  
               b(2) = (  0.000000  1.069119  0.000000 )  
               b(3) = (  0.000000  0.000000  1.069119 )  


     PseudoPot. # 1 for Ca read from file:
     /home/administrator/Downloads/BURAI/BURAI1.3/pseudopot/Ca.pbe-spn-kjpaw_psl.1.0.0.UPF
     MD5 check sum: b518bfa21c8e9f1b10ff1c7131b15729
     Pseudo is Projector augmented-wave + core cor, Zval = 10.0
     Generated using "atomic" code by A. Dal Corso  v.5.1.2
     Shape of augmentation charge: PSQ
     Using radial grid of 1169 points,  6 beta functions with: 
                l(1) =   0
                l(2) =   0
                l(3) =   1
                l(4) =   1
                l(5) =   2
                l(6) =   2
     Q(r) pseudized with 0 coefficients 


     PseudoPot. # 2 for Ti read from file:
     /home/administrator/Downloads/BURAI/BURAI1.3/pseudopot/Ti.pbe-spn-rrkjus_psl.1.0.0.UPF
     MD5 check sum: 40bbf9bd2b317505b6eb957456eaaf86
     Pseudo is Ultrasoft + core correction, Zval = 12.0
     Generated using "atomic" code by A. Dal Corso  v.5.1.2
     Using radial grid of 1177 points,  6 beta functions with: 
                l(1) =   0
                l(2) =   0
                l(3) =   1
                l(4) =   1
                l(5) =   2
                l(6) =   2
     Q(r) pseudized with 0 coefficients 


     PseudoPot. # 3 for S  read from file:
     /home/administrator/Downloads/BURAI/BURAI1.3/pseudopot/S.pbe-n-kjpaw_psl.1.0.0.UPF
     MD5 check sum: cb96b46a5ee63c4f5db34501b74ad364
     Pseudo is Projector augmented-wave + core cor, Zval =  6.0
     Generated using "atomic" code by A. Dal Corso  v.5.1.2
     Shape of augmentation charge: PSQ
     Using radial grid of 1151 points,  6 beta functions with: 
                l(1) =   0
                l(2) =   0
                l(3) =   1
                l(4) =   1
                l(5) =   2
                l(6) =   2
     Q(r) pseudized with 0 coefficients 


     atomic species   valence    mass     pseudopotential
     Ca               10.00    40.07800     Ca( 1.00)
     Ti               12.00    47.86700     Ti( 1.00)
     S                 6.00    32.06000     S ( 1.00)

     48 Sym. Ops., with inversion, found


                                    s                        frac. trans.

      isym =  1     identity                                     

 cryst.   s( 1) = (     1          0          0      )
                  (     0          1          0      )
                  (     0          0          1      )

 cart.    s( 1) = (  1.0000000  0.0000000  0.0000000 )
                  (  0.0000000  1.0000000  0.0000000 )
                  (  0.0000000  0.0000000  1.0000000 )


      isym =  2     180 deg rotation - cart. axis [0,0,1]        

 cryst.   s( 2) = (    -1          0          0      )
                  (     0         -1          0      )
                  (     0          0          1      )

 cart.    s( 2) = ( -1.0000000  0.0000000  0.0000000 )
                  (  0.0000000 -1.0000000  0.0000000 )
                  (  0.0000000  0.0000000  1.0000000 )


      isym =  3     180 deg rotation - cart. axis [0,1,0]        

 cryst.   s( 3) = (    -1          0          0      )
                  (     0          1          0      )
                  (     0          0         -1      )

 cart.    s( 3) = ( -1.0000000  0.0000000  0.0000000 )
                  (  0.0000000  1.0000000  0.0000000 )
                  (  0.0000000  0.0000000 -1.0000000 )


      isym =  4     180 deg rotation - cart. axis [1,0,0]        

 cryst.   s( 4) = (     1          0          0      )
                  (     0         -1          0      )
                  (     0          0         -1      )

 cart.    s( 4) = (  1.0000000  0.0000000  0.0000000 )
                  (  0.0000000 -1.0000000  0.0000000 )
                  (  0.0000000  0.0000000 -1.0000000 )


      isym =  5     180 deg rotation - cart. axis [1,1,0]        

 cryst.   s( 5) = (     0          1          0      )
                  (     1          0          0      )
                  (     0          0         -1      )

 cart.    s( 5) = (  0.0000000  1.0000000  0.0000000 )
                  (  1.0000000  0.0000000  0.0000000 )
                  (  0.0000000  0.0000000 -1.0000000 )


      isym =  6     180 deg rotation - cart. axis [1,-1,0]       

 cryst.   s( 6) = (     0         -1          0      )
                  (    -1          0          0      )
                  (     0          0         -1      )

 cart.    s( 6) = (  0.0000000 -1.0000000  0.0000000 )
                  ( -1.0000000  0.0000000  0.0000000 )
                  (  0.0000000  0.0000000 -1.0000000 )


      isym =  7      90 deg rotation - cart. axis [0,0,-1]       

 cryst.   s( 7) = (     0         -1          0      )
                  (     1          0          0      )
                  (     0          0          1      )

 cart.    s( 7) = (  0.0000000  1.0000000  0.0000000 )
                  ( -1.0000000  0.0000000  0.0000000 )
                  (  0.0000000  0.0000000  1.0000000 )


      isym =  8      90 deg rotation - cart. axis [0,0,1]        

 cryst.   s( 8) = (     0          1          0      )
                  (    -1          0          0      )
                  (     0          0          1      )

 cart.    s( 8) = (  0.0000000 -1.0000000  0.0000000 )
                  (  1.0000000  0.0000000  0.0000000 )
                  (  0.0000000  0.0000000  1.0000000 )


      isym =  9     180 deg rotation - cart. axis [1,0,1]        

 cryst.   s( 9) = (     0          0          1      )
                  (     0         -1          0      )
                  (     1          0          0      )

 cart.    s( 9) = (  0.0000000  0.0000000  1.0000000 )
                  (  0.0000000 -1.0000000  0.0000000 )
                  (  1.0000000  0.0000000  0.0000000 )


      isym = 10     180 deg rotation - cart. axis [-1,0,1]       

 cryst.   s(10) = (     0          0         -1      )
                  (     0         -1          0      )
                  (    -1          0          0      )

 cart.    s(10) = (  0.0000000  0.0000000 -1.0000000 )
                  (  0.0000000 -1.0000000  0.0000000 )
                  ( -1.0000000  0.0000000  0.0000000 )


      isym = 11      90 deg rotation - cart. axis [0,1,0]        

 cryst.   s(11) = (     0          0         -1      )
                  (     0          1          0      )
                  (     1          0          0      )

 cart.    s(11) = (  0.0000000  0.0000000  1.0000000 )
                  (  0.0000000  1.0000000  0.0000000 )
                  ( -1.0000000  0.0000000  0.0000000 )


      isym = 12      90 deg rotation - cart. axis [0,-1,0]       

 cryst.   s(12) = (     0          0          1      )
                  (     0          1          0      )
                  (    -1          0          0      )

 cart.    s(12) = (  0.0000000  0.0000000 -1.0000000 )
                  (  0.0000000  1.0000000  0.0000000 )
                  (  1.0000000  0.0000000  0.0000000 )


      isym = 13     180 deg rotation - cart. axis [0,1,1]        

 cryst.   s(13) = (    -1          0          0      )
                  (     0          0          1      )
                  (     0          1          0      )

 cart.    s(13) = ( -1.0000000  0.0000000  0.0000000 )
                  (  0.0000000  0.0000000  1.0000000 )
                  (  0.0000000  1.0000000  0.0000000 )


      isym = 14     180 deg rotation - cart. axis [0,1,-1]       

 cryst.   s(14) = (    -1          0          0      )
                  (     0          0         -1      )
                  (     0         -1          0      )

 cart.    s(14) = ( -1.0000000  0.0000000  0.0000000 )
                  (  0.0000000  0.0000000 -1.0000000 )
                  (  0.0000000 -1.0000000  0.0000000 )


      isym = 15      90 deg rotation - cart. axis [-1,0,0]       

 cryst.   s(15) = (     1          0          0      )
                  (     0          0         -1      )
                  (     0          1          0      )

 cart.    s(15) = (  1.0000000  0.0000000  0.0000000 )
                  (  0.0000000  0.0000000  1.0000000 )
                  (  0.0000000 -1.0000000  0.0000000 )


      isym = 16      90 deg rotation - cart. axis [1,0,0]        

 cryst.   s(16) = (     1          0          0      )
                  (     0          0          1      )
                  (     0         -1          0      )

 cart.    s(16) = (  1.0000000  0.0000000  0.0000000 )
                  (  0.0000000  0.0000000 -1.0000000 )
                  (  0.0000000  1.0000000  0.0000000 )


      isym = 17     120 deg rotation - cart. axis [-1,-1,-1]     

 cryst.   s(17) = (     0          0          1      )
                  (     1          0          0      )
                  (     0          1          0      )

 cart.    s(17) = (  0.0000000  1.0000000  0.0000000 )
                  (  0.0000000  0.0000000  1.0000000 )
                  (  1.0000000  0.0000000  0.0000000 )


      isym = 18     120 deg rotation - cart. axis [-1,1,1]       

 cryst.   s(18) = (     0          0         -1      )
                  (    -1          0          0      )
                  (     0          1          0      )

 cart.    s(18) = (  0.0000000 -1.0000000  0.0000000 )
                  (  0.0000000  0.0000000  1.0000000 )
                  ( -1.0000000  0.0000000  0.0000000 )


      isym = 19     120 deg rotation - cart. axis [1,1,-1]       

 cryst.   s(19) = (     0          0         -1      )
                  (     1          0          0      )
                  (     0         -1          0      )

 cart.    s(19) = (  0.0000000  1.0000000  0.0000000 )
                  (  0.0000000  0.0000000 -1.0000000 )
                  ( -1.0000000  0.0000000  0.0000000 )


      isym = 20     120 deg rotation - cart. axis [1,-1,1]       

 cryst.   s(20) = (     0          0          1      )
                  (    -1          0          0      )
                  (     0         -1          0      )

 cart.    s(20) = (  0.0000000 -1.0000000  0.0000000 )
                  (  0.0000000  0.0000000 -1.0000000 )
                  (  1.0000000  0.0000000  0.0000000 )


      isym = 21     120 deg rotation - cart. axis [1,1,1]        

 cryst.   s(21) = (     0          1          0      )
                  (     0          0          1      )
                  (     1          0          0      )

 cart.    s(21) = (  0.0000000  0.0000000  1.0000000 )
                  (  1.0000000  0.0000000  0.0000000 )
                  (  0.0000000  1.0000000  0.0000000 )


      isym = 22     120 deg rotation - cart. axis [-1,1,-1]      

 cryst.   s(22) = (     0         -1          0      )
                  (     0          0         -1      )
                  (     1          0          0      )

 cart.    s(22) = (  0.0000000  0.0000000  1.0000000 )
                  ( -1.0000000  0.0000000  0.0000000 )
                  (  0.0000000 -1.0000000  0.0000000 )


      isym = 23     120 deg rotation - cart. axis [1,-1,-1]      

 cryst.   s(23) = (     0         -1          0      )
                  (     0          0          1      )
                  (    -1          0          0      )

 cart.    s(23) = (  0.0000000  0.0000000 -1.0000000 )
                  ( -1.0000000  0.0000000  0.0000000 )
                  (  0.0000000  1.0000000  0.0000000 )


      isym = 24     120 deg rotation - cart. axis [-1,-1,1]      

 cryst.   s(24) = (     0          1          0      )
                  (     0          0         -1      )
                  (    -1          0          0      )

 cart.    s(24) = (  0.0000000  0.0000000 -1.0000000 )
                  (  1.0000000  0.0000000  0.0000000 )
                  (  0.0000000 -1.0000000  0.0000000 )


      isym = 25     inversion                                    

 cryst.   s(25) = (    -1          0          0      )
                  (     0         -1          0      )
                  (     0          0         -1      )

 cart.    s(25) = ( -1.0000000  0.0000000  0.0000000 )
                  (  0.0000000 -1.0000000  0.0000000 )
                  (  0.0000000  0.0000000 -1.0000000 )


      isym = 26     inv. 180 deg rotation - cart. axis [0,0,1]   

 cryst.   s(26) = (     1          0          0      )
                  (     0          1          0      )
                  (     0          0         -1      )

 cart.    s(26) = (  1.0000000  0.0000000  0.0000000 )
                  (  0.0000000  1.0000000  0.0000000 )
                  (  0.0000000  0.0000000 -1.0000000 )


      isym = 27     inv. 180 deg rotation - cart. axis [0,1,0]   

 cryst.   s(27) = (     1          0          0      )
                  (     0         -1          0      )
                  (     0          0          1      )

 cart.    s(27) = (  1.0000000  0.0000000  0.0000000 )
                  (  0.0000000 -1.0000000  0.0000000 )
                  (  0.0000000  0.0000000  1.0000000 )


      isym = 28     inv. 180 deg rotation - cart. axis [1,0,0]   

 cryst.   s(28) = (    -1          0          0      )
                  (     0          1          0      )
                  (     0          0          1      )

 cart.    s(28) = ( -1.0000000  0.0000000  0.0000000 )
                  (  0.0000000  1.0000000  0.0000000 )
                  (  0.0000000  0.0000000  1.0000000 )


      isym = 29     inv. 180 deg rotation - cart. axis [1,1,0]   

 cryst.   s(29) = (     0         -1          0      )
                  (    -1          0          0      )
                  (     0          0          1      )

 cart.    s(29) = (  0.0000000 -1.0000000  0.0000000 )
                  ( -1.0000000  0.0000000  0.0000000 )
                  (  0.0000000  0.0000000  1.0000000 )


      isym = 30     inv. 180 deg rotation - cart. axis [1,-1,0]  

 cryst.   s(30) = (     0          1          0      )
                  (     1          0          0      )
                  (     0          0          1      )

 cart.    s(30) = (  0.0000000  1.0000000  0.0000000 )
                  (  1.0000000  0.0000000  0.0000000 )
                  (  0.0000000  0.0000000  1.0000000 )


      isym = 31     inv.  90 deg rotation - cart. axis [0,0,-1]  

 cryst.   s(31) = (     0          1          0      )
                  (    -1          0          0      )
                  (     0          0         -1      )

 cart.    s(31) = (  0.0000000 -1.0000000  0.0000000 )
                  (  1.0000000  0.0000000  0.0000000 )
                  (  0.0000000  0.0000000 -1.0000000 )


      isym = 32     inv.  90 deg rotation - cart. axis [0,0,1]   

 cryst.   s(32) = (     0         -1          0      )
                  (     1          0          0      )
                  (     0          0         -1      )

 cart.    s(32) = (  0.0000000  1.0000000  0.0000000 )
                  ( -1.0000000  0.0000000  0.0000000 )
                  (  0.0000000  0.0000000 -1.0000000 )


      isym = 33     inv. 180 deg rotation - cart. axis [1,0,1]   

 cryst.   s(33) = (     0          0         -1      )
                  (     0          1          0      )
                  (    -1          0          0      )

 cart.    s(33) = (  0.0000000  0.0000000 -1.0000000 )
                  (  0.0000000  1.0000000  0.0000000 )
                  ( -1.0000000  0.0000000  0.0000000 )


      isym = 34     inv. 180 deg rotation - cart. axis [-1,0,1]  

 cryst.   s(34) = (     0          0          1      )
                  (     0          1          0      )
                  (     1          0          0      )

 cart.    s(34) = (  0.0000000  0.0000000  1.0000000 )
                  (  0.0000000  1.0000000  0.0000000 )
                  (  1.0000000  0.0000000  0.0000000 )


      isym = 35     inv.  90 deg rotation - cart. axis [0,1,0]   

 cryst.   s(35) = (     0          0          1      )
                  (     0         -1          0      )
                  (    -1          0          0      )

 cart.    s(35) = (  0.0000000  0.0000000 -1.0000000 )
                  (  0.0000000 -1.0000000  0.0000000 )
                  (  1.0000000  0.0000000  0.0000000 )


      isym = 36     inv.  90 deg rotation - cart. axis [0,-1,0]  

 cryst.   s(36) = (     0          0         -1      )
                  (     0         -1          0      )
                  (     1          0          0      )

 cart.    s(36) = (  0.0000000  0.0000000  1.0000000 )
                  (  0.0000000 -1.0000000  0.0000000 )
                  ( -1.0000000  0.0000000  0.0000000 )


      isym = 37     inv. 180 deg rotation - cart. axis [0,1,1]   

 cryst.   s(37) = (     1          0          0      )
                  (     0          0         -1      )
                  (     0         -1          0      )

 cart.    s(37) = (  1.0000000  0.0000000  0.0000000 )
                  (  0.0000000  0.0000000 -1.0000000 )
                  (  0.0000000 -1.0000000  0.0000000 )


      isym = 38     inv. 180 deg rotation - cart. axis [0,1,-1]  

 cryst.   s(38) = (     1          0          0      )
                  (     0          0          1      )
                  (     0          1          0      )

 cart.    s(38) = (  1.0000000  0.0000000  0.0000000 )
                  (  0.0000000  0.0000000  1.0000000 )
                  (  0.0000000  1.0000000  0.0000000 )


      isym = 39     inv.  90 deg rotation - cart. axis [-1,0,0]  

 cryst.   s(39) = (    -1          0          0      )
                  (     0          0          1      )
                  (     0         -1          0      )

 cart.    s(39) = ( -1.0000000  0.0000000  0.0000000 )
                  (  0.0000000  0.0000000 -1.0000000 )
                  (  0.0000000  1.0000000  0.0000000 )


      isym = 40     inv.  90 deg rotation - cart. axis [1,0,0]   

 cryst.   s(40) = (    -1          0          0      )
                  (     0          0         -1      )
                  (     0          1          0      )

 cart.    s(40) = ( -1.0000000  0.0000000  0.0000000 )
                  (  0.0000000  0.0000000  1.0000000 )
                  (  0.0000000 -1.0000000  0.0000000 )


      isym = 41     inv. 120 deg rotation - cart. axis [-1,-1,-1]

 cryst.   s(41) = (     0          0         -1      )
                  (    -1          0          0      )
                  (     0         -1          0      )

 cart.    s(41) = (  0.0000000 -1.0000000  0.0000000 )
                  (  0.0000000  0.0000000 -1.0000000 )
                  ( -1.0000000  0.0000000  0.0000000 )


      isym = 42     inv. 120 deg rotation - cart. axis [-1,1,1]  

 cryst.   s(42) = (     0          0          1      )
                  (     1          0          0      )
                  (     0         -1          0      )

 cart.    s(42) = (  0.0000000  1.0000000  0.0000000 )
                  (  0.0000000  0.0000000 -1.0000000 )
                  (  1.0000000  0.0000000  0.0000000 )


      isym = 43     inv. 120 deg rotation - cart. axis [1,1,-1]  

 cryst.   s(43) = (     0          0          1      )
                  (    -1          0          0      )
                  (     0          1          0      )

 cart.    s(43) = (  0.0000000 -1.0000000  0.0000000 )
                  (  0.0000000  0.0000000  1.0000000 )
                  (  1.0000000  0.0000000  0.0000000 )


      isym = 44     inv. 120 deg rotation - cart. axis [1,-1,1]  

 cryst.   s(44) = (     0          0         -1      )
                  (     1          0          0      )
                  (     0          1          0      )

 cart.    s(44) = (  0.0000000  1.0000000  0.0000000 )
                  (  0.0000000  0.0000000  1.0000000 )
                  ( -1.0000000  0.0000000  0.0000000 )


      isym = 45     inv. 120 deg rotation - cart. axis [1,1,1]   

 cryst.   s(45) = (     0         -1          0      )
                  (     0          0         -1      )
                  (    -1          0          0      )

 cart.    s(45) = (  0.0000000  0.0000000 -1.0000000 )
                  ( -1.0000000  0.0000000  0.0000000 )
                  (  0.0000000 -1.0000000  0.0000000 )


      isym = 46     inv. 120 deg rotation - cart. axis [-1,1,-1] 

 cryst.   s(46) = (     0          1          0      )
                  (     0          0          1      )
                  (    -1          0          0      )

 cart.    s(46) = (  0.0000000  0.0000000 -1.0000000 )
                  (  1.0000000  0.0000000  0.0000000 )
                  (  0.0000000  1.0000000  0.0000000 )


      isym = 47     inv. 120 deg rotation - cart. axis [1,-1,-1] 

 cryst.   s(47) = (     0          1          0      )
                  (     0          0         -1      )
                  (     1          0          0      )

 cart.    s(47) = (  0.0000000  0.0000000  1.0000000 )
                  (  1.0000000  0.0000000  0.0000000 )
                  (  0.0000000 -1.0000000  0.0000000 )


      isym = 48     inv. 120 deg rotation - cart. axis [-1,-1,1] 

 cryst.   s(48) = (     0         -1          0      )
                  (     0          0          1      )
                  (     1          0          0      )

 cart.    s(48) = (  0.0000000  0.0000000  1.0000000 )
                  ( -1.0000000  0.0000000  0.0000000 )
                  (  0.0000000  1.0000000  0.0000000 )


   Cartesian axes

     site n.     atom                  positions (alat units)
         1        Ca     tau(   1) = (   0.0000000   0.0000000   0.0000000  )
         2        Ti     tau(   2) = (   0.4676747   0.4676747   0.4676747  )
         3        S      tau(   3) = (   0.4676747   0.0000000   0.0000000  )
         4        S      tau(   4) = (   0.0000000   0.4676747   0.0000000  )
         5        S      tau(   5) = (   0.0000000   0.0000000   0.4676747  )

   Crystallographic axes

     site n.     atom                  positions (cryst. coord.)
         1        Ca     tau(   1) = (  0.0000000  0.0000000  0.0000000  )
         2        Ti     tau(   2) = (  0.5000000  0.5000000  0.5000000  )
         3        S      tau(   3) = (  0.5000000  0.0000000  0.0000000  )
         4        S      tau(   4) = (  0.0000000  0.5000000  0.0000000  )
         5        S      tau(   5) = (  0.0000000  0.0000000  0.5000000  )

     number of k points=    20  Methfessel-Paxton smearing, width (Ry)=  0.0100
                       cart. coord. in units 2pi/alat
        k(    1) = (   0.0000000   0.0000000   0.0000000), wk =   0.0092593
        k(    2) = (   0.0000000   0.0000000   0.1781865), wk =   0.0555556
        k(    3) = (   0.0000000   0.0000000   0.3563731), wk =   0.0555556
        k(    4) = (   0.0000000   0.0000000  -0.5345596), wk =   0.0277778
        k(    5) = (   0.0000000   0.1781865   0.1781865), wk =   0.1111111
        k(    6) = (   0.0000000   0.1781865   0.3563731), wk =   0.2222222
        k(    7) = (   0.0000000   0.1781865  -0.5345596), wk =   0.1111111
        k(    8) = (   0.0000000   0.3563731   0.3563731), wk =   0.1111111
        k(    9) = (   0.0000000   0.3563731  -0.5345596), wk =   0.1111111
        k(   10) = (   0.0000000  -0.5345596  -0.5345596), wk =   0.0277778
        k(   11) = (   0.1781865   0.1781865   0.1781865), wk =   0.0740741
        k(   12) = (   0.1781865   0.1781865   0.3563731), wk =   0.2222222
        k(   13) = (   0.1781865   0.1781865  -0.5345596), wk =   0.1111111
        k(   14) = (   0.1781865   0.3563731   0.3563731), wk =   0.2222222
        k(   15) = (   0.1781865   0.3563731  -0.5345596), wk =   0.2222222
        k(   16) = (   0.1781865  -0.5345596  -0.5345596), wk =   0.0555556
        k(   17) = (   0.3563731   0.3563731   0.3563731), wk =   0.0740741
        k(   18) = (   0.3563731   0.3563731  -0.5345596), wk =   0.1111111
        k(   19) = (   0.3563731  -0.5345596  -0.5345596), wk =   0.0555556
        k(   20) = (  -0.5345596  -0.5345596  -0.5345596), wk =   0.0092593

                       cryst. coord.
        k(    1) = (   0.0000000   0.0000000   0.0000000), wk =   0.0092593
        k(    2) = (   0.0000000   0.0000000   0.1666667), wk =   0.0555556
        k(    3) = (   0.0000000   0.0000000   0.3333333), wk =   0.0555556
        k(    4) = (   0.0000000   0.0000000  -0.5000000), wk =   0.0277778
        k(    5) = (   0.0000000   0.1666667   0.1666667), wk =   0.1111111
        k(    6) = (   0.0000000   0.1666667   0.3333333), wk =   0.2222222
        k(    7) = (   0.0000000   0.1666667  -0.5000000), wk =   0.1111111
        k(    8) = (   0.0000000   0.3333333   0.3333333), wk =   0.1111111
        k(    9) = (   0.0000000   0.3333333  -0.5000000), wk =   0.1111111
        k(   10) = (   0.0000000  -0.5000000  -0.5000000), wk =   0.0277778
        k(   11) = (   0.1666667   0.1666667   0.1666667), wk =   0.0740741
        k(   12) = (   0.1666667   0.1666667   0.3333333), wk =   0.2222222
        k(   13) = (   0.1666667   0.1666667  -0.5000000), wk =   0.1111111
        k(   14) = (   0.1666667   0.3333333   0.3333333), wk =   0.2222222
        k(   15) = (   0.1666667   0.3333333  -0.5000000), wk =   0.2222222
        k(   16) = (   0.1666667  -0.5000000  -0.5000000), wk =   0.0555556
        k(   17) = (   0.3333333   0.3333333   0.3333333), wk =   0.0740741
        k(   18) = (   0.3333333   0.3333333  -0.5000000), wk =   0.1111111
        k(   19) = (   0.3333333  -0.5000000  -0.5000000), wk =   0.0555556
        k(   20) = (  -0.5000000  -0.5000000  -0.5000000), wk =   0.0092593

     Dense  grid:   236601 G-vectors     FFT dimensions: (  80,  80,  80)

     Smooth grid:    83599 G-vectors     FFT dimensions: (  60,  60,  60)

     Dynamical RAM for                 wfc:       0.48 MB

     Dynamical RAM for     wfc (w. buffer):      10.03 MB

     Dynamical RAM for           str. fact:       1.35 MB

     Dynamical RAM for           local pot:       0.82 MB

     Dynamical RAM for          nlocal pot:       1.79 MB

     Dynamical RAM for                qrad:       9.13 MB

     Dynamical RAM for          rho,v,vnew:       2.82 MB

     Dynamical RAM for               rhoin:       0.94 MB

     Dynamical RAM for            rho*nmix:       7.22 MB

     Dynamical RAM for           G-vectors:       1.77 MB

     Dynamical RAM for          h,s,v(r/c):       0.11 MB

     Dynamical RAM for          <psi|beta>:       0.03 MB

     Dynamical RAM for                 psi:       0.96 MB

     Dynamical RAM for                hpsi:       0.96 MB

     Dynamical RAM for                spsi:       0.96 MB

     Dynamical RAM for      wfcinit/wfcrot:       1.21 MB

     Dynamical RAM for           addusdens:      85.29 MB

     Dynamical RAM for          addusforce:      87.33 MB

     Dynamical RAM for         addusstress:      90.71 MB

     Estimated static dynamical RAM per process >      32.91 MB

     Estimated max dynamical RAM per process >     130.83 MB

     Estimated total dynamical RAM >       1.02 GB

     Initial potential from superposition of free atoms

     starting charge      39.9936, renormalised to      40.0000
     Starting wfcs are   30 randomized atomic wfcs
     Checking if some PAW data can be deallocated... 
       PAW data deallocated on    6 nodes for type:  1
       PAW data deallocated on    4 nodes for type:  3

     total cpu time spent up to now is    10728.0 secs

     Self-consistent Calculation

     iteration #  1     ecut=    80.00 Ry     beta= 0.30
     Davidson diagonalization with overlap

---- Real-time Memory Report at c_bands before calling an iterative solver
           195 MiB given to the printing process from OS
             0 MiB allocation reported by mallinfo(arena+hblkhd)
         57960 MiB available memory on the node where the printing process lives
------------------
     c_bands:  3 eigenvalues not converged
     c_bands:  2 eigenvalues not converged
     c_bands:  3 eigenvalues not converged
     c_bands:  5 eigenvalues not converged
     c_bands:  3 eigenvalues not converged
     c_bands:  3 eigenvalues not converged
     c_bands:  4 eigenvalues not converged
     c_bands:  2 eigenvalues not converged
     c_bands:  4 eigenvalues not converged
     c_bands:  3 eigenvalues not converged
     c_bands:  4 eigenvalues not converged
     c_bands:  1 eigenvalues not converged
     c_bands:  2 eigenvalues not converged
     c_bands:  1 eigenvalues not converged
     c_bands:  1 eigenvalues not converged
     c_bands:  1 eigenvalues not converged
     ethr =  1.00E-06,  avg # of iterations = 19.7

     total cpu time spent up to now is    10949.3 secs

     total energy              =    -451.18500533 Ry
     estimated scf accuracy    <       3.05579877 Ry

     iteration #  2     ecut=    80.00 Ry     beta= 0.30
     Davidson diagonalization with overlap

---- Real-time Memory Report at c_bands before calling an iterative solver
           195 MiB given to the printing process from OS
             0 MiB allocation reported by mallinfo(arena+hblkhd)
         57135 MiB available memory on the node where the printing process lives
------------------
     ethr =  7.64E-03,  avg # of iterations =  3.8

     total cpu time spent up to now is    11002.6 secs

     total energy              =    -450.74182897 Ry
     estimated scf accuracy    <      24.30293319 Ry

     iteration #  3     ecut=    80.00 Ry     beta= 0.30
     Davidson diagonalization with overlap

---- Real-time Memory Report at c_bands before calling an iterative solver
           195 MiB given to the printing process from OS
             0 MiB allocation reported by mallinfo(arena+hblkhd)
         57319 MiB available memory on the node where the printing process lives
------------------
     ethr =  7.64E-03,  avg # of iterations =  1.6

     total cpu time spent up to now is    11033.1 secs

     total energy              =    -451.97342494 Ry
     estimated scf accuracy    <       1.07931450 Ry

     iteration #  4     ecut=    80.00 Ry     beta= 0.30
     Davidson diagonalization with overlap

---- Real-time Memory Report at c_bands before calling an iterative solver
           195 MiB given to the printing process from OS
             0 MiB allocation reported by mallinfo(arena+hblkhd)
         57590 MiB available memory on the node where the printing process lives
------------------
     ethr =  2.70E-03,  avg # of iterations =  1.1

     total cpu time spent up to now is    11059.9 secs

     total energy              =    -452.02817937 Ry
     estimated scf accuracy    <       0.06853151 Ry

     iteration #  5     ecut=    80.00 Ry     beta= 0.30
     Davidson diagonalization with overlap

---- Real-time Memory Report at c_bands before calling an iterative solver
           195 MiB given to the printing process from OS
             0 MiB allocation reported by mallinfo(arena+hblkhd)
         57325 MiB available memory on the node where the printing process lives
------------------
     ethr =  1.71E-04,  avg # of iterations =  7.2

     total cpu time spent up to now is    11144.4 secs

     total energy              =    -452.03956248 Ry
     estimated scf accuracy    <       0.09658677 Ry

     iteration #  6     ecut=    80.00 Ry     beta= 0.30
     Davidson diagonalization with overlap

---- Real-time Memory Report at c_bands before calling an iterative solver
           195 MiB given to the printing process from OS
             0 MiB allocation reported by mallinfo(arena+hblkhd)
         57188 MiB available memory on the node where the printing process lives
------------------
     ethr =  1.71E-04,  avg # of iterations =  3.3

     total cpu time spent up to now is    11191.1 secs

     total energy              =    -451.97569494 Ry
     estimated scf accuracy    <       1.50082379 Ry

     iteration #  7     ecut=    80.00 Ry     beta= 0.30
     Davidson diagonalization with overlap

---- Real-time Memory Report at c_bands before calling an iterative solver
           195 MiB given to the printing process from OS
             0 MiB allocation reported by mallinfo(arena+hblkhd)
         57285 MiB available memory on the node where the printing process lives
------------------
     ethr =  1.71E-04,  avg # of iterations =  3.0

     total cpu time spent up to now is    11235.4 secs

     total energy              =    -452.04319795 Ry
     estimated scf accuracy    <       0.36530436 Ry

     iteration #  8     ecut=    80.00 Ry     beta= 0.30
     Davidson diagonalization with overlap

---- Real-time Memory Report at c_bands before calling an iterative solver
           195 MiB given to the printing process from OS
             0 MiB allocation reported by mallinfo(arena+hblkhd)
         57264 MiB available memory on the node where the printing process lives
------------------
     ethr =  1.71E-04,  avg # of iterations =  1.3

     total cpu time spent up to now is    11262.5 secs

     total energy              =    -452.05665741 Ry
     estimated scf accuracy    <       0.01830419 Ry

     iteration #  9     ecut=    80.00 Ry     beta= 0.30
     Davidson diagonalization with overlap

---- Real-time Memory Report at c_bands before calling an iterative solver
           195 MiB given to the printing process from OS
             0 MiB allocation reported by mallinfo(arena+hblkhd)
         57428 MiB available memory on the node where the printing process lives
------------------
     ethr =  4.58E-05,  avg # of iterations =  3.1

     total cpu time spent up to now is    11308.2 secs

     total energy              =    -452.06541144 Ry
     estimated scf accuracy    <       0.02628335 Ry

     iteration # 10     ecut=    80.00 Ry     beta= 0.30
     Davidson diagonalization with overlap

---- Real-time Memory Report at c_bands before calling an iterative solver
           195 MiB given to the printing process from OS
             0 MiB allocation reported by mallinfo(arena+hblkhd)
         57463 MiB available memory on the node where the printing process lives
------------------
     ethr =  4.58E-05,  avg # of iterations =  1.1

     total cpu time spent up to now is    11335.5 secs

     total energy              =    -452.05832337 Ry
     estimated scf accuracy    <       0.14942166 Ry

     iteration # 11     ecut=    80.00 Ry     beta= 0.30
     Davidson diagonalization with overlap

---- Real-time Memory Report at c_bands before calling an iterative solver
           195 MiB given to the printing process from OS
             0 MiB allocation reported by mallinfo(arena+hblkhd)
         57343 MiB available memory on the node where the printing process lives
------------------
     ethr =  4.58E-05,  avg # of iterations =  1.1

     total cpu time spent up to now is    11363.0 secs

     total energy              =    -452.06254253 Ry
     estimated scf accuracy    <       0.00000890 Ry

     iteration # 12     ecut=    80.00 Ry     beta= 0.30
     Davidson diagonalization with overlap

---- Real-time Memory Report at c_bands before calling an iterative solver
           195 MiB given to the printing process from OS
             0 MiB allocation reported by mallinfo(arena+hblkhd)
         57242 MiB available memory on the node where the printing process lives
------------------
     c_bands:  4 eigenvalues not converged
     c_bands:  1 eigenvalues not converged
     c_bands:  1 eigenvalues not converged
     c_bands:  3 eigenvalues not converged
     c_bands:  1 eigenvalues not converged
     c_bands:  1 eigenvalues not converged
     c_bands:  1 eigenvalues not converged
     c_bands:  1 eigenvalues not converged
     c_bands:  1 eigenvalues not converged
     c_bands:  2 eigenvalues not converged
     c_bands:  3 eigenvalues not converged
     c_bands:  1 eigenvalues not converged
     c_bands:  3 eigenvalues not converged
     c_bands:  1 eigenvalues not converged
     c_bands:  4 eigenvalues not converged
     c_bands:  3 eigenvalues not converged
     ethr =  2.22E-08,  avg # of iterations = 20.2

     total cpu time spent up to now is    11577.7 secs

     total energy              =    -452.06370349 Ry
     estimated scf accuracy    <       0.00540599 Ry

     iteration # 13     ecut=    80.00 Ry     beta= 0.30
     Davidson diagonalization with overlap

---- Real-time Memory Report at c_bands before calling an iterative solver
           195 MiB given to the printing process from OS
             0 MiB allocation reported by mallinfo(arena+hblkhd)
         57443 MiB available memory on the node where the printing process lives
------------------
     c_bands:  1 eigenvalues not converged
     ethr =  2.22E-08,  avg # of iterations =  7.3

     total cpu time spent up to now is    11662.2 secs

     total energy              =    -452.06387884 Ry
     estimated scf accuracy    <       0.00342056 Ry

     iteration # 14     ecut=    80.00 Ry     beta= 0.30
     Davidson diagonalization with overlap

---- Real-time Memory Report at c_bands before calling an iterative solver
           195 MiB given to the printing process from OS
             0 MiB allocation reported by mallinfo(arena+hblkhd)
         57250 MiB available memory on the node where the printing process lives
------------------
     ethr =  2.22E-08,  avg # of iterations =  2.8

     total cpu time spent up to now is    11703.5 secs

     total energy              =    -452.06394286 Ry
     estimated scf accuracy    <       0.00486170 Ry

     iteration # 15     ecut=    80.00 Ry     beta= 0.30
     Davidson diagonalization with overlap

---- Real-time Memory Report at c_bands before calling an iterative solver
           195 MiB given to the printing process from OS
             0 MiB allocation reported by mallinfo(arena+hblkhd)
         57372 MiB available memory on the node where the printing process lives
------------------
     ethr =  2.22E-08,  avg # of iterations =  3.6

     total cpu time spent up to now is    11754.8 secs

     total energy              =    -452.06419428 Ry
     estimated scf accuracy    <       0.00787019 Ry

     iteration # 16     ecut=    80.00 Ry     beta= 0.30
     Davidson diagonalization with overlap

---- Real-time Memory Report at c_bands before calling an iterative solver
           195 MiB given to the printing process from OS
             0 MiB allocation reported by mallinfo(arena+hblkhd)
         57458 MiB available memory on the node where the printing process lives
------------------
     c_bands:  1 eigenvalues not converged
     c_bands:  1 eigenvalues not converged
     ethr =  2.22E-08,  avg # of iterations = 12.7

     total cpu time spent up to now is    11894.5 secs

     total energy              =    -452.06397944 Ry
     estimated scf accuracy    <       0.02334535 Ry

     iteration # 17     ecut=    80.00 Ry     beta= 0.30
     Davidson diagonalization with overlap

---- Real-time Memory Report at c_bands before calling an iterative solver
           195 MiB given to the printing process from OS
             0 MiB allocation reported by mallinfo(arena+hblkhd)
         57311 MiB available memory on the node where the printing process lives
------------------
     ethr =  2.22E-08,  avg # of iterations =  9.8

     total cpu time spent up to now is    12007.5 secs

     total energy              =    -452.06419790 Ry
     estimated scf accuracy    <       0.01176238 Ry

     iteration # 18     ecut=    80.00 Ry     beta= 0.30
     Davidson diagonalization with overlap

---- Real-time Memory Report at c_bands before calling an iterative solver
           195 MiB given to the printing process from OS
             0 MiB allocation reported by mallinfo(arena+hblkhd)
         57193 MiB available memory on the node where the printing process lives
------------------
     ethr =  2.22E-08,  avg # of iterations =  7.5

     total cpu time spent up to now is    12095.7 secs

     total energy              =    -452.06397668 Ry
     estimated scf accuracy    <       0.01973207 Ry

     iteration # 19     ecut=    80.00 Ry     beta= 0.30
     Davidson diagonalization with overlap

---- Real-time Memory Report at c_bands before calling an iterative solver
           195 MiB given to the printing process from OS
             0 MiB allocation reported by mallinfo(arena+hblkhd)
         57389 MiB available memory on the node where the printing process lives
------------------
     ethr =  2.22E-08,  avg # of iterations =  8.0

     total cpu time spent up to now is    12190.4 secs

     total energy              =    -452.06380525 Ry
     estimated scf accuracy    <       0.01029405 Ry

     iteration # 20     ecut=    80.00 Ry     beta= 0.30
     Davidson diagonalization with overlap

---- Real-time Memory Report at c_bands before calling an iterative solver
           195 MiB given to the printing process from OS
             0 MiB allocation reported by mallinfo(arena+hblkhd)
         57270 MiB available memory on the node where the printing process lives
------------------
     ethr =  2.22E-08,  avg # of iterations = 10.7

     total cpu time spent up to now is    12312.7 secs

     total energy              =    -452.06373442 Ry
     estimated scf accuracy    <       0.00311506 Ry

     iteration # 21     ecut=    80.00 Ry     beta= 0.30
     Davidson diagonalization with overlap

---- Real-time Memory Report at c_bands before calling an iterative solver
           195 MiB given to the printing process from OS
             0 MiB allocation reported by mallinfo(arena+hblkhd)
         57307 MiB available memory on the node where the printing process lives
------------------
     ethr =  2.22E-08,  avg # of iterations = 10.6

     total cpu time spent up to now is    12432.6 secs

     total energy              =    -452.06377259 Ry
     estimated scf accuracy    <       0.00012180 Ry

     iteration # 22     ecut=    80.00 Ry     beta= 0.30
     Davidson diagonalization with overlap

---- Real-time Memory Report at c_bands before calling an iterative solver
           195 MiB given to the printing process from OS
             0 MiB allocation reported by mallinfo(arena+hblkhd)
         57402 MiB available memory on the node where the printing process lives
------------------
     ethr =  2.22E-08,  avg # of iterations =  5.2

     total cpu time spent up to now is    12499.4 secs

     total energy              =    -452.06377872 Ry
     estimated scf accuracy    <       0.00000309 Ry

     iteration # 23     ecut=    80.00 Ry     beta= 0.30
     Davidson diagonalization with overlap

---- Real-time Memory Report at c_bands before calling an iterative solver
           195 MiB given to the printing process from OS
             0 MiB allocation reported by mallinfo(arena+hblkhd)
         57269 MiB available memory on the node where the printing process lives
------------------
     ethr =  7.73E-09,  avg # of iterations =  6.8

     total cpu time spent up to now is    12579.1 secs

     total energy              =    -452.06377518 Ry
     estimated scf accuracy    <       0.00002124 Ry

     iteration # 24     ecut=    80.00 Ry     beta= 0.30
     Davidson diagonalization with overlap

---- Real-time Memory Report at c_bands before calling an iterative solver
           195 MiB given to the printing process from OS
             0 MiB allocation reported by mallinfo(arena+hblkhd)
         57179 MiB available memory on the node where the printing process lives
------------------
     ethr =  7.73E-09,  avg # of iterations =  3.0

     total cpu time spent up to now is    12624.7 secs

     total energy              =    -452.06377664 Ry
     estimated scf accuracy    <       0.00001270 Ry

     iteration # 25     ecut=    80.00 Ry     beta= 0.30
     Davidson diagonalization with overlap

---- Real-time Memory Report at c_bands before calling an iterative solver
           195 MiB given to the printing process from OS
             0 MiB allocation reported by mallinfo(arena+hblkhd)
         57427 MiB available memory on the node where the printing process lives
------------------
     ethr =  7.73E-09,  avg # of iterations =  1.2

     total cpu time spent up to now is    12652.0 secs

     total energy              =    -452.06377707 Ry
     estimated scf accuracy    <       0.00000020 Ry

     iteration # 26     ecut=    80.00 Ry     beta= 0.30
     Davidson diagonalization with overlap

---- Real-time Memory Report at c_bands before calling an iterative solver
           195 MiB given to the printing process from OS
             0 MiB allocation reported by mallinfo(arena+hblkhd)
         57327 MiB available memory on the node where the printing process lives
------------------
     ethr =  4.94E-10,  avg # of iterations =  7.7

     total cpu time spent up to now is    12743.8 secs

     total energy              =    -452.06377717 Ry
     estimated scf accuracy    <       0.00000011 Ry

     iteration # 27     ecut=    80.00 Ry     beta= 0.30
     Davidson diagonalization with overlap

---- Real-time Memory Report at c_bands before calling an iterative solver
           195 MiB given to the printing process from OS
             0 MiB allocation reported by mallinfo(arena+hblkhd)
         57327 MiB available memory on the node where the printing process lives
------------------
     ethr =  2.85E-10,  avg # of iterations =  1.3

     total cpu time spent up to now is    12772.4 secs

     total energy              =    -452.06377714 Ry
     estimated scf accuracy    <       0.00000010 Ry

     iteration # 28     ecut=    80.00 Ry     beta= 0.30
     Davidson diagonalization with overlap

---- Real-time Memory Report at c_bands before calling an iterative solver
           195 MiB given to the printing process from OS
             0 MiB allocation reported by mallinfo(arena+hblkhd)
         57365 MiB available memory on the node where the printing process lives
------------------
     ethr =  2.51E-10,  avg # of iterations =  3.7

     total cpu time spent up to now is    12824.8 secs

     total energy              =    -452.06377715 Ry
     estimated scf accuracy    <       0.00000019 Ry

     iteration # 29     ecut=    80.00 Ry     beta= 0.30
     Davidson diagonalization with overlap

---- Real-time Memory Report at c_bands before calling an iterative solver
           195 MiB given to the printing process from OS
             0 MiB allocation reported by mallinfo(arena+hblkhd)
         57296 MiB available memory on the node where the printing process lives
------------------
     ethr =  2.51E-10,  avg # of iterations =  1.4

     total cpu time spent up to now is    12853.8 secs

     total energy              =    -452.06377716 Ry
     estimated scf accuracy    <          9.3E-09 Ry

     iteration # 30     ecut=    80.00 Ry     beta= 0.30
     Davidson diagonalization with overlap

---- Real-time Memory Report at c_bands before calling an iterative solver
           195 MiB given to the printing process from OS
             0 MiB allocation reported by mallinfo(arena+hblkhd)
         57322 MiB available memory on the node where the printing process lives
------------------
     c_bands:  1 eigenvalues not converged
     ethr =  2.32E-11,  avg # of iterations =  7.7

     total cpu time spent up to now is    12943.4 secs

     total energy              =    -452.06379515 Ry
     estimated scf accuracy    <       0.00000060 Ry

     iteration # 31     ecut=    80.00 Ry     beta= 0.30
     Davidson diagonalization with overlap

---- Real-time Memory Report at c_bands before calling an iterative solver
           195 MiB given to the printing process from OS
             0 MiB allocation reported by mallinfo(arena+hblkhd)
         57276 MiB available memory on the node where the printing process lives
------------------
     ethr =  2.32E-11,  avg # of iterations =  2.5

     total cpu time spent up to now is    12983.1 secs

     total energy              =    -452.06379519 Ry
     estimated scf accuracy    <       0.00000057 Ry

     iteration # 32     ecut=    80.00 Ry     beta= 0.30
     Davidson diagonalization with overlap

---- Real-time Memory Report at c_bands before calling an iterative solver
           195 MiB given to the printing process from OS
             0 MiB allocation reported by mallinfo(arena+hblkhd)
         57575 MiB available memory on the node where the printing process lives
------------------
     ethr =  2.32E-11,  avg # of iterations =  1.0

     total cpu time spent up to now is    13009.4 secs

     total energy              =    -452.06379519 Ry
     estimated scf accuracy    <       0.00000051 Ry

     iteration # 33     ecut=    80.00 Ry     beta= 0.30
     Davidson diagonalization with overlap

---- Real-time Memory Report at c_bands before calling an iterative solver
           195 MiB given to the printing process from OS
             0 MiB allocation reported by mallinfo(arena+hblkhd)
         57529 MiB available memory on the node where the printing process lives
------------------
     ethr =  2.32E-11,  avg # of iterations =  1.1

     total cpu time spent up to now is    13035.1 secs

     total energy              =    -452.06379520 Ry
     estimated scf accuracy    <       0.00000053 Ry

     iteration # 34     ecut=    80.00 Ry     beta= 0.30
     Davidson diagonalization with overlap

---- Real-time Memory Report at c_bands before calling an iterative solver
           195 MiB given to the printing process from OS
             0 MiB allocation reported by mallinfo(arena+hblkhd)
         57629 MiB available memory on the node where the printing process lives
------------------
     ethr =  2.32E-11,  avg # of iterations =  1.0

     total cpu time spent up to now is    13060.4 secs

     total energy              =    -452.06379521 Ry
     estimated scf accuracy    <       0.00000046 Ry

     iteration # 35     ecut=    80.00 Ry     beta= 0.30
     Davidson diagonalization with overlap

---- Real-time Memory Report at c_bands before calling an iterative solver
           195 MiB given to the printing process from OS
             0 MiB allocation reported by mallinfo(arena+hblkhd)
         57449 MiB available memory on the node where the printing process lives
------------------
     ethr =  2.32E-11,  avg # of iterations =  1.3

     total cpu time spent up to now is    13087.7 secs

     total energy              =    -452.06379523 Ry
     estimated scf accuracy    <       0.00000034 Ry

     iteration # 36     ecut=    80.00 Ry     beta= 0.30
     Davidson diagonalization with overlap

---- Real-time Memory Report at c_bands before calling an iterative solver
           195 MiB given to the printing process from OS
             0 MiB allocation reported by mallinfo(arena+hblkhd)
         57665 MiB available memory on the node where the printing process lives
------------------
     ethr =  2.32E-11,  avg # of iterations =  3.0

     total cpu time spent up to now is    13132.7 secs

     total energy              =    -452.06379525 Ry
     estimated scf accuracy    <       0.00000013 Ry

     iteration # 37     ecut=    80.00 Ry     beta= 0.30
     Davidson diagonalization with overlap

---- Real-time Memory Report at c_bands before calling an iterative solver
           195 MiB given to the printing process from OS
             0 MiB allocation reported by mallinfo(arena+hblkhd)
         57545 MiB available memory on the node where the printing process lives
------------------
     ethr =  2.32E-11,  avg # of iterations =  5.0

     total cpu time spent up to now is    13197.1 secs

     total energy              =    -452.06379521 Ry
     estimated scf accuracy    <          5.8E-09 Ry

     iteration # 38     ecut=    80.00 Ry     beta= 0.30
     Davidson diagonalization with overlap

---- Real-time Memory Report at c_bands before calling an iterative solver
           195 MiB given to the printing process from OS
             0 MiB allocation reported by mallinfo(arena+hblkhd)
         57711 MiB available memory on the node where the printing process lives
------------------
     ethr =  1.44E-11,  avg # of iterations =  5.8

     total cpu time spent up to now is    13273.0 secs

     total energy              =    -452.06379524 Ry
     estimated scf accuracy    <       0.00000028 Ry

     iteration # 39     ecut=    80.00 Ry     beta= 0.30
     Davidson diagonalization with overlap

---- Real-time Memory Report at c_bands before calling an iterative solver
           195 MiB given to the printing process from OS
             0 MiB allocation reported by mallinfo(arena+hblkhd)
         57571 MiB available memory on the node where the printing process lives
------------------
     ethr =  1.44E-11,  avg # of iterations =  6.5

     total cpu time spent up to now is    13355.0 secs

     total energy              =    -452.06379526 Ry
     estimated scf accuracy    <          3.2E-09 Ry

     iteration # 40     ecut=    80.00 Ry     beta= 0.30
     Davidson diagonalization with overlap

---- Real-time Memory Report at c_bands before calling an iterative solver
           195 MiB given to the printing process from OS
             0 MiB allocation reported by mallinfo(arena+hblkhd)
         57732 MiB available memory on the node where the printing process lives
------------------
     ethr =  8.11E-12,  avg # of iterations =  1.6

     total cpu time spent up to now is    13385.5 secs

     total energy              =    -452.06379526 Ry
     estimated scf accuracy    <          4.4E-10 Ry

     iteration # 41     ecut=    80.00 Ry     beta= 0.30
     Davidson diagonalization with overlap

---- Real-time Memory Report at c_bands before calling an iterative solver
           195 MiB given to the printing process from OS
             0 MiB allocation reported by mallinfo(arena+hblkhd)
         57743 MiB available memory on the node where the printing process lives
------------------
     ethr =  1.10E-12,  avg # of iterations =  4.0

     total cpu time spent up to now is    13439.0 secs

     total energy              =    -452.06379526 Ry
     estimated scf accuracy    <          2.9E-12 Ry

     iteration # 42     ecut=    80.00 Ry     beta= 0.30
     Davidson diagonalization with overlap

---- Real-time Memory Report at c_bands before calling an iterative solver
           195 MiB given to the printing process from OS
             0 MiB allocation reported by mallinfo(arena+hblkhd)
         57643 MiB available memory on the node where the printing process lives
------------------
     ethr =  1.00E-13,  avg # of iterations =  8.3

     total cpu time spent up to now is    13536.5 secs

     total energy              =    -452.06379525 Ry
     estimated scf accuracy    <          3.5E-12 Ry

     iteration # 43     ecut=    80.00 Ry     beta= 0.30
     Davidson diagonalization with overlap

---- Real-time Memory Report at c_bands before calling an iterative solver
           195 MiB given to the printing process from OS
             0 MiB allocation reported by mallinfo(arena+hblkhd)
         57466 MiB available memory on the node where the printing process lives
------------------
     ethr =  1.00E-13,  avg # of iterations =  1.1

     total cpu time spent up to now is    13562.9 secs

     End of self-consistent calculation

          k = 0.0000 0.0000 0.0000 ( 10395 PWs)   bands (ev):

   -53.7356 -32.7559 -29.9433 -29.9433 -29.9433 -14.0266 -14.0266 -14.0266
    -7.0686  -6.0522  -6.0522   2.4819   2.4819   2.4819   4.1422   4.1422
     4.1422   4.7228   4.7228   4.8178   4.8178   4.8178   5.1196   5.1196

     occupation numbers 
     1.0000   1.0000   1.0000   1.0000   1.0000   1.0000   1.0000   1.0000
     1.0000   1.0000   1.0000   1.0000   1.0000   1.0000   1.0000   1.0000
     1.0000   0.9890   0.9890   0.5823   0.5823   0.5823  -0.0053  -0.0053

          k = 0.0000 0.0000 0.1782 ( 10475 PWs)   bands (ev):

   -53.7356 -32.7557 -29.9434 -29.9433 -29.9433 -14.0476 -14.0262 -14.0262
    -6.9851  -6.0461  -6.0377   2.3619   2.5321   2.5321   3.8122   3.8924
     3.8924   4.4415   4.7679   4.8257   4.9695   4.9696   5.0197   5.0846

     occupation numbers 
     1.0000   1.0000   1.0000   1.0000   1.0000   1.0000   1.0000   1.0000
     1.0000   1.0000   1.0000   1.0000   1.0000   1.0000   1.0000   1.0000
     1.0000   1.0002   0.8504   0.5336  -0.0268  -0.0269  -0.0323  -0.0121

          k = 0.0000 0.0000 0.3564 ( 10459 PWs)   bands (ev):

   -53.7356 -32.7553 -29.9435 -29.9433 -29.9433 -14.0888 -14.0254 -14.0254
    -6.8139  -6.0338  -6.0088   2.2694   2.6772   2.6772   3.4272   3.4321
     3.4908   3.4908   4.8081   4.8081   4.8417   4.8583   5.3307   5.3871

     occupation numbers 
     1.0000   1.0000   1.0000   1.0000   1.0000   1.0000   1.0000   1.0000
     1.0000   1.0000   1.0000   1.0000   1.0000   1.0000   1.0000   1.0000
     1.0000   1.0000   0.6411   0.6411   0.4346   0.3350  -0.0000  -0.0000

          k = 0.0000 0.0000-0.5346 ( 10436 PWs)   bands (ev):

   -53.7356 -32.7551 -29.9436 -29.9433 -29.9433 -14.1090 -14.0250 -14.0250
    -6.7258  -6.0275  -5.9946   2.4220   2.8028   2.8146   2.8146   3.2512
     3.2512   3.2873   4.7331   4.7331   4.8497   4.9054   5.4398   5.5272

     occupation numbers 
     1.0000   1.0000   1.0000   1.0000   1.0000   1.0000   1.0000   1.0000
     1.0000   1.0000   1.0000   1.0000   1.0000   1.0000   1.0000   1.0000
     1.0000   1.0000   0.9670   0.9670   0.3855   0.1056  -0.0000  -0.0000

          k = 0.0000 0.1782 0.1782 ( 10465 PWs)   bands (ev):

   -53.7356 -32.7555 -29.9434 -29.9434 -29.9433 -14.0475 -14.0469 -14.0258
    -6.9001  -6.0355  -6.0270   2.1654   2.5803   2.6652   3.3562   3.7237
     4.0808   4.1953   4.7669   4.8293   4.8671   4.9560   4.9566   5.0997

     occupation numbers 
     1.0000   1.0000   1.0000   1.0000   1.0000   1.0000   1.0000   1.0000
     1.0000   1.0000   1.0000   1.0000   1.0000   1.0000   1.0000   1.0000
     1.0000   1.0000   0.8546   0.5112   0.2847  -0.0143  -0.0150  -0.0087

          k = 0.0000 0.1782 0.3564 ( 10416 PWs)   bands (ev):

   -53.7356 -32.7551 -29.9435 -29.9433 -29.9433 -14.0883 -14.0463 -14.0250
    -6.7261  -6.0207  -5.9983   2.0064   2.7199   2.8099   2.8804   3.4046
     3.4434   4.0627   4.5210   4.6667   4.8978   4.9842   5.1792   5.3507

     occupation numbers 
     1.0000   1.0000   1.0000   1.0000   1.0000   1.0000   1.0000   1.0000
     1.0000   1.0000   1.0000   1.0000   1.0000   1.0000   1.0000   1.0000
     1.0000   1.0000   1.0029   1.0354   0.1353  -0.0337  -0.0009  -0.0000

          k = 0.0000 0.1782-0.5346 ( 10432 PWs)   bands (ev):

   -53.7356 -32.7549 -29.9436 -29.9433 -29.9433 -14.1084 -14.0458 -14.0246
    -6.6371  -6.0136  -5.9831   2.0367   2.5723   2.8584   2.9819   3.0158
     3.1906   4.0194   4.4168   4.5755   4.9504   4.9904   5.3169   5.3936

     occupation numbers 
     1.0000   1.0000   1.0000   1.0000   1.0000   1.0000   1.0000   1.0000
     1.0000   1.0000   1.0000   1.0000   1.0000   1.0000   1.0000   1.0000
     1.0000   1.0000   1.0001   1.0116  -0.0071  -0.0350  -0.0000  -0.0000

          k = 0.0000 0.3564 0.3564 ( 10453 PWs)   bands (ev):

   -53.7356 -32.7547 -29.9435 -29.9435 -29.9433 -14.0875 -14.0869 -14.0242
    -6.5497  -5.9915  -5.9747   1.6551   2.4820   2.8399   2.9774   3.2305
     3.3737   3.8927   4.3849   4.4745   4.9154   5.2119   5.2318   5.3239

     occupation numbers 
     1.0000   1.0000   1.0000   1.0000   1.0000   1.0000   1.0000   1.0000
     1.0000   1.0000   1.0000   1.0000   1.0000   1.0000   1.0000   1.0000
     1.0000   1.0000   1.0000   1.0007   0.0714  -0.0003  -0.0001  -0.0000

          k = 0.0000 0.3564-0.5346 ( 10442 PWs)   bands (ev):

   -53.7356 -32.7546 -29.9436 -29.9435 -29.9433 -14.1073 -14.0867 -14.0238
    -6.4625  -5.9756  -5.9596   1.5240   2.3133   2.9684   3.0876   3.1204
     3.1497   3.7959   4.2485   4.5100   4.9964   5.0604   5.2734   5.4359

     occupation numbers 
     1.0000   1.0000   1.0000   1.0000   1.0000   1.0000   1.0000   1.0000
     1.0000   1.0000   1.0000   1.0000   1.0000   1.0000   1.0000   1.0000
     1.0000   1.0000   1.0000   1.0021  -0.0354  -0.0192  -0.0000  -0.0000

          k = 0.0000-0.5346-0.5346 ( 10488 PWs)   bands (ev):

   -53.7356 -32.7544 -29.9436 -29.9436 -29.9433 -14.1067 -14.1067 -14.0234
    -6.3800  -5.9476  -5.9476   1.3293   2.1858   3.0426   3.0426   3.2488
     3.2488   3.4424   4.0739   4.6144   4.9367   4.9711   5.4214   5.4214

     occupation numbers 
     1.0000   1.0000   1.0000   1.0000   1.0000   1.0000   1.0000   1.0000
     1.0000   1.0000   1.0000   1.0000   1.0000   1.0000   1.0000   1.0000
     1.0000   1.0000   1.0000   1.0234   0.0164  -0.0279  -0.0000  -0.0000

          k = 0.1782 0.1782 0.1782 ( 10449 PWs)   bands (ev):

   -53.7356 -32.7553 -29.9434 -29.9434 -29.9434 -14.0473 -14.0464 -14.0464
    -6.8128  -6.0207  -6.0207   2.0240   2.6484   2.6484   3.3567   3.3567
     3.8659   4.3700   4.6982   4.6982   4.8284   4.8284   4.9268   5.3302

     occupation numbers 
     1.0000   1.0000   1.0000   1.0000   1.0000   1.0000   1.0000   1.0000
     1.0000   1.0000   1.0000   1.0000   1.0000   1.0000   1.0000   1.0000
     1.0000   1.0000   1.0226   1.0226   0.5169   0.5169   0.0389  -0.0000

          k = 0.1782 0.1782 0.3564 ( 10435 PWs)   bands (ev):

   -53.7356 -32.7549 -29.9435 -29.9433 -29.9433 -14.0877 -14.0461 -14.0456
    -6.6344  -6.0080  -5.9894   1.8961   2.5394   2.6367   3.0369   3.1226
     3.6275   4.2638   4.3490   4.5801   4.8708   5.0309   5.1134   5.3124

     occupation numbers 
     1.0000   1.0000   1.0000   1.0000   1.0000   1.0000   1.0000   1.0000
     1.0000   1.0000   1.0000   1.0000   1.0000   1.0000   1.0000   1.0000
     1.0000   1.0000   1.0000   1.0128   0.2643  -0.0291  -0.0062  -0.0000

          k = 0.1782 0.1782-0.5346 ( 10460 PWs)   bands (ev):

   -53.7356 -32.7547 -29.9436 -29.9433 -29.9433 -14.1079 -14.0456 -14.0451
    -6.5434  -6.0016  -5.9726   1.9581   2.3785   2.4507   2.8623   3.1014
     3.7791   4.0749   4.1541   4.5294   4.9015   5.1828   5.2207   5.3427

     occupation numbers 
     1.0000   1.0000   1.0000   1.0000   1.0000   1.0000   1.0000   1.0000
     1.0000   1.0000   1.0000   1.0000   1.0000   1.0000   1.0000   1.0000
     1.0000   1.0000   1.0000   1.0037   0.1207  -0.0008  -0.0002  -0.0000

          k = 0.1782 0.3564 0.3564 ( 10426 PWs)   bands (ev):

   -53.7356 -32.7546 -29.9435 -29.9435 -29.9433 -14.0870 -14.0864 -14.0450
    -6.4494  -5.9806  -5.9680   1.6761   2.2578   2.5206   2.7340   3.4023
     3.4279   4.1712   4.3388   4.5520   4.9177   5.0504   5.1279   5.4098

     occupation numbers 
     1.0000   1.0000   1.0000   1.0000   1.0000   1.0000   1.0000   1.0000
     1.0000   1.0000   1.0000   1.0000   1.0000   1.0000   1.0000   1.0000
     1.0000   1.0000   1.0000   1.0067   0.0645  -0.0225  -0.0043  -0.0000

          k = 0.1782 0.3564-0.5346 ( 10444 PWs)   bands (ev):

   -53.7356 -32.7544 -29.9436 -29.9435 -29.9433 -14.1068 -14.0862 -14.0445
    -6.3579  -5.9677  -5.9514   1.5902   2.1531   2.3672   2.6068   3.3719
     3.7116   3.9044   4.2700   4.5738   4.9649   5.0450   5.2664   5.4210

     occupation numbers 
     1.0000   1.0000   1.0000   1.0000   1.0000   1.0000   1.0000   1.0000
     1.0000   1.0000   1.0000   1.0000   1.0000   1.0000   1.0000   1.0000
     1.0000   1.0000   1.0000   1.0112  -0.0233  -0.0244  -0.0000  -0.0000

          k = 0.1782-0.5346-0.5346 ( 10416 PWs)   bands (ev):

   -53.7356 -32.7542 -29.9436 -29.9436 -29.9433 -14.1062 -14.1062 -14.0441
    -6.2706  -5.9406  -5.9406   1.4123   2.0799   2.3984   2.3984   3.4482
     3.8454   3.9463   3.9463   4.6686   4.9438   4.9649   5.4025   5.4025

     occupation numbers 
     1.0000   1.0000   1.0000   1.0000   1.0000   1.0000   1.0000   1.0000
     1.0000   1.0000   1.0000   1.0000   1.0000   1.0000   1.0000   1.0000
     1.0000   1.0000   1.0000   1.0353   0.0031  -0.0233  -0.0000  -0.0000

          k = 0.3564 0.3564 0.3564 ( 10441 PWs)   bands (ev):

   -53.7356 -32.7542 -29.9435 -29.9435 -29.9435 -14.0862 -14.0855 -14.0855
    -6.2443  -5.9544  -5.9544   1.6615   2.0671   2.0671   2.3054   3.4781
     3.4781   4.3979   4.3979   4.8939   4.9185   4.9185   4.9532   5.4901

     occupation numbers 
     1.0000   1.0000   1.0000   1.0000   1.0000   1.0000   1.0000   1.0000
     1.0000   1.0000   1.0000   1.0000   1.0000   1.0000   1.0000   1.0000
     1.0000   1.0000   1.0000   0.1521   0.0621   0.0621  -0.0109  -0.0000

          k = 0.3564 0.3564-0.5346 ( 10402 PWs)   bands (ev):

   -53.7356 -32.7540 -29.9435 -29.9435 -29.9435 -14.1057 -14.0855 -14.0850
    -6.1431  -5.9475  -5.9349   1.6885   1.8698   1.8994   2.1596   3.5046
     3.5190   4.4150   4.4696   4.7879   4.9229   4.9814   5.2028   5.3623

     occupation numbers 
     1.0000   1.0000   1.0000   1.0000   1.0000   1.0000   1.0000   1.0000
     1.0000   1.0000   1.0000   1.0000   1.0000   1.0000   1.0000   1.0000
     1.0000   1.0001   1.0006   0.7543   0.0494  -0.0329  -0.0004  -0.0000

          k = 0.3564-0.5346-0.5346 ( 10368 PWs)   bands (ev):

   -53.7356 -32.7538 -29.9435 -29.9435 -29.9435 -14.1052 -14.1052 -14.0847
    -6.0408  -5.9266  -5.9266   1.5995   1.7835   1.8887   1.8887   3.4599
     3.5517   4.5846   4.5846   4.8143   4.9223   4.9512   5.3202   5.3202

     occupation numbers 
     1.0000   1.0000   1.0000   1.0000   1.0000   1.0000   1.0000   1.0000
     1.0000   1.0000   1.0000   1.0000   1.0000   1.0000   1.0000   1.0000
     1.0000   1.0140   1.0140   0.6040   0.0510  -0.0082  -0.0000  -0.0000

          k =-0.5346-0.5346-0.5346 ( 10432 PWs)   bands (ev):

   -53.7356 -32.7536 -29.9435 -29.9435 -29.9435 -14.1047 -14.1047 -14.1047
    -5.9194  -5.9194  -5.9194   1.5978   1.7072   1.7072   1.7072   3.4657
     3.4657   4.8937   4.8937   4.8937   4.9453   4.9453   5.2035   5.2035

     occupation numbers 
     1.0000   1.0000   1.0000   1.0000   1.0000   1.0000   1.0000   1.0000
     1.0000   1.0000   1.0000   1.0000   1.0000   1.0000   1.0000   1.0000
     1.0000   0.1529   0.1529   0.1529   0.0006   0.0006  -0.0004  -0.0004

     the Fermi energy is     4.8311 ev

!    total energy              =    -452.06379525 Ry
     estimated scf accuracy    <          7.0E-13 Ry
     smearing contrib. (-TS)   =      -0.00005625 Ry
     internal energy E=F+TS    =    -452.06373900 Ry

     The total energy is F=E-TS. E is the sum of the following terms:
     one-electron contribution =    -103.55520407 Ry
     hartree contribution      =      63.92738761 Ry
     xc contribution           =     -45.70478768 Ry
     ewald contribution        =    -168.33553199 Ry
     one-center paw contrib.   =    -198.39560287 Ry
      -> PAW hartree energy AE =      48.22919744 Ry
      -> PAW hartree energy PS =     -48.00593827 Ry
      -> PAW xc energy AE      =     -71.58791476 Ry
      -> PAW xc energy PS      =      11.37561048 Ry
      -> total E_H with PAW    =      64.15064678 Ry
      -> total E_XC with PAW   =    -105.91709197 Ry

     convergence has been achieved in  43 iterations

     Forces acting on atoms (cartesian axes, Ry/au):

     atom    1 type  1   force =     0.00000000    0.00000000    0.00000000
     atom    2 type  2   force =     0.00000000    0.00000000    0.00000000
     atom    3 type  3   force =     0.00000000    0.00000000    0.00000000
     atom    4 type  3   force =     0.00000000    0.00000000    0.00000000
     atom    5 type  3   force =     0.00000000    0.00000000    0.00000000
     The non-local contrib.  to forces
     atom    1 type  1   force =     0.00000000    0.00000000    0.00000000
     atom    2 type  2   force =     0.00000000    0.00000000    0.00000000
     atom    3 type  3   force =     0.00000000    0.00000000    0.00000000
     atom    4 type  3   force =     0.00000000    0.00000000    0.00000000
     atom    5 type  3   force =     0.00000000    0.00000000    0.00000000
     The ionic contribution  to forces
     atom    1 type  1   force =    -0.00000000   -0.00000000   -0.00000000
     atom    2 type  2   force =     0.00000000    0.00000000    0.00000000
     atom    3 type  3   force =    -0.00000000   -0.00000000   -0.00000000
     atom    4 type  3   force =    -0.00000000   -0.00000000   -0.00000000
     atom    5 type  3   force =    -0.00000000   -0.00000000   -0.00000000
     The local contribution  to forces
     atom    1 type  1   force =    -0.00000000    0.00000000   -0.00000000
     atom    2 type  2   force =     0.00000000    0.00000000    0.00000000
     atom    3 type  3   force =     0.00000000   -0.00000000    0.00000000
     atom    4 type  3   force =    -0.00000000    0.00000000   -0.00000000
     atom    5 type  3   force =    -0.00000000   -0.00000000    0.00000000
     The core correction contribution to forces
     atom    1 type  1   force =    -0.00000000    0.00000000   -0.00000000
     atom    2 type  2   force =    -0.00000000   -0.00000000   -0.00000000
     atom    3 type  3   force =     0.00000000    0.00000000   -0.00000000
     atom    4 type  3   force =    -0.00000000    0.00000000   -0.00000000
     atom    5 type  3   force =    -0.00000000    0.00000000    0.00000000
     The Hubbard contrib.    to forces
     atom    1 type  1   force =     0.00000000    0.00000000    0.00000000
     atom    2 type  2   force =     0.00000000    0.00000000    0.00000000
     atom    3 type  3   force =     0.00000000    0.00000000    0.00000000
     atom    4 type  3   force =     0.00000000    0.00000000    0.00000000
     atom    5 type  3   force =     0.00000000    0.00000000    0.00000000
     The SCF correction term to forces
     atom    1 type  1   force =    -0.00000000   -0.00000000   -0.00000000
     atom    2 type  2   force =    -0.00000000    0.00000000   -0.00000000
     atom    3 type  3   force =     0.00000000   -0.00000000   -0.00000000
     atom    4 type  3   force =     0.00000000    0.00000000    0.00000000
     atom    5 type  3   force =    -0.00000000   -0.00000000    0.00000000

     Total force =     0.000000     Total SCF correction =     0.000000


     Computing stress (Cartesian axis) and pressure

          total   stress  (Ry/bohr**3)                   (kbar)     P=       -0.30
  -0.00000201   0.00000000   0.00000000           -0.30        0.00        0.00
   0.00000000  -0.00000201   0.00000000            0.00       -0.30        0.00
   0.00000000   0.00000000  -0.00000201            0.00        0.00       -0.30

     kinetic stress (kbar)  10783.13      0.00      0.00
                                0.00  10783.13      0.00
                                0.00      0.00  10783.13

     local   stress (kbar)  -4455.09     -0.00     -0.00
                               -0.00  -4455.09     -0.00
                               -0.00     -0.00  -4455.09

     nonloc. stress (kbar)   1938.04      0.00      0.00
                                0.00   1938.04      0.00
                                0.00      0.00   1938.04

     hartree stress (kbar)   3628.74     -0.00     -0.00
                               -0.00   3628.74     -0.00
                               -0.00     -0.00   3628.74

     exc-cor stress (kbar)   -982.19      0.00     -0.00
                                0.00   -982.19      0.00
                               -0.00      0.00   -982.19

     corecor stress (kbar)  -1357.62     -0.00     -0.00
                               -0.00  -1357.62      0.00
                               -0.00      0.00  -1357.62

     ewald   stress (kbar)  -9555.30      0.00     -0.00
                                0.00  -9555.30     -0.00
                               -0.00     -0.00  -9555.30

     hubbard stress (kbar)      0.00      0.00      0.00
                                0.00      0.00      0.00
                                0.00      0.00      0.00

     DFT-D   stress (kbar)      0.00      0.00      0.00
                                0.00      0.00      0.00
                                0.00      0.00      0.00

     XDM     stress (kbar)      0.00      0.00      0.00
                                0.00      0.00      0.00
                                0.00      0.00      0.00

     dft-nl  stress (kbar)      0.00      0.00      0.00
                                0.00      0.00      0.00
                                0.00      0.00      0.00

     TS-vdW  stress (kbar)      0.00      0.00      0.00
                                0.00      0.00      0.00
                                0.00      0.00      0.00

     MDB     stress (kbar)      0.00      0.00      0.00
                                0.00      0.00      0.00
                                0.00      0.00      0.00

     3D-RISM stress (kbar)      0.00      0.00      0.00
                                0.00      0.00      0.00
                                0.00      0.00      0.00


     Writing all to output data dir ./tmp/catis3.save/ :
     XML data file, charge density, pseudopotentials, collected wavefunctions

     init_run     :     27.32s CPU     28.45s WALL (       2 calls)
     electrons    :  13460.77s CPU  13309.94s WALL (       9 calls)
     update_pot   :      2.21s CPU      2.29s WALL (       7 calls)
     forces       :     93.97s CPU     91.20s WALL (       9 calls)
     stress       :    144.05s CPU    127.69s WALL (       9 calls)

     Called by init_run:
     wfcinit      :     22.64s CPU     23.30s WALL (       2 calls)
     wfcinit:atom :      0.12s CPU      0.15s WALL (      40 calls)
     wfcinit:wfcr :     21.98s CPU     22.62s WALL (      40 calls)
     potinit      :      0.77s CPU      0.80s WALL (       2 calls)
     hinit0       :      0.93s CPU      0.95s WALL (       2 calls)

     Called by electrons:
     c_bands      :  12001.57s CPU  11879.14s WALL (     242 calls)
     sum_band     :   1087.17s CPU   1019.22s WALL (     242 calls)
     v_of_rho     :     15.18s CPU     15.73s WALL (     249 calls)
     v_h          :      1.03s CPU      1.09s WALL (     249 calls)
     v_xc         :     16.18s CPU     16.03s WALL (     267 calls)
     newd         :    322.97s CPU    362.83s WALL (     249 calls)
     PAW_pot      :     43.21s CPU     43.28s WALL (     256 calls)
     mix_rho      :      3.11s CPU      3.23s WALL (     242 calls)

     Called by c_bands:
     init_us_2    :     37.75s CPU     32.37s WALL (   10220 calls)
     cegterg      :  11351.35s CPU  11255.25s WALL (    4842 calls)

     Called by sum_band:
     sum_band:wei :      0.80s CPU      0.81s WALL (     242 calls)
     sum_band:loo :    719.29s CPU    653.17s WALL (     242 calls)
     sum_band:buf :      1.69s CPU      1.57s WALL (    4840 calls)
     sum_band:ini :     18.47s CPU     15.33s WALL (    4840 calls)
     sum_band:cal :    394.53s CPU    364.38s WALL (    4980 calls)
     sum_band:bec :      0.34s CPU      0.40s WALL (    4980 calls)
     addusdens    :    323.30s CPU    318.97s WALL (     242 calls)
                                        0.00s GPU  (     242 calls)
     addusd:skk   :      0.42s CPU      1.00s WALL (     726 calls)
                                        0.00s GPU  (     726 calls)

     Called by *egterg:
     cdiaghg      :    678.69s CPU    628.04s WALL (   23658 calls)
     cegterg:over :   3551.94s CPU   3438.26s WALL (   18997 calls)
     cegterg:upda :    214.66s CPU    353.69s WALL (   18997 calls)
     cegterg:last :    177.25s CPU    264.65s WALL (    9517 calls)
     h_psi        :   3438.24s CPU   3417.45s WALL (   23879 calls)
     s_psi        :    131.22s CPU    164.33s WALL (   23879 calls)
     g_psi        :      5.38s CPU      3.76s WALL (   18997 calls)

     Called by h_psi:
     h_psi:calbec :   2121.84s CPU   1984.64s WALL (   23879 calls)
     vloc_psi     :    998.71s CPU    895.55s WALL (   23879 calls)
     add_vuspsi   :    314.78s CPU    534.20s WALL (   23879 calls)

     General routines
     calbec       :   2606.68s CPU   2431.14s WALL (   29759 calls)
     fft          :      8.78s CPU      9.32s WALL (    3453 calls)
     ffts         :      1.28s CPU      1.18s WALL (     491 calls)
     fftw         :   1209.56s CPU   1081.61s WALL (  708572 calls)
     interpolate  :      1.05s CPU      1.15s WALL (     249 calls)

     Parallel routines

     PAW routines
     PAW_pot      :     43.21s CPU     43.28s WALL (     256 calls)
     PAW_symme    :      1.35s CPU      1.31s WALL (     498 calls)

     PWSCF        :      3h49m CPU      3h46m WALL


   This run was terminated on:  19:17:42   9Apr2025            

=------------------------------------------------------------------------------=
   JOB DONE.
=------------------------------------------------------------------------------=
