
     Program PWSCF v.7.3.1 starts on 30Apr2025 at 12:33:45 

     This program is part of the open-source Quantum ESPRESSO suite
     for quantum simulation of materials; please cite
         "P. Giannozzi et al., J. Phys.:Condens. Matter 21 395502 (2009);
         "P. Giannozzi et al., J. Phys.:Condens. Matter 29 465901 (2017);
         "P. Giannozzi et al., J. Chem. Phys. 152 154105 (2020);
          URL http://www.quantum-espresso.org", 
     in publications or presentations arising from this work. More details at
     http://www.quantum-espresso.org/quote

     Parallel version (MPI), running on     8 processors

     MPI processes distributed on     1 nodes
     48335 MiB available memory on the printing compute node when the environment starts

     Waiting for input...
     Reading input from standard input

     Current dimensions of program PWSCF are:
     Max number of different atomic species (ntypx) = 10
     Max number of k-points (npk) = 120000
     Max angular momentum in pseudopotentials (lmaxx) =  4
     file K.pbe-spn-kjpaw_psl.1.0.0.UPF: wavefunction(s)  3S renormalized
     file Zn.pbe-spn-kjpaw_psl.1.0.0.UPF: wavefunction(s)  3P 3D renormalized
     file Br.pbe-n-kjpaw_psl.1.0.0.UPF: wavefunction(s)  4S 4P renormalized

     IMPORTANT: XC functional enforced from input :
     Exchange-correlation= PBE
                           (   1   4   3   4   0   0   0)
     Any further DFT definition will be discarded
     Please, verify this is what you really want

     Message from routine setup:
     using ibrav=0 with symmetry is DISCOURAGED, use correct ibrav instead

     K-points division:     npool     =       4
     R & G space division:  proc/nbgrp/npool/nimage =       2
     Subspace diagonalization in iterative solution of the eigenvalue problem:
     a serial algorithm will be used


     Parallelization info
     --------------------
     sticks:   dense  smooth     PW     G-vecs:    dense   smooth      PW
     Min        2192    1099    310               109119    38526    5816
     Max        2197    1102    311               109120    38527    5817
     Sum        4389    2201    621               218239    77053   11633

     Using Slab Decomposition



     bravais-lattice index     =            0
     lattice parameter (alat)  =       9.2735  a.u.
     unit-cell volume          =     797.4988 (a.u.)^3
     number of atoms/cell      =            5
     number of atomic types    =            3
     number of electrons       =        50.00
     number of Kohn-Sham states=           30
     kinetic-energy cutoff     =      80.0000  Ry
     charge density cutoff     =     640.0000  Ry
     scf convergence threshold =      1.0E-08
     mixing beta               =       0.4000
     number of iterations used =            8  plain     mixing
     energy convergence thresh.=      1.0E-04
     force convergence thresh. =      1.0E-03
     press convergence thresh. =      5.0E-01
     Exchange-correlation= PBE
                           (   1   4   3   4   0   0   0)
     nstep                     =           50


     celldm(1)=   9.273493  celldm(2)=   0.000000  celldm(3)=   0.000000
     celldm(4)=   0.000000  celldm(5)=   0.000000  celldm(6)=   0.000000

     crystal axes: (cart. coord. in units of alat)
               a(1) = (   1.000000   0.000000   0.000000 )  
               a(2) = (   0.000000   1.000000   0.000000 )  
               a(3) = (   0.000000   0.000000   1.000000 )  

     reciprocal axes: (cart. coord. in units 2 pi/alat)
               b(1) = (  1.000000  0.000000  0.000000 )  
               b(2) = (  0.000000  1.000000  0.000000 )  
               b(3) = (  0.000000  0.000000  1.000000 )  


     PseudoPot. # 1 for K  read from file:
     /home/administrator/Downloads/BURAI/BURAI1.3/pseudopot/K.pbe-spn-kjpaw_psl.1.0.0.UPF
     MD5 check sum: 14ff5a24ff9f8afecca2cb30191d3c3d
     Pseudo is Projector augmented-wave + core cor, Zval =  9.0
     Generated using "atomic" code by A. Dal Corso  v.5.1.2
     Shape of augmentation charge: PSQ
     Using radial grid of 1165 points,  6 beta functions with: 
                l(1) =   0
                l(2) =   0
                l(3) =   1
                l(4) =   1
                l(5) =   2
                l(6) =   2
     Q(r) pseudized with 0 coefficients 


     PseudoPot. # 2 for Zn read from file:
     /home/administrator/Downloads/BURAI/BURAI1.3/pseudopot/Zn.pbe-spn-kjpaw_psl.1.0.0.UPF
     MD5 check sum: 9ae49ce97c5e3111e3f06ee7e23c2246
     Pseudo is Projector augmented-wave + core cor, Zval = 20.0
     Generated using "atomic" code by A. Dal Corso  v.5.1.2
     Shape of augmentation charge: PSQ
     Using radial grid of 1201 points,  6 beta functions with: 
                l(1) =   0
                l(2) =   0
                l(3) =   1
                l(4) =   1
                l(5) =   2
                l(6) =   2
     Q(r) pseudized with 0 coefficients 


     PseudoPot. # 3 for Br read from file:
     /home/administrator/Downloads/BURAI/BURAI1.3/pseudopot/Br.pbe-n-kjpaw_psl.1.0.0.UPF
     MD5 check sum: 4e719ecb11afb5eb9a83625d9f5c08f4
     Pseudo is Projector augmented-wave + core cor, Zval =  7.0
     Generated using "atomic" code by A. Dal Corso  v.5.1.2
     Shape of augmentation charge: PSQ
     Using radial grid of 1213 points,  4 beta functions with: 
                l(1) =   0
                l(2) =   0
                l(3) =   1
                l(4) =   1
     Q(r) pseudized with 0 coefficients 


     atomic species   valence    mass     pseudopotential
     K                 9.00    39.09830     K ( 1.00)
     Zn               20.00    65.38000     Zn( 1.00)
     Br                7.00    79.90400     Br( 1.00)

     48 Sym. Ops., with inversion, found


                                    s                        frac. trans.

      isym =  1     identity                                     

 cryst.   s( 1) = (     1          0          0      )
                  (     0          1          0      )
                  (     0          0          1      )

 cart.    s( 1) = (  1.0000000  0.0000000  0.0000000 )
                  (  0.0000000  1.0000000  0.0000000 )
                  (  0.0000000  0.0000000  1.0000000 )


      isym =  2     180 deg rotation - cart. axis [0,0,1]        

 cryst.   s( 2) = (    -1          0          0      )
                  (     0         -1          0      )
                  (     0          0          1      )

 cart.    s( 2) = ( -1.0000000  0.0000000  0.0000000 )
                  (  0.0000000 -1.0000000  0.0000000 )
                  (  0.0000000  0.0000000  1.0000000 )


      isym =  3     180 deg rotation - cart. axis [0,1,0]        

 cryst.   s( 3) = (    -1          0          0      )
                  (     0          1          0      )
                  (     0          0         -1      )

 cart.    s( 3) = ( -1.0000000  0.0000000  0.0000000 )
                  (  0.0000000  1.0000000  0.0000000 )
                  (  0.0000000  0.0000000 -1.0000000 )


      isym =  4     180 deg rotation - cart. axis [1,0,0]        

 cryst.   s( 4) = (     1          0          0      )
                  (     0         -1          0      )
                  (     0          0         -1      )

 cart.    s( 4) = (  1.0000000  0.0000000  0.0000000 )
                  (  0.0000000 -1.0000000  0.0000000 )
                  (  0.0000000  0.0000000 -1.0000000 )


      isym =  5     180 deg rotation - cart. axis [1,1,0]        

 cryst.   s( 5) = (     0          1          0      )
                  (     1          0          0      )
                  (     0          0         -1      )

 cart.    s( 5) = (  0.0000000  1.0000000  0.0000000 )
                  (  1.0000000  0.0000000  0.0000000 )
                  (  0.0000000  0.0000000 -1.0000000 )


      isym =  6     180 deg rotation - cart. axis [1,-1,0]       

 cryst.   s( 6) = (     0         -1          0      )
                  (    -1          0          0      )
                  (     0          0         -1      )

 cart.    s( 6) = (  0.0000000 -1.0000000  0.0000000 )
                  ( -1.0000000  0.0000000  0.0000000 )
                  (  0.0000000  0.0000000 -1.0000000 )


      isym =  7      90 deg rotation - cart. axis [0,0,-1]       

 cryst.   s( 7) = (     0         -1          0      )
                  (     1          0          0      )
                  (     0          0          1      )

 cart.    s( 7) = (  0.0000000  1.0000000  0.0000000 )
                  ( -1.0000000  0.0000000  0.0000000 )
                  (  0.0000000  0.0000000  1.0000000 )


      isym =  8      90 deg rotation - cart. axis [0,0,1]        

 cryst.   s( 8) = (     0          1          0      )
                  (    -1          0          0      )
                  (     0          0          1      )

 cart.    s( 8) = (  0.0000000 -1.0000000  0.0000000 )
                  (  1.0000000  0.0000000  0.0000000 )
                  (  0.0000000  0.0000000  1.0000000 )


      isym =  9     180 deg rotation - cart. axis [1,0,1]        

 cryst.   s( 9) = (     0          0          1      )
                  (     0         -1          0      )
                  (     1          0          0      )

 cart.    s( 9) = (  0.0000000  0.0000000  1.0000000 )
                  (  0.0000000 -1.0000000  0.0000000 )
                  (  1.0000000  0.0000000  0.0000000 )


      isym = 10     180 deg rotation - cart. axis [-1,0,1]       

 cryst.   s(10) = (     0          0         -1      )
                  (     0         -1          0      )
                  (    -1          0          0      )

 cart.    s(10) = (  0.0000000  0.0000000 -1.0000000 )
                  (  0.0000000 -1.0000000  0.0000000 )
                  ( -1.0000000  0.0000000  0.0000000 )


      isym = 11      90 deg rotation - cart. axis [0,1,0]        

 cryst.   s(11) = (     0          0         -1      )
                  (     0          1          0      )
                  (     1          0          0      )

 cart.    s(11) = (  0.0000000  0.0000000  1.0000000 )
                  (  0.0000000  1.0000000  0.0000000 )
                  ( -1.0000000  0.0000000  0.0000000 )


      isym = 12      90 deg rotation - cart. axis [0,-1,0]       

 cryst.   s(12) = (     0          0          1      )
                  (     0          1          0      )
                  (    -1          0          0      )

 cart.    s(12) = (  0.0000000  0.0000000 -1.0000000 )
                  (  0.0000000  1.0000000  0.0000000 )
                  (  1.0000000  0.0000000  0.0000000 )


      isym = 13     180 deg rotation - cart. axis [0,1,1]        

 cryst.   s(13) = (    -1          0          0      )
                  (     0          0          1      )
                  (     0          1          0      )

 cart.    s(13) = ( -1.0000000  0.0000000  0.0000000 )
                  (  0.0000000  0.0000000  1.0000000 )
                  (  0.0000000  1.0000000  0.0000000 )


      isym = 14     180 deg rotation - cart. axis [0,1,-1]       

 cryst.   s(14) = (    -1          0          0      )
                  (     0          0         -1      )
                  (     0         -1          0      )

 cart.    s(14) = ( -1.0000000  0.0000000  0.0000000 )
                  (  0.0000000  0.0000000 -1.0000000 )
                  (  0.0000000 -1.0000000  0.0000000 )


      isym = 15      90 deg rotation - cart. axis [-1,0,0]       

 cryst.   s(15) = (     1          0          0      )
                  (     0          0         -1      )
                  (     0          1          0      )

 cart.    s(15) = (  1.0000000  0.0000000  0.0000000 )
                  (  0.0000000  0.0000000  1.0000000 )
                  (  0.0000000 -1.0000000  0.0000000 )


      isym = 16      90 deg rotation - cart. axis [1,0,0]        

 cryst.   s(16) = (     1          0          0      )
                  (     0          0          1      )
                  (     0         -1          0      )

 cart.    s(16) = (  1.0000000  0.0000000  0.0000000 )
                  (  0.0000000  0.0000000 -1.0000000 )
                  (  0.0000000  1.0000000  0.0000000 )


      isym = 17     120 deg rotation - cart. axis [-1,-1,-1]     

 cryst.   s(17) = (     0          0          1      )
                  (     1          0          0      )
                  (     0          1          0      )

 cart.    s(17) = (  0.0000000  1.0000000  0.0000000 )
                  (  0.0000000  0.0000000  1.0000000 )
                  (  1.0000000  0.0000000  0.0000000 )


      isym = 18     120 deg rotation - cart. axis [-1,1,1]       

 cryst.   s(18) = (     0          0         -1      )
                  (    -1          0          0      )
                  (     0          1          0      )

 cart.    s(18) = (  0.0000000 -1.0000000  0.0000000 )
                  (  0.0000000  0.0000000  1.0000000 )
                  ( -1.0000000  0.0000000  0.0000000 )


      isym = 19     120 deg rotation - cart. axis [1,1,-1]       

 cryst.   s(19) = (     0          0         -1      )
                  (     1          0          0      )
                  (     0         -1          0      )

 cart.    s(19) = (  0.0000000  1.0000000  0.0000000 )
                  (  0.0000000  0.0000000 -1.0000000 )
                  ( -1.0000000  0.0000000  0.0000000 )


      isym = 20     120 deg rotation - cart. axis [1,-1,1]       

 cryst.   s(20) = (     0          0          1      )
                  (    -1          0          0      )
                  (     0         -1          0      )

 cart.    s(20) = (  0.0000000 -1.0000000  0.0000000 )
                  (  0.0000000  0.0000000 -1.0000000 )
                  (  1.0000000  0.0000000  0.0000000 )


      isym = 21     120 deg rotation - cart. axis [1,1,1]        

 cryst.   s(21) = (     0          1          0      )
                  (     0          0          1      )
                  (     1          0          0      )

 cart.    s(21) = (  0.0000000  0.0000000  1.0000000 )
                  (  1.0000000  0.0000000  0.0000000 )
                  (  0.0000000  1.0000000  0.0000000 )


      isym = 22     120 deg rotation - cart. axis [-1,1,-1]      

 cryst.   s(22) = (     0         -1          0      )
                  (     0          0         -1      )
                  (     1          0          0      )

 cart.    s(22) = (  0.0000000  0.0000000  1.0000000 )
                  ( -1.0000000  0.0000000  0.0000000 )
                  (  0.0000000 -1.0000000  0.0000000 )


      isym = 23     120 deg rotation - cart. axis [1,-1,-1]      

 cryst.   s(23) = (     0         -1          0      )
                  (     0          0          1      )
                  (    -1          0          0      )

 cart.    s(23) = (  0.0000000  0.0000000 -1.0000000 )
                  ( -1.0000000  0.0000000  0.0000000 )
                  (  0.0000000  1.0000000  0.0000000 )


      isym = 24     120 deg rotation - cart. axis [-1,-1,1]      

 cryst.   s(24) = (     0          1          0      )
                  (     0          0         -1      )
                  (    -1          0          0      )

 cart.    s(24) = (  0.0000000  0.0000000 -1.0000000 )
                  (  1.0000000  0.0000000  0.0000000 )
                  (  0.0000000 -1.0000000  0.0000000 )


      isym = 25     inversion                                    

 cryst.   s(25) = (    -1          0          0      )
                  (     0         -1          0      )
                  (     0          0         -1      )

 cart.    s(25) = ( -1.0000000  0.0000000  0.0000000 )
                  (  0.0000000 -1.0000000  0.0000000 )
                  (  0.0000000  0.0000000 -1.0000000 )


      isym = 26     inv. 180 deg rotation - cart. axis [0,0,1]   

 cryst.   s(26) = (     1          0          0      )
                  (     0          1          0      )
                  (     0          0         -1      )

 cart.    s(26) = (  1.0000000  0.0000000  0.0000000 )
                  (  0.0000000  1.0000000  0.0000000 )
                  (  0.0000000  0.0000000 -1.0000000 )


      isym = 27     inv. 180 deg rotation - cart. axis [0,1,0]   

 cryst.   s(27) = (     1          0          0      )
                  (     0         -1          0      )
                  (     0          0          1      )

 cart.    s(27) = (  1.0000000  0.0000000  0.0000000 )
                  (  0.0000000 -1.0000000  0.0000000 )
                  (  0.0000000  0.0000000  1.0000000 )


      isym = 28     inv. 180 deg rotation - cart. axis [1,0,0]   

 cryst.   s(28) = (    -1          0          0      )
                  (     0          1          0      )
                  (     0          0          1      )

 cart.    s(28) = ( -1.0000000  0.0000000  0.0000000 )
                  (  0.0000000  1.0000000  0.0000000 )
                  (  0.0000000  0.0000000  1.0000000 )


      isym = 29     inv. 180 deg rotation - cart. axis [1,1,0]   

 cryst.   s(29) = (     0         -1          0      )
                  (    -1          0          0      )
                  (     0          0          1      )

 cart.    s(29) = (  0.0000000 -1.0000000  0.0000000 )
                  ( -1.0000000  0.0000000  0.0000000 )
                  (  0.0000000  0.0000000  1.0000000 )


      isym = 30     inv. 180 deg rotation - cart. axis [1,-1,0]  

 cryst.   s(30) = (     0          1          0      )
                  (     1          0          0      )
                  (     0          0          1      )

 cart.    s(30) = (  0.0000000  1.0000000  0.0000000 )
                  (  1.0000000  0.0000000  0.0000000 )
                  (  0.0000000  0.0000000  1.0000000 )


      isym = 31     inv.  90 deg rotation - cart. axis [0,0,-1]  

 cryst.   s(31) = (     0          1          0      )
                  (    -1          0          0      )
                  (     0          0         -1      )

 cart.    s(31) = (  0.0000000 -1.0000000  0.0000000 )
                  (  1.0000000  0.0000000  0.0000000 )
                  (  0.0000000  0.0000000 -1.0000000 )


      isym = 32     inv.  90 deg rotation - cart. axis [0,0,1]   

 cryst.   s(32) = (     0         -1          0      )
                  (     1          0          0      )
                  (     0          0         -1      )

 cart.    s(32) = (  0.0000000  1.0000000  0.0000000 )
                  ( -1.0000000  0.0000000  0.0000000 )
                  (  0.0000000  0.0000000 -1.0000000 )


      isym = 33     inv. 180 deg rotation - cart. axis [1,0,1]   

 cryst.   s(33) = (     0          0         -1      )
                  (     0          1          0      )
                  (    -1          0          0      )

 cart.    s(33) = (  0.0000000  0.0000000 -1.0000000 )
                  (  0.0000000  1.0000000  0.0000000 )
                  ( -1.0000000  0.0000000  0.0000000 )


      isym = 34     inv. 180 deg rotation - cart. axis [-1,0,1]  

 cryst.   s(34) = (     0          0          1      )
                  (     0          1          0      )
                  (     1          0          0      )

 cart.    s(34) = (  0.0000000  0.0000000  1.0000000 )
                  (  0.0000000  1.0000000  0.0000000 )
                  (  1.0000000  0.0000000  0.0000000 )


      isym = 35     inv.  90 deg rotation - cart. axis [0,1,0]   

 cryst.   s(35) = (     0          0          1      )
                  (     0         -1          0      )
                  (    -1          0          0      )

 cart.    s(35) = (  0.0000000  0.0000000 -1.0000000 )
                  (  0.0000000 -1.0000000  0.0000000 )
                  (  1.0000000  0.0000000  0.0000000 )


      isym = 36     inv.  90 deg rotation - cart. axis [0,-1,0]  

 cryst.   s(36) = (     0          0         -1      )
                  (     0         -1          0      )
                  (     1          0          0      )

 cart.    s(36) = (  0.0000000  0.0000000  1.0000000 )
                  (  0.0000000 -1.0000000  0.0000000 )
                  ( -1.0000000  0.0000000  0.0000000 )


      isym = 37     inv. 180 deg rotation - cart. axis [0,1,1]   

 cryst.   s(37) = (     1          0          0      )
                  (     0          0         -1      )
                  (     0         -1          0      )

 cart.    s(37) = (  1.0000000  0.0000000  0.0000000 )
                  (  0.0000000  0.0000000 -1.0000000 )
                  (  0.0000000 -1.0000000  0.0000000 )


      isym = 38     inv. 180 deg rotation - cart. axis [0,1,-1]  

 cryst.   s(38) = (     1          0          0      )
                  (     0          0          1      )
                  (     0          1          0      )

 cart.    s(38) = (  1.0000000  0.0000000  0.0000000 )
                  (  0.0000000  0.0000000  1.0000000 )
                  (  0.0000000  1.0000000  0.0000000 )


      isym = 39     inv.  90 deg rotation - cart. axis [-1,0,0]  

 cryst.   s(39) = (    -1          0          0      )
                  (     0          0          1      )
                  (     0         -1          0      )

 cart.    s(39) = ( -1.0000000  0.0000000  0.0000000 )
                  (  0.0000000  0.0000000 -1.0000000 )
                  (  0.0000000  1.0000000  0.0000000 )


      isym = 40     inv.  90 deg rotation - cart. axis [1,0,0]   

 cryst.   s(40) = (    -1          0          0      )
                  (     0          0         -1      )
                  (     0          1          0      )

 cart.    s(40) = ( -1.0000000  0.0000000  0.0000000 )
                  (  0.0000000  0.0000000  1.0000000 )
                  (  0.0000000 -1.0000000  0.0000000 )


      isym = 41     inv. 120 deg rotation - cart. axis [-1,-1,-1]

 cryst.   s(41) = (     0          0         -1      )
                  (    -1          0          0      )
                  (     0         -1          0      )

 cart.    s(41) = (  0.0000000 -1.0000000  0.0000000 )
                  (  0.0000000  0.0000000 -1.0000000 )
                  ( -1.0000000  0.0000000  0.0000000 )


      isym = 42     inv. 120 deg rotation - cart. axis [-1,1,1]  

 cryst.   s(42) = (     0          0          1      )
                  (     1          0          0      )
                  (     0         -1          0      )

 cart.    s(42) = (  0.0000000  1.0000000  0.0000000 )
                  (  0.0000000  0.0000000 -1.0000000 )
                  (  1.0000000  0.0000000  0.0000000 )


      isym = 43     inv. 120 deg rotation - cart. axis [1,1,-1]  

 cryst.   s(43) = (     0          0          1      )
                  (    -1          0          0      )
                  (     0          1          0      )

 cart.    s(43) = (  0.0000000 -1.0000000  0.0000000 )
                  (  0.0000000  0.0000000  1.0000000 )
                  (  1.0000000  0.0000000  0.0000000 )


      isym = 44     inv. 120 deg rotation - cart. axis [1,-1,1]  

 cryst.   s(44) = (     0          0         -1      )
                  (     1          0          0      )
                  (     0          1          0      )

 cart.    s(44) = (  0.0000000  1.0000000  0.0000000 )
                  (  0.0000000  0.0000000  1.0000000 )
                  ( -1.0000000  0.0000000  0.0000000 )


      isym = 45     inv. 120 deg rotation - cart. axis [1,1,1]   

 cryst.   s(45) = (     0         -1          0      )
                  (     0          0         -1      )
                  (    -1          0          0      )

 cart.    s(45) = (  0.0000000  0.0000000 -1.0000000 )
                  ( -1.0000000  0.0000000  0.0000000 )
                  (  0.0000000 -1.0000000  0.0000000 )


      isym = 46     inv. 120 deg rotation - cart. axis [-1,1,-1] 

 cryst.   s(46) = (     0          1          0      )
                  (     0          0          1      )
                  (    -1          0          0      )

 cart.    s(46) = (  0.0000000  0.0000000 -1.0000000 )
                  (  1.0000000  0.0000000  0.0000000 )
                  (  0.0000000  1.0000000  0.0000000 )


      isym = 47     inv. 120 deg rotation - cart. axis [1,-1,-1] 

 cryst.   s(47) = (     0          1          0      )
                  (     0          0         -1      )
                  (     1          0          0      )

 cart.    s(47) = (  0.0000000  0.0000000  1.0000000 )
                  (  1.0000000  0.0000000  0.0000000 )
                  (  0.0000000 -1.0000000  0.0000000 )


      isym = 48     inv. 120 deg rotation - cart. axis [-1,-1,1] 

 cryst.   s(48) = (     0         -1          0      )
                  (     0          0          1      )
                  (     1          0          0      )

 cart.    s(48) = (  0.0000000  0.0000000  1.0000000 )
                  ( -1.0000000  0.0000000  0.0000000 )
                  (  0.0000000  1.0000000  0.0000000 )


   Cartesian axes

     site n.     atom                  positions (alat units)
         1        K      tau(   1) = (   0.0000000   0.0000000   0.0000000  )
         2        Zn     tau(   2) = (   0.5000000   0.5000000   0.5000000  )
         3        Br     tau(   3) = (   0.5000000   0.0000000   0.0000000  )
         4        Br     tau(   4) = (   0.0000000   0.5000000   0.0000000  )
         5        Br     tau(   5) = (   0.0000000   0.0000000   0.5000000  )

   Crystallographic axes

     site n.     atom                  positions (cryst. coord.)
         1        K      tau(   1) = (  0.0000000  0.0000000  0.0000000  )
         2        Zn     tau(   2) = (  0.5000000  0.5000000  0.5000000  )
         3        Br     tau(   3) = (  0.5000000  0.0000000  0.0000000  )
         4        Br     tau(   4) = (  0.0000000  0.5000000  0.0000000  )
         5        Br     tau(   5) = (  0.0000000  0.0000000  0.5000000  )

     number of k points=    35  Gaussian smearing, width (Ry)=  0.0050
                       cart. coord. in units 2pi/alat
        k(    1) = (   0.0000000   0.0000000   0.0000000), wk =   0.0039062
        k(    2) = (   0.0000000   0.0000000   0.1250000), wk =   0.0234375
        k(    3) = (   0.0000000   0.0000000   0.2500000), wk =   0.0234375
        k(    4) = (   0.0000000   0.0000000   0.3750000), wk =   0.0234375
        k(    5) = (   0.0000000   0.0000000  -0.5000000), wk =   0.0117188
        k(    6) = (   0.0000000   0.1250000   0.1250000), wk =   0.0468750
        k(    7) = (   0.0000000   0.1250000   0.2500000), wk =   0.0937500
        k(    8) = (   0.0000000   0.1250000   0.3750000), wk =   0.0937500
        k(    9) = (   0.0000000   0.1250000  -0.5000000), wk =   0.0468750
        k(   10) = (   0.0000000   0.2500000   0.2500000), wk =   0.0468750
        k(   11) = (   0.0000000   0.2500000   0.3750000), wk =   0.0937500
        k(   12) = (   0.0000000   0.2500000  -0.5000000), wk =   0.0468750
        k(   13) = (   0.0000000   0.3750000   0.3750000), wk =   0.0468750
        k(   14) = (   0.0000000   0.3750000  -0.5000000), wk =   0.0468750
        k(   15) = (   0.0000000  -0.5000000  -0.5000000), wk =   0.0117188
        k(   16) = (   0.1250000   0.1250000   0.1250000), wk =   0.0312500
        k(   17) = (   0.1250000   0.1250000   0.2500000), wk =   0.0937500
        k(   18) = (   0.1250000   0.1250000   0.3750000), wk =   0.0937500
        k(   19) = (   0.1250000   0.1250000  -0.5000000), wk =   0.0468750
        k(   20) = (   0.1250000   0.2500000   0.2500000), wk =   0.0937500
        k(   21) = (   0.1250000   0.2500000   0.3750000), wk =   0.1875000
        k(   22) = (   0.1250000   0.2500000  -0.5000000), wk =   0.0937500
        k(   23) = (   0.1250000   0.3750000   0.3750000), wk =   0.0937500
        k(   24) = (   0.1250000   0.3750000  -0.5000000), wk =   0.0937500
        k(   25) = (   0.1250000  -0.5000000  -0.5000000), wk =   0.0234375
        k(   26) = (   0.2500000   0.2500000   0.2500000), wk =   0.0312500
        k(   27) = (   0.2500000   0.2500000   0.3750000), wk =   0.0937500
        k(   28) = (   0.2500000   0.2500000  -0.5000000), wk =   0.0468750
        k(   29) = (   0.2500000   0.3750000   0.3750000), wk =   0.0937500
        k(   30) = (   0.2500000   0.3750000  -0.5000000), wk =   0.0937500
        k(   31) = (   0.2500000  -0.5000000  -0.5000000), wk =   0.0234375
        k(   32) = (   0.3750000   0.3750000   0.3750000), wk =   0.0312500
        k(   33) = (   0.3750000   0.3750000  -0.5000000), wk =   0.0468750
        k(   34) = (   0.3750000  -0.5000000  -0.5000000), wk =   0.0234375
        k(   35) = (  -0.5000000  -0.5000000  -0.5000000), wk =   0.0039062

                       cryst. coord.
        k(    1) = (   0.0000000   0.0000000   0.0000000), wk =   0.0039062
        k(    2) = (   0.0000000   0.0000000   0.1250000), wk =   0.0234375
        k(    3) = (   0.0000000   0.0000000   0.2500000), wk =   0.0234375
        k(    4) = (   0.0000000   0.0000000   0.3750000), wk =   0.0234375
        k(    5) = (   0.0000000   0.0000000  -0.5000000), wk =   0.0117188
        k(    6) = (   0.0000000   0.1250000   0.1250000), wk =   0.0468750
        k(    7) = (   0.0000000   0.1250000   0.2500000), wk =   0.0937500
        k(    8) = (   0.0000000   0.1250000   0.3750000), wk =   0.0937500
        k(    9) = (   0.0000000   0.1250000  -0.5000000), wk =   0.0468750
        k(   10) = (   0.0000000   0.2500000   0.2500000), wk =   0.0468750
        k(   11) = (   0.0000000   0.2500000   0.3750000), wk =   0.0937500
        k(   12) = (   0.0000000   0.2500000  -0.5000000), wk =   0.0468750
        k(   13) = (   0.0000000   0.3750000   0.3750000), wk =   0.0468750
        k(   14) = (   0.0000000   0.3750000  -0.5000000), wk =   0.0468750
        k(   15) = (   0.0000000  -0.5000000  -0.5000000), wk =   0.0117188
        k(   16) = (   0.1250000   0.1250000   0.1250000), wk =   0.0312500
        k(   17) = (   0.1250000   0.1250000   0.2500000), wk =   0.0937500
        k(   18) = (   0.1250000   0.1250000   0.3750000), wk =   0.0937500
        k(   19) = (   0.1250000   0.1250000  -0.5000000), wk =   0.0468750
        k(   20) = (   0.1250000   0.2500000   0.2500000), wk =   0.0937500
        k(   21) = (   0.1250000   0.2500000   0.3750000), wk =   0.1875000
        k(   22) = (   0.1250000   0.2500000  -0.5000000), wk =   0.0937500
        k(   23) = (   0.1250000   0.3750000   0.3750000), wk =   0.0937500
        k(   24) = (   0.1250000   0.3750000  -0.5000000), wk =   0.0937500
        k(   25) = (   0.1250000  -0.5000000  -0.5000000), wk =   0.0234375
        k(   26) = (   0.2500000   0.2500000   0.2500000), wk =   0.0312500
        k(   27) = (   0.2500000   0.2500000   0.3750000), wk =   0.0937500
        k(   28) = (   0.2500000   0.2500000  -0.5000000), wk =   0.0468750
        k(   29) = (   0.2500000   0.3750000   0.3750000), wk =   0.0937500
        k(   30) = (   0.2500000   0.3750000  -0.5000000), wk =   0.0937500
        k(   31) = (   0.2500000  -0.5000000  -0.5000000), wk =   0.0234375
        k(   32) = (   0.3750000   0.3750000   0.3750000), wk =   0.0312500
        k(   33) = (   0.3750000   0.3750000  -0.5000000), wk =   0.0468750
        k(   34) = (   0.3750000  -0.5000000  -0.5000000), wk =   0.0234375
        k(   35) = (  -0.5000000  -0.5000000  -0.5000000), wk =   0.0039062

     Dense  grid:   218239 G-vectors     FFT dimensions: (  75,  75,  75)

     Smooth grid:    77053 G-vectors     FFT dimensions: (  54,  54,  54)

     Dynamical RAM for                 wfc:       2.21 MB

     Dynamical RAM for     wfc (w. buffer):      22.06 MB

     Dynamical RAM for           str. fact:       5.00 MB

     Dynamical RAM for           local pot:       0.00 MB

     Dynamical RAM for          nlocal pot:       4.41 MB

     Dynamical RAM for                qrad:      12.18 MB

     Dynamical RAM for          rho,v,vnew:       9.89 MB

     Dynamical RAM for               rhoin:       3.30 MB

     Dynamical RAM for            rho*nmix:      26.64 MB

     Dynamical RAM for           G-vectors:       6.54 MB

     Dynamical RAM for          h,s,v(r/c):       0.16 MB

     Dynamical RAM for          <psi|beta>:       0.03 MB

     Dynamical RAM for                 psi:       4.41 MB

     Dynamical RAM for                hpsi:       4.41 MB

     Dynamical RAM for                spsi:       4.41 MB

     Dynamical RAM for      wfcinit/wfcrot:       4.43 MB

     Dynamical RAM for           addusdens:      79.92 MB

     Dynamical RAM for          addusforce:      81.18 MB

     Dynamical RAM for         addusstress:      84.29 MB

     Estimated static dynamical RAM per process >      78.17 MB

     Estimated max dynamical RAM per process >     189.11 MB

     Estimated total dynamical RAM >       1.32 GB

     Initial potential from superposition of free atoms

     starting charge      49.9810, renormalised to      50.0000
     Starting wfcs are   30 randomized atomic wfcs
     Checking if some PAW data can be deallocated... 
       PAW data deallocated on    6 nodes for type:  1
       PAW data deallocated on    6 nodes for type:  2
       PAW data deallocated on    4 nodes for type:  3

     total cpu time spent up to now is        8.3 secs

     Self-consistent Calculation

     iteration #  1     ecut=    80.00 Ry     beta= 0.40
     Davidson diagonalization with overlap

---- Real-time Memory Report at c_bands before calling an iterative solver
           162 MiB given to the printing process from OS
             0 MiB allocation reported by mallinfo(arena+hblkhd)
         47255 MiB available memory on the node where the printing process lives
------------------
     ethr =  1.00E-02,  avg # of iterations =  7.2

     total cpu time spent up to now is       39.8 secs

     total energy              =   -1275.59512238 Ry
     estimated scf accuracy    <       0.72764758 Ry

     iteration #  2     ecut=    80.00 Ry     beta= 0.40
     Davidson diagonalization with overlap

---- Real-time Memory Report at c_bands before calling an iterative solver
           222 MiB given to the printing process from OS
             0 MiB allocation reported by mallinfo(arena+hblkhd)
         46666 MiB available memory on the node where the printing process lives
------------------
     ethr =  1.46E-03,  avg # of iterations =  3.0

     total cpu time spent up to now is       58.8 secs

     total energy              =   -1275.72894322 Ry
     estimated scf accuracy    <       0.25483826 Ry

     iteration #  3     ecut=    80.00 Ry     beta= 0.40
     Davidson diagonalization with overlap

---- Real-time Memory Report at c_bands before calling an iterative solver
           223 MiB given to the printing process from OS
             0 MiB allocation reported by mallinfo(arena+hblkhd)
         46678 MiB available memory on the node where the printing process lives
------------------
     ethr =  5.10E-04,  avg # of iterations =  2.1

     total cpu time spent up to now is       75.4 secs

     total energy              =   -1275.78340823 Ry
     estimated scf accuracy    <       0.04771455 Ry

     iteration #  4     ecut=    80.00 Ry     beta= 0.40
     Davidson diagonalization with overlap

---- Real-time Memory Report at c_bands before calling an iterative solver
           224 MiB given to the printing process from OS
             0 MiB allocation reported by mallinfo(arena+hblkhd)
         46577 MiB available memory on the node where the printing process lives
------------------
     ethr =  9.54E-05,  avg # of iterations =  3.0

     total cpu time spent up to now is       93.0 secs

     total energy              =   -1275.78912711 Ry
     estimated scf accuracy    <       0.00078669 Ry

     iteration #  5     ecut=    80.00 Ry     beta= 0.40
     Davidson diagonalization with overlap

---- Real-time Memory Report at c_bands before calling an iterative solver
           226 MiB given to the printing process from OS
             0 MiB allocation reported by mallinfo(arena+hblkhd)
         46644 MiB available memory on the node where the printing process lives
------------------
     ethr =  1.57E-06,  avg # of iterations =  7.7

     total cpu time spent up to now is      123.8 secs

     total energy              =   -1275.78863600 Ry
     estimated scf accuracy    <       0.00291145 Ry

     iteration #  6     ecut=    80.00 Ry     beta= 0.40
     Davidson diagonalization with overlap

---- Real-time Memory Report at c_bands before calling an iterative solver
           227 MiB given to the printing process from OS
             0 MiB allocation reported by mallinfo(arena+hblkhd)
         46718 MiB available memory on the node where the printing process lives
------------------
     ethr =  1.57E-06,  avg # of iterations =  3.0

     total cpu time spent up to now is      144.5 secs

     total energy              =   -1275.78932846 Ry
     estimated scf accuracy    <       0.00059856 Ry

     iteration #  7     ecut=    80.00 Ry     beta= 0.40
     Davidson diagonalization with overlap

---- Real-time Memory Report at c_bands before calling an iterative solver
           228 MiB given to the printing process from OS
             0 MiB allocation reported by mallinfo(arena+hblkhd)
         46800 MiB available memory on the node where the printing process lives
------------------
     ethr =  1.20E-06,  avg # of iterations =  1.0

     total cpu time spent up to now is      157.1 secs

     total energy              =   -1275.78921765 Ry
     estimated scf accuracy    <       0.00056712 Ry

     iteration #  8     ecut=    80.00 Ry     beta= 0.40
     Davidson diagonalization with overlap

---- Real-time Memory Report at c_bands before calling an iterative solver
           229 MiB given to the printing process from OS
             0 MiB allocation reported by mallinfo(arena+hblkhd)
         46657 MiB available memory on the node where the printing process lives
------------------
     ethr =  1.13E-06,  avg # of iterations =  1.0

     total cpu time spent up to now is      169.8 secs

     total energy              =   -1275.78925037 Ry
     estimated scf accuracy    <       0.00003406 Ry

     iteration #  9     ecut=    80.00 Ry     beta= 0.40
     Davidson diagonalization with overlap

---- Real-time Memory Report at c_bands before calling an iterative solver
           231 MiB given to the printing process from OS
             0 MiB allocation reported by mallinfo(arena+hblkhd)
         46618 MiB available memory on the node where the printing process lives
------------------
     ethr =  6.81E-08,  avg # of iterations =  1.6

     total cpu time spent up to now is      184.5 secs

     total energy              =   -1275.78925311 Ry
     estimated scf accuracy    <       0.00000133 Ry

     iteration # 10     ecut=    80.00 Ry     beta= 0.40
     Davidson diagonalization with overlap

---- Real-time Memory Report at c_bands before calling an iterative solver
           232 MiB given to the printing process from OS
             0 MiB allocation reported by mallinfo(arena+hblkhd)
         46713 MiB available memory on the node where the printing process lives
------------------
     ethr =  2.66E-09,  avg # of iterations =  2.7

     total cpu time spent up to now is      203.0 secs

     total energy              =   -1275.78925325 Ry
     estimated scf accuracy    <       0.00000010 Ry

     iteration # 11     ecut=    80.00 Ry     beta= 0.40
     Davidson diagonalization with overlap

---- Real-time Memory Report at c_bands before calling an iterative solver
           232 MiB given to the printing process from OS
             0 MiB allocation reported by mallinfo(arena+hblkhd)
         46628 MiB available memory on the node where the printing process lives
------------------
     ethr =  1.92E-10,  avg # of iterations =  3.1

     total cpu time spent up to now is      222.8 secs

     total energy              =   -1275.78925327 Ry
     estimated scf accuracy    <       0.00000003 Ry

     iteration # 12     ecut=    80.00 Ry     beta= 0.40
     Davidson diagonalization with overlap

---- Real-time Memory Report at c_bands before calling an iterative solver
           232 MiB given to the printing process from OS
             0 MiB allocation reported by mallinfo(arena+hblkhd)
         46596 MiB available memory on the node where the printing process lives
------------------
     ethr =  6.22E-11,  avg # of iterations =  2.0

     total cpu time spent up to now is      239.9 secs

     End of self-consistent calculation

          k = 0.0000 0.0000 0.0000 (  9771 PWs)   bands (ev):

  -119.7942 -73.9571 -73.9571 -73.9571 -22.2232  -8.7218  -8.1063  -8.1063
    -6.6333  -6.6333  -6.6333  -0.6650  -0.6650  -0.6648  -0.6648  -0.6648
     3.1708   3.1708   3.1708   4.1815   4.2807   4.2807   4.2807   6.0705
     6.0705   6.0705  11.1233  11.1233  11.1233  12.2437

     occupation numbers 
     1.0000   1.0000   1.0000   1.0000   1.0000   1.0000   1.0000   1.0000
     1.0000   1.0000   1.0000   1.0000   1.0000   1.0000   1.0000   1.0000
     1.0000   1.0000   1.0000   1.0000   1.0000   1.0000   1.0000   0.0000
     0.0000   0.0000   0.0000   0.0000   0.0000   0.0000

          k = 0.0000 0.0000 0.1250 (  9667 PWs)   bands (ev):

  -119.7942 -73.9568 -73.9568 -73.9566 -22.2212  -8.7968  -8.3101  -8.1038
    -6.6300  -6.6300  -6.2292  -0.6679  -0.6670  -0.6670  -0.6645  -0.6633
     2.8731   3.1940   3.1940   4.2172   4.2172   4.2274   4.4988   5.7430
     6.0341   6.0341  11.1641  11.3134  11.3134  11.4091

     occupation numbers 
     1.0000   1.0000   1.0000   1.0000   1.0000   1.0000   1.0000   1.0000
     1.0000   1.0000   1.0000   1.0000   1.0000   1.0000   1.0000   1.0000
     1.0000   1.0000   1.0000   1.0000   1.0000   1.0000   1.0000   0.2847
     0.0000   0.0000   0.0000   0.0000   0.0000   0.0000

          k = 0.0000 0.0000 0.2500 (  9618 PWs)   bands (ev):

  -119.7942 -73.9566 -73.9566 -73.9564 -22.2165  -9.0714  -8.4669  -8.0980
    -6.6220  -6.6220  -5.4682  -0.6751  -0.6729  -0.6729  -0.6641  -0.6594
     2.4608   3.2576   3.2576   4.0570   4.0570   4.1053   4.3794   5.6378
     5.9668   5.9668  10.4473  11.2702  11.3609  11.3609

     occupation numbers 
     1.0000   1.0000   1.0000   1.0000   1.0000   1.0000   1.0000   1.0000
     1.0000   1.0000   1.0000   1.0000   1.0000   1.0000   1.0000   1.0000
     1.0000   1.0000   1.0000   1.0000   1.0000   1.0000   1.0000   0.9471
     0.0000   0.0000   0.0000   0.0000   0.0000   0.0000

          k = 0.0000 0.0000 0.3750 (  9634 PWs)   bands (ev):

  -119.7942 -73.9566 -73.9566 -73.9566 -22.2117  -9.3420  -8.4976  -8.0921
    -6.6139  -6.6139  -4.7869  -0.6826  -0.6789  -0.6789  -0.6638  -0.6557
     2.2112   3.3415   3.3415   3.5751   3.8789   3.8789   3.9910   5.9207
     5.9207   6.1950   9.6105  11.1372  11.1372  11.3894

     occupation numbers 
     1.0000   1.0000   1.0000   1.0000   1.0000   1.0000   1.0000   1.0000
     1.0000   1.0000   1.0000   1.0000   1.0000   1.0000   1.0000   1.0000
     1.0000   1.0000   1.0000   1.0000   1.0000   1.0000   1.0000   0.0000
     0.0000   0.0000   0.0000   0.0000   0.0000   0.0000

          k = 0.0000 0.0000-0.5000 (  9658 PWs)   bands (ev):

  -119.7942 -73.9568 -73.9566 -73.9566 -22.2098  -9.4428  -8.5017  -8.0897
    -6.6106  -6.6106  -4.5045  -0.6858  -0.6814  -0.6814  -0.6637  -0.6542
     2.1502   3.1863   3.3908   3.3908   3.7915   3.7915   3.9457   5.9062
     5.9062   6.4978   9.2349  11.0348  11.0348  11.4437

     occupation numbers 
     1.0000   1.0000   1.0000   1.0000   1.0000   1.0000   1.0000   1.0000
     1.0000   1.0000   1.0000   1.0000   1.0000   1.0000   1.0000   1.0000
     1.0000   1.0000   1.0000   1.0000   1.0000   1.0000   1.0000   0.0000
     0.0000   0.0000   0.0000   0.0000   0.0000   0.0000

          k = 0.0000 0.1250 0.1250 (  9629 PWs)   bands (ev):

  -119.7942 -73.9566 -73.9566 -73.9564 -22.2193  -8.8411  -8.4427  -8.2000
    -6.6267  -6.2656  -6.1898  -0.6716  -0.6672  -0.6666  -0.6653  -0.6638
     2.6465   3.2177   3.2334   4.0265   4.1596   4.3400   4.6811   5.7148
     5.7304   5.9937  11.0681  11.2061  11.5053  11.5679

     occupation numbers 
     1.0000   1.0000   1.0000   1.0000   1.0000   1.0000   1.0000   1.0000
     1.0000   1.0000   1.0000   1.0000   1.0000   1.0000   1.0000   1.0000
     1.0000   1.0000   1.0000   1.0000   1.0000   1.0000   1.0000   0.5064
     0.3789   0.0000   0.0000   0.0000   0.0000   0.0000

          k = 0.0000 0.1250 0.2500 (  9623 PWs)   bands (ev):

  -119.7942 -73.9566 -73.9566 -73.9564 -22.2145  -9.0720  -8.6161  -8.2185
    -6.6187  -6.2250  -5.4647  -0.6778  -0.6730  -0.6694  -0.6668  -0.6604
     2.2863   3.2736   3.2821   3.8223   4.0129   4.3365   4.4327   5.5255
     5.7928   5.9176  10.3893  11.1162  11.2989  11.6857

     occupation numbers 
     1.0000   1.0000   1.0000   1.0000   1.0000   1.0000   1.0000   1.0000
     1.0000   1.0000   1.0000   1.0000   1.0000   1.0000   1.0000   1.0000
     1.0000   1.0000   1.0000   1.0000   1.0000   1.0000   1.0000   1.0000
     0.0542   0.0000   0.0000   0.0000   0.0000   0.0000

          k = 0.0000 0.1250 0.3750 (  9640 PWs)   bands (ev):

  -119.7942 -73.9566 -73.9566 -73.9566 -22.2098  -9.3380  -8.6461  -8.2163
    -6.6107  -6.2171  -4.7849  -0.6827  -0.6791  -0.6753  -0.6668  -0.6568
     2.0449   3.2690   3.3670   3.5902   3.7208   3.8464   4.3327   5.5320
     5.8641   6.1858   9.7485  10.9086  11.0943  11.7139

     occupation numbers 
     1.0000   1.0000   1.0000   1.0000   1.0000   1.0000   1.0000   1.0000
     1.0000   1.0000   1.0000   1.0000   1.0000   1.0000   1.0000   1.0000
     1.0000   1.0000   1.0000   1.0000   1.0000   1.0000   1.0000   0.9999
     0.0010   0.0000   0.0000   0.0000   0.0000   0.0000

          k = 0.0000 0.1250-0.5000 (  9664 PWs)   bands (ev):

  -119.7942 -73.9568 -73.9567 -73.9566 -22.2078  -9.4386  -8.6493  -8.2146
    -6.6073  -6.2141  -4.5027  -0.6843  -0.6818  -0.6782  -0.6668  -0.6553
     1.9753   3.1789   3.2964   3.4178   3.6969   3.7624   4.3053   5.5225
     5.8470   6.4015   9.4825  10.8097  11.0045  11.7409

     occupation numbers 
     1.0000   1.0000   1.0000   1.0000   1.0000   1.0000   1.0000   1.0000
     1.0000   1.0000   1.0000   1.0000   1.0000   1.0000   1.0000   1.0000
     1.0000   1.0000   1.0000   1.0000   1.0000   1.0000   1.0000   1.0000
     0.0031   0.0000   0.0000   0.0000   0.0000   0.0000

          k = 0.0000 0.2500 0.2500 (  9661 PWs)   bands (ev):

  -119.7942 -73.9567 -73.9567 -73.9566 -22.2098  -9.1121  -8.9449  -8.2697
    -6.6107  -5.5164  -5.4109  -0.6801  -0.6739  -0.6730  -0.6671  -0.6613
     1.9609   3.3077   3.3473   3.5676   3.8985   4.2531   4.5620   4.9787
     5.8208   5.9301  10.1955  10.7848  11.2388  12.4940

     occupation numbers 
     1.0000   1.0000   1.0000   1.0000   1.0000   1.0000   1.0000   1.0000
     1.0000   1.0000   1.0000   1.0000   1.0000   1.0000   1.0000   1.0000
     1.0000   1.0000   1.0000   1.0000   1.0000   1.0000   1.0000   1.0000
     0.0144   0.0000   0.0000   0.0000   0.0000   0.0000

          k = 0.0000 0.2500 0.3750 (  9639 PWs)   bands (ev):

  -119.7942 -73.9566 -73.9566 -73.9566 -22.2051  -9.3288  -9.0149  -8.2756
    -6.6027  -5.4615  -4.7799  -0.6815  -0.6799  -0.6737  -0.6692  -0.6585
     1.7152   3.2469   3.4316   3.4393   3.6304   3.7641   4.6308   4.8956
     5.7483   6.1016  10.0824  10.4729  11.0813  12.5271

     occupation numbers 
     1.0000   1.0000   1.0000   1.0000   1.0000   1.0000   1.0000   1.0000
     1.0000   1.0000   1.0000   1.0000   1.0000   1.0000   1.0000   1.0000
     1.0000   1.0000   1.0000   1.0000   1.0000   1.0000   1.0000   1.0000
     0.2484   0.0000   0.0000   0.0000   0.0000   0.0000

          k = 0.0000 0.2500-0.5000 (  9604 PWs)   bands (ev):

  -119.7942 -73.9565 -73.9564 -73.9564 -22.2031  -9.4285  -9.0168  -8.2755
    -6.5994  -5.4580  -4.4985  -0.6825  -0.6820  -0.6738  -0.6702  -0.6570
     1.6317   3.1255   3.2928   3.4848   3.5053   3.6901   4.6775   4.8742
     5.7239   6.1681  10.0854  10.3503  10.9709  12.5413

     occupation numbers 
     1.0000   1.0000   1.0000   1.0000   1.0000   1.0000   1.0000   1.0000
     1.0000   1.0000   1.0000   1.0000   1.0000   1.0000   1.0000   1.0000
     1.0000   1.0000   1.0000   1.0000   1.0000   1.0000   1.0000   1.0000
     0.4316   0.0000   0.0000   0.0000   0.0000   0.0000

          k = 0.0000 0.3750 0.3750 (  9618 PWs)   bands (ev):

  -119.7942 -73.9566 -73.9564 -73.9564 -22.2003  -9.3341  -9.2928  -8.2843
    -6.5948  -4.8018  -4.7540  -0.6817  -0.6808  -0.6804  -0.6641  -0.6580
     1.4538   3.1108   3.3302   3.5067   3.5342   3.6710   4.0491   5.1944
     5.6558   5.9836  10.1044  10.4665  11.0862  13.5350

     occupation numbers 
     1.0000   1.0000   1.0000   1.0000   1.0000   1.0000   1.0000   1.0000
     1.0000   1.0000   1.0000   1.0000   1.0000   1.0000   1.0000   1.0000
     1.0000   1.0000   1.0000   1.0000   1.0000   1.0000   1.0000   1.0000
     0.8932   0.0000   0.0000   0.0000   0.0000   0.0000

          k = 0.0000 0.3750-0.5000 (  9622 PWs)   bands (ev):

  -119.7942 -73.9566 -73.9565 -73.9564 -22.1984  -9.4184  -9.3094  -8.2850
    -6.5915  -4.7763  -4.4943  -0.6834  -0.6827  -0.6809  -0.6621  -0.6571
     1.3599   2.9401   3.3600   3.4034   3.5546   3.6157   3.9316   5.3047
     5.6230   5.9321   9.9646  10.7265  10.9894  13.6114

     occupation numbers 
     1.0000   1.0000   1.0000   1.0000   1.0000   1.0000   1.0000   1.0000
     1.0000   1.0000   1.0000   1.0000   1.0000   1.0000   1.0000   1.0000
     1.0000   1.0000   1.0000   1.0000   1.0000   1.0000   1.0000   1.0000
     0.9729   0.0000   0.0000   0.0000   0.0000   0.0000

          k = 0.0000-0.5000-0.5000 (  9580 PWs)   bands (ev):

  -119.7942 -73.9564 -73.9564 -73.9562 -22.1964  -9.4141  -9.4141  -8.2858
    -6.5882  -4.4925  -4.4925  -0.6839  -0.6837  -0.6837  -0.6586  -0.6564
     1.2613   2.7917   3.3978   3.3978   3.5844   3.5844   3.6603   5.4578
     5.5864   5.8353   9.8191  11.0117  11.0117  14.3147

     occupation numbers 
     1.0000   1.0000   1.0000   1.0000   1.0000   1.0000   1.0000   1.0000
     1.0000   1.0000   1.0000   1.0000   1.0000   1.0000   1.0000   1.0000
     1.0000   1.0000   1.0000   1.0000   1.0000   1.0000   1.0000   1.0000
     0.9964   0.0064   0.0000   0.0000   0.0000   0.0000

          k = 0.1250 0.1250 0.1250 (  9615 PWs)   bands (ev):

  -119.7942 -73.9565 -73.9565 -73.9564 -22.2173  -8.8732  -8.4398  -8.4398
    -6.3051  -6.1870  -6.1870  -0.6716  -0.6716  -0.6686  -0.6635  -0.6635
     2.5007   3.1933   3.1933   4.0429   4.0429   4.4276   4.7860   5.6948
     5.6948   5.7034  10.5922  11.5986  11.5990  11.6984

     occupation numbers 
     1.0000   1.0000   1.0000   1.0000   1.0000   1.0000   1.0000   1.0000
     1.0000   1.0000   1.0000   1.0000   1.0000   1.0000   1.0000   1.0000
     1.0000   1.0000   1.0000   1.0000   1.0000   1.0000   1.0000   0.6669
     0.6669   0.5998   0.0000   0.0000   0.0000   0.0000

          k = 0.1250 0.1250 0.2500 (  9638 PWs)   bands (ev):

  -119.7942 -73.9566 -73.9566 -73.9565 -22.2126  -9.0727  -8.6668  -8.4329
    -6.2674  -6.1804  -5.4613  -0.6783  -0.6743  -0.6698  -0.6670  -0.6601
     2.1967   3.0748   3.2416   3.9465   3.9618   4.4388   4.4803   5.4515
     5.6475   5.8026  10.0773  11.1718  11.5024  11.8871

     occupation numbers 
     1.0000   1.0000   1.0000   1.0000   1.0000   1.0000   1.0000   1.0000
     1.0000   1.0000   1.0000   1.0000   1.0000   1.0000   1.0000   1.0000
     1.0000   1.0000   1.0000   1.0000   1.0000   1.0000   1.0000   1.0000
     0.9214   0.0352   0.0000   0.0000   0.0000   0.0000

          k = 0.1250 0.1250 0.3750 (  9642 PWs)   bands (ev):

  -119.7942 -73.9566 -73.9566 -73.9565 -22.2078  -9.3341  -8.7046  -8.4260
    -6.2586  -6.1737  -4.7830  -0.6822  -0.6779  -0.6734  -0.6698  -0.6567
     1.9684   2.9413   3.3446   3.5158   3.9397   3.9720   4.4631   5.3984
     5.6054   6.1261   9.7491  10.7327  11.3156  11.9910

     occupation numbers 
     1.0000   1.0000   1.0000   1.0000   1.0000   1.0000   1.0000   1.0000
     1.0000   1.0000   1.0000   1.0000   1.0000   1.0000   1.0000   1.0000
     1.0000   1.0000   1.0000   1.0000   1.0000   1.0000   1.0000   1.0000
     0.9890   0.0000   0.0000   0.0000   0.0000   0.0000

          k = 0.1250 0.1250-0.5000 (  9612 PWs)   bands (ev):

  -119.7942 -73.9565 -73.9565 -73.9564 -22.2059  -9.4346  -8.7086  -8.4231
    -6.2553  -6.1709  -4.5011  -0.6823  -0.6793  -0.6774  -0.6697  -0.6551
     1.8984   2.8851   3.1693   3.4080   3.8828   3.9524   4.4422   5.3776
     5.5901   6.2760   9.6634  10.5224  11.2311  12.0312

     occupation numbers 
     1.0000   1.0000   1.0000   1.0000   1.0000   1.0000   1.0000   1.0000
     1.0000   1.0000   1.0000   1.0000   1.0000   1.0000   1.0000   1.0000
     1.0000   1.0000   1.0000   1.0000   1.0000   1.0000   1.0000   1.0000
     0.9955   0.0000   0.0000   0.0000   0.0000   0.0000

          k = 0.1250 0.2500 0.2500 (  9628 PWs)   bands (ev):

  -119.7942 -73.9566 -73.9565 -73.9565 -22.2079  -9.1120  -8.9416  -8.5355
    -6.2228  -5.5111  -5.4089  -0.6795  -0.6758  -0.6737  -0.6647  -0.6601
     1.9553   2.9580   3.0513   3.9017   4.0410   4.2689   4.6473   4.9902
     5.5140   5.8757   9.7653  11.2723  11.2813  12.4946

     occupation numbers 
     1.0000   1.0000   1.0000   1.0000   1.0000   1.0000   1.0000   1.0000
     1.0000   1.0000   1.0000   1.0000   1.0000   1.0000   1.0000   1.0000
     1.0000   1.0000   1.0000   1.0000   1.0000   1.0000   1.0000   1.0000
     1.0000   0.0004   0.0000   0.0000   0.0000   0.0000

          k = 0.1250 0.2500 0.3750 (  9647 PWs)   bands (ev):

  -119.7942 -73.9567 -73.9566 -73.9566 -22.2031  -9.3251  -9.0143  -8.5406
    -6.2148  -5.4579  -4.7782  -0.6806  -0.6775  -0.6747  -0.6679  -0.6575
     1.7350   2.7903   3.0551   3.4539   4.0137   4.1250   4.6724   4.8996
     5.4427   5.9561   9.8227  10.7720  11.2907  12.7467

     occupation numbers 
     1.0000   1.0000   1.0000   1.0000   1.0000   1.0000   1.0000   1.0000
     1.0000   1.0000   1.0000   1.0000   1.0000   1.0000   1.0000   1.0000
     1.0000   1.0000   1.0000   1.0000   1.0000   1.0000   1.0000   1.0000
     1.0000   0.0000   0.0000   0.0000   0.0000   0.0000

          k = 0.1250 0.2500-0.5000 (  9632 PWs)   bands (ev):

  -119.7942 -73.9566 -73.9566 -73.9564 -22.2012  -9.4247  -9.0167  -8.5398
    -6.2117  -5.4545  -4.4970  -0.6794  -0.6793  -0.6749  -0.6701  -0.6561
     1.6567   2.7250   3.0464   3.1570   4.0270   4.1140   4.6723   4.8932
     5.4175   5.9754  10.1664  10.2846  11.2668  12.7919

     occupation numbers 
     1.0000   1.0000   1.0000   1.0000   1.0000   1.0000   1.0000   1.0000
     1.0000   1.0000   1.0000   1.0000   1.0000   1.0000   1.0000   1.0000
     1.0000   1.0000   1.0000   1.0000   1.0000   1.0000   1.0000   1.0000
     1.0000   0.0000   0.0000   0.0000   0.0000   0.0000

          k = 0.1250 0.3750 0.3750 (  9626 PWs)   bands (ev):

  -119.7942 -73.9566 -73.9565 -73.9565 -22.1984  -9.3306  -9.2894  -8.5504
    -6.2070  -4.8000  -4.7526  -0.6809  -0.6789  -0.6755  -0.6635  -0.6573
     1.5005   2.7792   2.8613   3.2061   3.8808   4.1547   4.3348   5.1991
     5.3373   5.7579  10.0311  10.8691  11.1321  13.5801

     occupation numbers 
     1.0000   1.0000   1.0000   1.0000   1.0000   1.0000   1.0000   1.0000
     1.0000   1.0000   1.0000   1.0000   1.0000   1.0000   1.0000   1.0000
     1.0000   1.0000   1.0000   1.0000   1.0000   1.0000   1.0000   1.0000
     1.0000   0.1898   0.0000   0.0000   0.0000   0.0000

          k = 0.1250 0.3750-0.5000 (  9642 PWs)   bands (ev):

  -119.7942 -73.9566 -73.9566 -73.9565 -22.1964  -9.4147  -9.3060  -8.5505
    -6.2040  -4.7748  -4.4930  -0.6807  -0.6799  -0.6768  -0.6617  -0.6565
     1.4109   2.7568   2.8211   2.9857   3.8112   4.2023   4.2665   5.2978
     5.3073   5.6726  10.1990  10.7728  11.1361  13.7704

     occupation numbers 
     1.0000   1.0000   1.0000   1.0000   1.0000   1.0000   1.0000   1.0000
     1.0000   1.0000   1.0000   1.0000   1.0000   1.0000   1.0000   1.0000
     1.0000   1.0000   1.0000   1.0000   1.0000   1.0000   1.0000   1.0000
     1.0000   0.8144   0.0000   0.0000   0.0000   0.0000

          k = 0.1250-0.5000-0.5000 (  9632 PWs)   bands (ev):

  -119.7942 -73.9566 -73.9565 -73.9565 -22.1945  -9.4106  -9.4106  -8.5509
    -6.2010  -4.4913  -4.4913  -0.6801  -0.6801  -0.6795  -0.6581  -0.6561
     1.3160   2.7735   2.7910   2.7910   3.6638   4.2327   4.2327   5.2505
     5.4592   5.5453  10.1894  11.0639  11.0639  14.4520

     occupation numbers 
     1.0000   1.0000   1.0000   1.0000   1.0000   1.0000   1.0000   1.0000
     1.0000   1.0000   1.0000   1.0000   1.0000   1.0000   1.0000   1.0000
     1.0000   1.0000   1.0000   1.0000   1.0000   1.0000   1.0000   1.0000
     1.0000   0.9998   0.0000   0.0000   0.0000   0.0000

          k = 0.2500 0.2500 0.2500 (  9651 PWs)   bands (ev):

  -119.7942 -73.9567 -73.9567 -73.9565 -22.2032  -9.1354  -8.9337  -8.9337
    -5.5725  -5.4040  -5.4040  -0.6778  -0.6778  -0.6744  -0.6603  -0.6603
     1.8806   2.6669   2.6669   3.9967   4.1762   4.1762   4.8143   5.0170
     5.0170   5.7480   9.5337  11.4451  11.4451  12.9047

     occupation numbers 
     1.0000   1.0000   1.0000   1.0000   1.0000   1.0000   1.0000   1.0000
     1.0000   1.0000   1.0000   1.0000   1.0000   1.0000   1.0000   1.0000
     1.0000   1.0000   1.0000   1.0000   1.0000   1.0000   1.0000   1.0000
     1.0000   0.2503   0.0000   0.0000   0.0000   0.0000

          k = 0.2500 0.2500 0.3750 (  9650 PWs)   bands (ev):

  -119.7942 -73.9567 -73.9566 -73.9566 -22.1984  -9.3166  -9.0499  -8.9258
    -5.5180  -5.3991  -4.7738  -0.6764  -0.6762  -0.6735  -0.6639  -0.6564
     1.7340   2.3903   2.6190   3.3867   4.2477   4.3031   4.7922   4.9338
     5.0300   5.6084   9.8068  11.0599  11.6031  13.3143

     occupation numbers 
     1.0000   1.0000   1.0000   1.0000   1.0000   1.0000   1.0000   1.0000
     1.0000   1.0000   1.0000   1.0000   1.0000   1.0000   1.0000   1.0000
     1.0000   1.0000   1.0000   1.0000   1.0000   1.0000   1.0000   1.0000
     1.0000   0.9871   0.0000   0.0000   0.0000   0.0000

          k = 0.2500 0.2500-0.5000 (  9626 PWs)   bands (ev):

  -119.7942 -73.9566 -73.9565 -73.9565 -22.1965  -9.4153  -9.0551  -8.9225
    -5.5133  -5.3971  -4.4935  -0.6762  -0.6725  -0.6723  -0.6683  -0.6549
     1.6686   2.2918   2.6277   3.0714   4.2722   4.3924   4.6857   5.0014
     5.0022   5.5416  10.3495  10.4809  11.6432  13.4204

     occupation numbers 
     1.0000   1.0000   1.0000   1.0000   1.0000   1.0000   1.0000   1.0000
     1.0000   1.0000   1.0000   1.0000   1.0000   1.0000   1.0000   1.0000
     1.0000   1.0000   1.0000   1.0000   1.0000   1.0000   1.0000   1.0000
     1.0000   0.9999   0.0000   0.0000   0.0000   0.0000

          k = 0.2500 0.3750 0.3750 (  9642 PWs)   bands (ev):

  -119.7942 -73.9566 -73.9566 -73.9565 -22.1937  -9.3225  -9.2810  -8.9776
    -5.4580  -4.7951  -4.7491  -0.6745  -0.6734  -0.6688  -0.6608  -0.6561
     1.6181   2.2762   2.3482   3.1063   3.9224   4.3940   4.8567   4.9288
     5.2121   5.2634  10.1854  11.3353  11.4846  13.8471

     occupation numbers 
     1.0000   1.0000   1.0000   1.0000   1.0000   1.0000   1.0000   1.0000
     1.0000   1.0000   1.0000   1.0000   1.0000   1.0000   1.0000   1.0000
     1.0000   1.0000   1.0000   1.0000   1.0000   1.0000   1.0000   1.0000
     1.0000   1.0000   0.0000   0.0000   0.0000   0.0000

          k = 0.2500 0.3750-0.5000 (  9644 PWs)   bands (ev):

  -119.7942 -73.9567 -73.9566 -73.9565 -22.1918  -9.4060  -9.2981  -8.9775
    -5.4544  -4.7708  -4.4899  -0.6738  -0.6706  -0.6679  -0.6607  -0.6552
     1.5463   2.2070   2.3322   2.8739   3.8330   4.4483   4.8474   4.9155
     5.1215   5.3216  10.6479  10.9897  11.5860  14.1233

     occupation numbers 
     1.0000   1.0000   1.0000   1.0000   1.0000   1.0000   1.0000   1.0000
     1.0000   1.0000   1.0000   1.0000   1.0000   1.0000   1.0000   1.0000
     1.0000   1.0000   1.0000   1.0000   1.0000   1.0000   1.0000   1.0000
     1.0000   1.0000   0.0000   0.0000   0.0000   0.0000

          k = 0.2500-0.5000-0.5000 (  9644 PWs)   bands (ev):

  -119.7942 -73.9566 -73.9566 -73.9565 -22.1898  -9.4020  -9.4020  -8.9778
    -5.4509  -4.4884  -4.4884  -0.6704  -0.6704  -0.6684  -0.6568  -0.6551
     1.4661   2.2345   2.2345   2.6963   3.6723   4.5088   4.8807   4.8807
     4.9440   5.4628  10.9955  11.2840  11.2840  14.4202

     occupation numbers 
     1.0000   1.0000   1.0000   1.0000   1.0000   1.0000   1.0000   1.0000
     1.0000   1.0000   1.0000   1.0000   1.0000   1.0000   1.0000   1.0000
     1.0000   1.0000   1.0000   1.0000   1.0000   1.0000   1.0000   1.0000
     1.0000   1.0000   0.0000   0.0000   0.0000   0.0000

          k = 0.3750 0.3750 0.3750 (  9675 PWs)   bands (ev):

  -119.7942 -73.9567 -73.9567 -73.9567 -22.1890  -9.3242  -9.2725  -9.2725
    -4.8233  -4.7456  -4.7456  -0.6660  -0.6660  -0.6655  -0.6562  -0.6562
     1.7011   2.0082   2.0082   2.8608   3.9387   3.9387   4.7961   5.1761
     5.1761   5.2600  10.6533  11.7160  11.7160  14.2304

     occupation numbers 
     1.0000   1.0000   1.0000   1.0000   1.0000   1.0000   1.0000   1.0000
     1.0000   1.0000   1.0000   1.0000   1.0000   1.0000   1.0000   1.0000
     1.0000   1.0000   1.0000   1.0000   1.0000   1.0000   1.0000   1.0000
     1.0000   1.0000   0.0000   0.0000   0.0000   0.0000

          k = 0.3750 0.3750-0.5000 (  9638 PWs)   bands (ev):

  -119.7942 -73.9566 -73.9566 -73.9565 -22.1871  -9.3971  -9.3033  -9.2690
    -4.7965  -4.7442  -4.4868  -0.6650  -0.6610  -0.6600  -0.6588  -0.6542
     1.6763   1.8899   1.9912   2.6709   3.7981   3.9445   4.6064   5.2081
     5.2765   5.3523  11.1795  11.4247  11.9607  14.2650

     occupation numbers 
     1.0000   1.0000   1.0000   1.0000   1.0000   1.0000   1.0000   1.0000
     1.0000   1.0000   1.0000   1.0000   1.0000   1.0000   1.0000   1.0000
     1.0000   1.0000   1.0000   1.0000   1.0000   1.0000   1.0000   1.0000
     1.0000   1.0000   0.0000   0.0000   0.0000   0.0000

          k = 0.3750-0.5000-0.5000 (  9660 PWs)   bands (ev):

  -119.7942 -73.9567 -73.9566 -73.9566 -22.1851  -9.3934  -9.3934  -9.2827
    -4.7693  -4.4855  -4.4855  -0.6596  -0.6596  -0.6581  -0.6554  -0.6542
     1.6535   1.8734   1.8734   2.5132   3.6809   3.8865   4.4003   5.3172
     5.3172   5.4663  11.7311  11.7311  11.7610  13.9423

     occupation numbers 
     1.0000   1.0000   1.0000   1.0000   1.0000   1.0000   1.0000   1.0000
     1.0000   1.0000   1.0000   1.0000   1.0000   1.0000   1.0000   1.0000
     1.0000   1.0000   1.0000   1.0000   1.0000   1.0000   1.0000   1.0000
     1.0000   1.0000   0.0000   0.0000   0.0000   0.0000

          k =-0.5000-0.5000-0.5000 (  9568 PWs)   bands (ev):

  -119.7942 -73.9563 -73.9563 -73.9563 -22.1832  -9.3899  -9.3899  -9.3899
    -4.4843  -4.4843  -4.4843  -0.6545  -0.6545  -0.6545  -0.6536  -0.6536
     1.7483   1.7483   1.7483   2.3749   3.6844   3.6844   4.1757   5.4678
     5.4678   5.4678  12.0833  12.0833  12.0833  13.7818

     occupation numbers 
     1.0000   1.0000   1.0000   1.0000   1.0000   1.0000   1.0000   1.0000
     1.0000   1.0000   1.0000   1.0000   1.0000   1.0000   1.0000   1.0000
     1.0000   1.0000   1.0000   1.0000   1.0000   1.0000   1.0000   1.0000
     1.0000   1.0000   0.0000   0.0000   0.0000   0.0000

     the Fermi energy is     5.7156 ev

!    total energy              =   -1275.78925328 Ry
     total all-electron energy =    -20434.935259 Ry
     estimated scf accuracy    <          8.2E-10 Ry
     smearing contrib. (-TS)   =      -0.00085837 Ry
     internal energy E=F+TS    =   -1275.78839491 Ry

     The total energy is F=E-TS. E is the sum of the following terms:
     one-electron contribution =    -471.48438778 Ry
     hartree contribution      =     257.17665126 Ry
     xc contribution           =     -79.71298205 Ry
     ewald contribution        =    -298.41631959 Ry
     one-center paw contrib.   =    -683.35135675 Ry
      -> PAW hartree energy AE =      39.88514821 Ry
      -> PAW hartree energy PS =     -39.66899083 Ry
      -> PAW xc energy AE      =     -66.50008006 Ry
      -> PAW xc energy PS      =      10.85731739 Ry
      -> total E_H with PAW    =     257.39280863 Ry
      -> total E_XC with PAW   =    -135.35574472 Ry

     convergence has been achieved in  12 iterations

     Forces acting on atoms (cartesian axes, Ry/au):

     atom    1 type  1   force =     0.00000000    0.00000000    0.00000000
     atom    2 type  2   force =     0.00000000    0.00000000    0.00000000
     atom    3 type  3   force =     0.00000000    0.00000000    0.00000000
     atom    4 type  3   force =     0.00000000    0.00000000    0.00000000
     atom    5 type  3   force =     0.00000000    0.00000000    0.00000000
     The non-local contrib.  to forces
     atom    1 type  1   force =     0.00000000    0.00000000    0.00000000
     atom    2 type  2   force =     0.00000000    0.00000000    0.00000000
     atom    3 type  3   force =     0.00000000    0.00000000    0.00000000
     atom    4 type  3   force =     0.00000000    0.00000000    0.00000000
     atom    5 type  3   force =     0.00000000    0.00000000    0.00000000
     The ionic contribution  to forces
     atom    1 type  1   force =    -0.00000000   -0.00000000   -0.00000000
     atom    2 type  2   force =     0.00000000    0.00000000    0.00000000
     atom    3 type  3   force =     0.00000000   -0.00000000   -0.00000000
     atom    4 type  3   force =    -0.00000000    0.00000000   -0.00000000
     atom    5 type  3   force =    -0.00000000   -0.00000000    0.00000000
     The local contribution  to forces
     atom    1 type  1   force =    -0.00000000   -0.00000000   -0.00000000
     atom    2 type  2   force =     0.00000000    0.00000000    0.00000000
     atom    3 type  3   force =    -0.00000000   -0.00000000    0.00000000
     atom    4 type  3   force =    -0.00000000   -0.00000000    0.00000000
     atom    5 type  3   force =     0.00000000   -0.00000000   -0.00000000
     The core correction contribution to forces
     atom    1 type  1   force =    -0.00000000   -0.00000000   -0.00000000
     atom    2 type  2   force =     0.00000000    0.00000000    0.00000000
     atom    3 type  3   force =    -0.00000000    0.00000000   -0.00000000
     atom    4 type  3   force =    -0.00000000   -0.00000000   -0.00000000
     atom    5 type  3   force =     0.00000000    0.00000000   -0.00000000
     The Hubbard contrib.    to forces
     atom    1 type  1   force =     0.00000000    0.00000000    0.00000000
     atom    2 type  2   force =     0.00000000    0.00000000    0.00000000
     atom    3 type  3   force =     0.00000000    0.00000000    0.00000000
     atom    4 type  3   force =     0.00000000    0.00000000    0.00000000
     atom    5 type  3   force =     0.00000000    0.00000000    0.00000000
     The SCF correction term to forces
     atom    1 type  1   force =     0.00000000    0.00000000    0.00000000
     atom    2 type  2   force =     0.00000000   -0.00000000   -0.00000000
     atom    3 type  3   force =     0.00000000    0.00000000   -0.00000000
     atom    4 type  3   force =    -0.00000000    0.00000000   -0.00000000
     atom    5 type  3   force =     0.00000000   -0.00000000   -0.00000000

     Total force =     0.000000     Total SCF correction =     0.000000


     Computing stress (Cartesian axis) and pressure

          total   stress  (Ry/bohr**3)                   (kbar)     P=      230.39
   0.00156617   0.00000000   0.00000000          230.39        0.00        0.00
   0.00000000   0.00156617   0.00000000            0.00      230.39        0.00
   0.00000000   0.00000000   0.00156617            0.00        0.00      230.39

     kinetic stress (kbar)  17974.81      0.00      0.00
                                0.00  17974.81      0.00
                                0.00      0.00  17974.81

     local   stress (kbar)  -8991.10      0.00     -0.00
                                0.00  -8991.10     -0.00
                               -0.00     -0.00  -8991.10

     nonloc. stress (kbar)  -1886.70      0.00      0.00
                                0.00  -1886.70      0.00
                                0.00      0.00  -1886.70

     hartree stress (kbar)  15812.77      0.00      0.00
                                0.00  15812.77      0.00
                                0.00      0.00  15812.77

     exc-cor stress (kbar)  -1833.51      0.00      0.00
                                0.00  -1833.51     -0.00
                                0.00     -0.00  -1833.51

     corecor stress (kbar)  -2497.45      0.00      0.00
                                0.00  -2497.45      0.00
                                0.00      0.00  -2497.45

     ewald   stress (kbar) -18348.43      0.00     -0.00
                                0.00 -18348.43     -0.00
                               -0.00     -0.00 -18348.43

     hubbard stress (kbar)      0.00      0.00      0.00
                                0.00      0.00      0.00
                                0.00      0.00      0.00

     DFT-D   stress (kbar)      0.00      0.00      0.00
                                0.00      0.00      0.00
                                0.00      0.00      0.00

     XDM     stress (kbar)      0.00      0.00      0.00
                                0.00      0.00      0.00
                                0.00      0.00      0.00

     dft-nl  stress (kbar)      0.00      0.00      0.00
                                0.00      0.00      0.00
                                0.00      0.00      0.00

     TS-vdW  stress (kbar)      0.00      0.00      0.00
                                0.00      0.00      0.00
                                0.00      0.00      0.00

     MDB     stress (kbar)      0.00      0.00      0.00
                                0.00      0.00      0.00
                                0.00      0.00      0.00

     3D-RISM stress (kbar)      0.00      0.00      0.00
                                0.00      0.00      0.00
                                0.00      0.00      0.00


     BFGS Geometry Optimization
     Energy error            =      0.0E+00 Ry
     Gradient error          =      0.0E+00 Ry/Bohr
     Cell gradient error     =      2.3E+02 kbar

     number of scf cycles    =   1
     number of bfgs steps    =   0

     enthalpy           new  =   -1275.7892532806 Ry

     new trust radius        =       0.2211428804 bohr
     new conv_thr            =       0.0000000100 Ry

     new unit-cell volume =    894.89064 a.u.^3 (   132.60911 Ang^3 )
     density =      4.30997 g/cm^3

CELL_PARAMETERS (angstrom)
   5.099463115   0.000000000   0.000000000
   0.000000000   5.099463115   0.000000000
   0.000000000   0.000000000   5.099463115

ATOMIC_POSITIONS (crystal)
K                0.0000000000        0.0000000000        0.0000000000
Zn               0.5000000000        0.5000000000        0.5000000000
Br               0.5000000000        0.0000000000        0.0000000000
Br               0.0000000000        0.5000000000        0.0000000000
Br               0.0000000000        0.0000000000        0.5000000000



     Writing config-only to output data dir ./tmp/kznbr3.save/ :
     XML data file
     NEW-OLD atomic charge density approx. for the potential

     total cpu time spent up to now is      253.3 secs

     Self-consistent Calculation

     iteration #  1     ecut=    80.00 Ry     beta= 0.40
     Davidson diagonalization with overlap

---- Real-time Memory Report at c_bands before calling an iterative solver
           233 MiB given to the printing process from OS
             0 MiB allocation reported by mallinfo(arena+hblkhd)
         46520 MiB available memory on the node where the printing process lives
------------------
     ethr =  1.00E-06,  avg # of iterations =  8.4

     total cpu time spent up to now is      296.4 secs

     total energy              =   -1275.86489764 Ry
     estimated scf accuracy    <       0.04821231 Ry

     iteration #  2     ecut=    80.00 Ry     beta= 0.40
     Davidson diagonalization with overlap

---- Real-time Memory Report at c_bands before calling an iterative solver
           233 MiB given to the printing process from OS
             0 MiB allocation reported by mallinfo(arena+hblkhd)
         46494 MiB available memory on the node where the printing process lives
------------------
     ethr =  9.64E-05,  avg # of iterations =  2.5

     total cpu time spent up to now is      314.7 secs

     total energy              =   -1275.88300097 Ry
     estimated scf accuracy    <       0.11079599 Ry

     iteration #  3     ecut=    80.00 Ry     beta= 0.40
     Davidson diagonalization with overlap

---- Real-time Memory Report at c_bands before calling an iterative solver
           233 MiB given to the printing process from OS
             0 MiB allocation reported by mallinfo(arena+hblkhd)
         46634 MiB available memory on the node where the printing process lives
------------------
     ethr =  9.64E-05,  avg # of iterations =  2.0

     total cpu time spent up to now is      330.0 secs

     total energy              =   -1275.89958332 Ry
     estimated scf accuracy    <       0.00172341 Ry

     iteration #  4     ecut=    80.00 Ry     beta= 0.40
     Davidson diagonalization with overlap

---- Real-time Memory Report at c_bands before calling an iterative solver
           233 MiB given to the printing process from OS
             0 MiB allocation reported by mallinfo(arena+hblkhd)
         46644 MiB available memory on the node where the printing process lives
------------------
     ethr =  3.45E-06,  avg # of iterations =  2.1

     total cpu time spent up to now is      346.1 secs

     total energy              =   -1275.90609348 Ry
     estimated scf accuracy    <       0.00118952 Ry

     iteration #  5     ecut=    80.00 Ry     beta= 0.40
     Davidson diagonalization with overlap

---- Real-time Memory Report at c_bands before calling an iterative solver
           233 MiB given to the printing process from OS
             0 MiB allocation reported by mallinfo(arena+hblkhd)
         46531 MiB available memory on the node where the printing process lives
------------------
     ethr =  2.38E-06,  avg # of iterations =  2.2

     total cpu time spent up to now is      362.8 secs

     total energy              =   -1275.90816824 Ry
     estimated scf accuracy    <       0.00056934 Ry

     iteration #  6     ecut=    80.00 Ry     beta= 0.40
     Davidson diagonalization with overlap

---- Real-time Memory Report at c_bands before calling an iterative solver
           233 MiB given to the printing process from OS
             0 MiB allocation reported by mallinfo(arena+hblkhd)
         46570 MiB available memory on the node where the printing process lives
------------------
     ethr =  1.14E-06,  avg # of iterations =  2.0

     total cpu time spent up to now is      378.7 secs

     total energy              =   -1275.90964730 Ry
     estimated scf accuracy    <       0.00024541 Ry

     iteration #  7     ecut=    80.00 Ry     beta= 0.40
     Davidson diagonalization with overlap

---- Real-time Memory Report at c_bands before calling an iterative solver
           233 MiB given to the printing process from OS
             0 MiB allocation reported by mallinfo(arena+hblkhd)
         46555 MiB available memory on the node where the printing process lives
------------------
     ethr =  4.91E-07,  avg # of iterations =  2.6

     total cpu time spent up to now is      396.7 secs

     total energy              =   -1275.90992417 Ry
     estimated scf accuracy    <       0.00001987 Ry

     iteration #  8     ecut=    80.00 Ry     beta= 0.40
     Davidson diagonalization with overlap

---- Real-time Memory Report at c_bands before calling an iterative solver
           233 MiB given to the printing process from OS
             0 MiB allocation reported by mallinfo(arena+hblkhd)
         46464 MiB available memory on the node where the printing process lives
------------------
     ethr =  3.97E-08,  avg # of iterations =  3.6

     total cpu time spent up to now is      419.1 secs

     total energy              =   -1275.90993873 Ry
     estimated scf accuracy    <       0.00000350 Ry

     iteration #  9     ecut=    80.00 Ry     beta= 0.40
     Davidson diagonalization with overlap

---- Real-time Memory Report at c_bands before calling an iterative solver
           233 MiB given to the printing process from OS
             0 MiB allocation reported by mallinfo(arena+hblkhd)
         46482 MiB available memory on the node where the printing process lives
------------------
     ethr =  7.00E-09,  avg # of iterations =  2.0

     total cpu time spent up to now is      435.5 secs

     total energy              =   -1275.90994066 Ry
     estimated scf accuracy    <       0.00000015 Ry

     iteration # 10     ecut=    80.00 Ry     beta= 0.40
     Davidson diagonalization with overlap

---- Real-time Memory Report at c_bands before calling an iterative solver
           234 MiB given to the printing process from OS
             0 MiB allocation reported by mallinfo(arena+hblkhd)
         46566 MiB available memory on the node where the printing process lives
------------------
     ethr =  2.98E-10,  avg # of iterations =  4.1

     total cpu time spent up to now is      459.4 secs

     total energy              =   -1275.90994082 Ry
     estimated scf accuracy    <       0.00000005 Ry

     iteration # 11     ecut=    80.00 Ry     beta= 0.40
     Davidson diagonalization with overlap

---- Real-time Memory Report at c_bands before calling an iterative solver
           234 MiB given to the printing process from OS
             0 MiB allocation reported by mallinfo(arena+hblkhd)
         46649 MiB available memory on the node where the printing process lives
------------------
     ethr =  1.10E-10,  avg # of iterations =  1.6

     total cpu time spent up to now is      474.4 secs

     total energy              =   -1275.90994085 Ry
     estimated scf accuracy    <       0.00000002 Ry

     iteration # 12     ecut=    80.00 Ry     beta= 0.40
     Davidson diagonalization with overlap

---- Real-time Memory Report at c_bands before calling an iterative solver
           234 MiB given to the printing process from OS
             0 MiB allocation reported by mallinfo(arena+hblkhd)
         46409 MiB available memory on the node where the printing process lives
------------------
     ethr =  4.61E-11,  avg # of iterations =  2.5

     total cpu time spent up to now is      491.8 secs

     End of self-consistent calculation

          k = 0.0000 0.0000 0.0000 (  9771 PWs)   bands (ev):

  -121.2618 -75.4197 -75.4197 -75.4197 -23.2569  -9.7182  -9.2057  -9.2057
    -7.4565  -7.4565  -7.4565  -2.1207  -2.1207  -2.1198  -2.1198  -2.1198
     2.1066   2.1066   2.1066   2.8192   3.1176   3.1176   3.1176   4.4447
     4.4447   4.4447  10.2118  10.2118  10.2118  10.5207

     occupation numbers 
     1.0000   1.0000   1.0000   1.0000   1.0000   1.0000   1.0000   1.0000
     1.0000   1.0000   1.0000   1.0000   1.0000   1.0000   1.0000   1.0000
     1.0000   1.0000   1.0000   1.0000   1.0000   1.0000   1.0000   0.0000
     0.0000   0.0000   0.0000   0.0000   0.0000   0.0000

          k = 0.0000 0.0000 0.1203 (  9667 PWs)   bands (ev):

  -121.2617 -75.4194 -75.4194 -75.4193 -23.2558  -9.7585  -9.3413  -9.2042
    -7.4544  -7.4544  -7.1865  -2.1221  -2.1208  -2.1208  -2.1195  -2.1194
     1.8305   2.1334   2.1334   3.0681   3.0681   3.0765   3.0950   4.2145
     4.4136   4.4136   9.8536  10.1165  10.1165  10.2523

     occupation numbers 
     1.0000   1.0000   1.0000   1.0000   1.0000   1.0000   1.0000   1.0000
     1.0000   1.0000   1.0000   1.0000   1.0000   1.0000   1.0000   1.0000
     1.0000   1.0000   1.0000   1.0000   1.0000   1.0000   1.0000   0.2412
     0.0000   0.0000   0.0000   0.0000   0.0000   0.0000

          k = 0.0000 0.0000 0.2406 (  9618 PWs)   bands (ev):

  -121.2617 -75.4193 -75.4193 -75.4192 -23.2531  -9.9208  -9.4905  -9.2005
    -7.4492  -7.4492  -6.6321  -2.1258  -2.1240  -2.1240  -2.1193  -2.1169
     1.4717   2.2107   2.2107   2.9318   2.9318   2.9812   3.0200   4.1659
     4.3535   4.3535   8.9559   9.8587   9.8587  10.3582

     occupation numbers 
     1.0000   1.0000   1.0000   1.0000   1.0000   1.0000   1.0000   1.0000
     1.0000   1.0000   1.0000   1.0000   1.0000   1.0000   1.0000   1.0000
     1.0000   1.0000   1.0000   1.0000   1.0000   1.0000   1.0000   0.6205
     0.0002   0.0002   0.0000   0.0000   0.0000   0.0000

          k = 0.0000 0.0000 0.3609 (  9634 PWs)   bands (ev):

  -121.2617 -75.4193 -75.4193 -75.4193 -23.2504 -10.1127  -9.5319  -9.1967
    -7.4440  -7.4440  -6.1283  -2.1297  -2.1274  -2.1274  -2.1191  -2.1146
     1.2573   2.3279   2.3279   2.4237   2.7518   2.7518   2.8910   4.3107
     4.3107   4.5956   8.2186   9.6229   9.6229  10.4785

     occupation numbers 
     1.0000   1.0000   1.0000   1.0000   1.0000   1.0000   1.0000   1.0000
     1.0000   1.0000   1.0000   1.0000   1.0000   1.0000   1.0000   1.0000
     1.0000   1.0000   1.0000   1.0000   1.0000   1.0000   1.0000   0.0034
     0.0034   0.0000   0.0000   0.0000   0.0000   0.0000

          k = 0.0000 0.0000-0.4812 (  9658 PWs)   bands (ev):

  -121.2617 -75.4194 -75.4193 -75.4193 -23.2492 -10.1888  -9.5390  -9.1952
    -7.4419  -7.4419  -5.9229  -2.1314  -2.1288  -2.1288  -2.1191  -2.1138
     1.2010   2.1340   2.4212   2.4212   2.6318   2.6318   2.8549   4.2970
     4.2970   4.8215   7.9100   9.5315   9.5315  10.5339

     occupation numbers 
     1.0000   1.0000   1.0000   1.0000   1.0000   1.0000   1.0000   1.0000
     1.0000   1.0000   1.0000   1.0000   1.0000   1.0000   1.0000   1.0000
     1.0000   1.0000   1.0000   1.0000   1.0000   1.0000   1.0000   0.0078
     0.0078   0.0000   0.0000   0.0000   0.0000   0.0000

          k = 0.0000 0.1203 0.1203 (  9629 PWs)   bands (ev):

  -121.2617 -75.4193 -75.4193 -75.4192 -23.2546  -9.7859  -9.4224  -9.2685
    -7.4523  -7.2076  -7.1628  -2.1236  -2.1209  -2.1207  -2.1202  -2.1195
     1.6401   2.1595   2.1690   2.9113   3.0246   3.1675   3.2335   4.1881
     4.2087   4.3787   9.5544   9.9379  10.0220  10.5386

     occupation numbers 
     1.0000   1.0000   1.0000   1.0000   1.0000   1.0000   1.0000   1.0000
     1.0000   1.0000   1.0000   1.0000   1.0000   1.0000   1.0000   1.0000
     1.0000   1.0000   1.0000   1.0000   1.0000   1.0000   1.0000   0.4382
     0.2799   0.0000   0.0000   0.0000   0.0000   0.0000

          k = 0.0000 0.1203 0.2406 (  9623 PWs)   bands (ev):

  -121.2617 -75.4193 -75.4193 -75.4192 -23.2519  -9.9229  -9.5760  -9.2838
    -7.4471  -7.1829  -6.6300  -2.1269  -2.1240  -2.1224  -2.1207  -2.1174
     1.3377   2.2254   2.2349   2.7276   2.9030   3.0293   3.1967   4.0360
     4.2763   4.3100   8.9042   9.6826   9.7709  10.6725

     occupation numbers 
     1.0000   1.0000   1.0000   1.0000   1.0000   1.0000   1.0000   1.0000
     1.0000   1.0000   1.0000   1.0000   1.0000   1.0000   1.0000   1.0000
     1.0000   1.0000   1.0000   1.0000   1.0000   1.0000   1.0000   0.9987
     0.0234   0.0036   0.0000   0.0000   0.0000   0.0000

          k = 0.0000 0.1203 0.3609 (  9640 PWs)   bands (ev):

  -121.2617 -75.4193 -75.4193 -75.4193 -23.2492 -10.1102  -9.6180  -9.2831
    -7.4419  -7.1779  -6.1271  -2.1295  -2.1275  -2.1255  -2.1207  -2.1152
     1.1364   2.2610   2.3487   2.4282   2.6156   2.7379   3.1729   4.0200
     4.2596   4.5842   8.3394   9.4519   9.5680  10.7453

     occupation numbers 
     1.0000   1.0000   1.0000   1.0000   1.0000   1.0000   1.0000   1.0000
     1.0000   1.0000   1.0000   1.0000   1.0000   1.0000   1.0000   1.0000
     1.0000   1.0000   1.0000   1.0000   1.0000   1.0000   1.0000   0.9996
     0.0503   0.0000   0.0000   0.0000   0.0000   0.0000

          k = 0.0000 0.1203-0.4812 (  9664 PWs)   bands (ev):

  -121.2617 -75.4194 -75.4194 -75.4193 -23.2481 -10.1860  -9.6245  -9.2820
    -7.4398  -7.1760  -5.9219  -2.1303  -2.1290  -2.1270  -2.1207  -2.1143
     1.0774   2.1176   2.3168   2.4413   2.5647   2.6230   3.1546   4.0091
     4.2431   4.7474   8.1132   9.3609   9.4860  10.7823

     occupation numbers 
     1.0000   1.0000   1.0000   1.0000   1.0000   1.0000   1.0000   1.0000
     1.0000   1.0000   1.0000   1.0000   1.0000   1.0000   1.0000   1.0000
     1.0000   1.0000   1.0000   1.0000   1.0000   1.0000   1.0000   0.9998
     0.0970   0.0000   0.0000   0.0000   0.0000   0.0000

          k = 0.0000 0.2406 0.2406 (  9661 PWs)   bands (ev):

  -121.2617 -75.4194 -75.4194 -75.4193 -23.2493  -9.9561  -9.7954  -9.3349
    -7.4420  -6.6634  -6.5945  -2.1280  -2.1244  -2.1242  -2.1210  -2.1177
     1.0811   2.2622   2.3033   2.4943   2.8192   2.9039   3.3330   3.6631
     4.2200   4.3834   8.7424   9.3696   9.6513  11.3940

     occupation numbers 
     1.0000   1.0000   1.0000   1.0000   1.0000   1.0000   1.0000   1.0000
     1.0000   1.0000   1.0000   1.0000   1.0000   1.0000   1.0000   1.0000
     1.0000   1.0000   1.0000   1.0000   1.0000   1.0000   1.0000   1.0000
     0.2065   0.0000   0.0000   0.0000   0.0000   0.0000

          k = 0.0000 0.2406 0.3609 (  9639 PWs)   bands (ev):

  -121.2617 -75.4193 -75.4193 -75.4193 -23.2466 -10.1045  -9.8652  -9.3439
    -7.4368  -6.6274  -6.1241  -2.1283  -2.1277  -2.1243  -2.1219  -2.1159
     0.8846   2.2004   2.3312   2.4043   2.5289   2.6971   3.3525   3.6198
     4.1487   4.5116   8.6274   9.1034   9.5005  11.4436

     occupation numbers 
     1.0000   1.0000   1.0000   1.0000   1.0000   1.0000   1.0000   1.0000
     1.0000   1.0000   1.0000   1.0000   1.0000   1.0000   1.0000   1.0000
     1.0000   1.0000   1.0000   1.0000   1.0000   1.0000   1.0000   1.0000
     0.7467   0.0000   0.0000   0.0000   0.0000   0.0000

          k = 0.0000 0.2406-0.4812 (  9604 PWs)   bands (ev):

  -121.2617 -75.4192 -75.4192 -75.4192 -23.2454 -10.1794  -9.8700  -9.3450
    -7.4347  -6.6253  -5.9193  -2.1291  -2.1283  -2.1242  -2.1225  -2.1149
     0.8175   2.0337   2.2959   2.4394   2.4910   2.6002   3.3774   3.6124
     4.1240   4.5636   8.6105   9.0010   9.4109  11.4603

     occupation numbers 
     1.0000   1.0000   1.0000   1.0000   1.0000   1.0000   1.0000   1.0000
     1.0000   1.0000   1.0000   1.0000   1.0000   1.0000   1.0000   1.0000
     1.0000   1.0000   1.0000   1.0000   1.0000   1.0000   1.0000   1.0000
     0.8805   0.0000   0.0000   0.0000   0.0000   0.0000

          k = 0.0000 0.3609 0.3609 (  9618 PWs)   bands (ev):

  -121.2617 -75.4193 -75.4192 -75.4192 -23.2439 -10.1115 -10.0717  -9.3569
    -7.4317  -6.1383  -6.1071  -2.1279  -2.1278  -2.1275  -2.1191  -2.1155
     0.6767   1.9865   2.3166   2.4687   2.4782   2.6353   2.9280   3.8669
     4.0535   4.4133   8.8047   8.9439   9.4545  12.3199

     occupation numbers 
     1.0000   1.0000   1.0000   1.0000   1.0000   1.0000   1.0000   1.0000
     1.0000   1.0000   1.0000   1.0000   1.0000   1.0000   1.0000   1.0000
     1.0000   1.0000   1.0000   1.0000   1.0000   1.0000   1.0000   1.0000
     0.9959   0.0000   0.0000   0.0000   0.0000   0.0000

          k = 0.0000 0.3609-0.4812 (  9622 PWs)   bands (ev):

  -121.2617 -75.4193 -75.4193 -75.4192 -23.2427 -10.1728 -10.0890  -9.3589
    -7.4295  -6.1218  -5.9168  -2.1294  -2.1280  -2.1276  -2.1181  -2.1149
     0.6007   1.8403   2.3540   2.3845   2.5425   2.5753   2.8305   3.9547
     4.0182   4.3709   8.6906   9.1387   9.3768  12.3760

     occupation numbers 
     1.0000   1.0000   1.0000   1.0000   1.0000   1.0000   1.0000   1.0000
     1.0000   1.0000   1.0000   1.0000   1.0000   1.0000   1.0000   1.0000
     1.0000   1.0000   1.0000   1.0000   1.0000   1.0000   1.0000   1.0000
     0.9996   0.0000   0.0000   0.0000   0.0000   0.0000

          k = 0.0000-0.4812-0.4812 (  9580 PWs)   bands (ev):

  -121.2617 -75.4192 -75.4192 -75.4191 -23.2416 -10.1701 -10.1701  -9.3611
    -7.4274  -5.9158  -5.9158  -2.1294  -2.1294  -2.1276  -2.1161  -2.1144
     0.5202   1.7160   2.3897   2.3897   2.5643   2.5643   2.6265   3.9778
     4.0762   4.2893   8.5723   9.3732   9.3732  12.9744

     occupation numbers 
     1.0000   1.0000   1.0000   1.0000   1.0000   1.0000   1.0000   1.0000
     1.0000   1.0000   1.0000   1.0000   1.0000   1.0000   1.0000   1.0000
     1.0000   1.0000   1.0000   1.0000   1.0000   1.0000   1.0000   1.0000
     0.9851   0.0120   0.0000   0.0000   0.0000   0.0000

          k = 0.1203 0.1203 0.1203 (  9615 PWs)   bands (ev):

  -121.2617 -75.4193 -75.4193 -75.4192 -23.2535  -9.8068  -9.4206  -9.4206
    -7.2299  -7.1610  -7.1610  -2.1234  -2.1234  -2.1217  -2.1192  -2.1192
     1.5146   2.1536   2.1536   2.9157   2.9157   3.2402   3.3019   4.1712
     4.1712   4.1924   9.1669  10.0147  10.0147  10.6956

     occupation numbers 
     1.0000   1.0000   1.0000   1.0000   1.0000   1.0000   1.0000   1.0000
     1.0000   1.0000   1.0000   1.0000   1.0000   1.0000   1.0000   1.0000
     1.0000   1.0000   1.0000   1.0000   1.0000   1.0000   1.0000   0.5777
     0.5777   0.4037   0.0000   0.0000   0.0000   0.0000

          k = 0.1203 0.1203 0.2406 (  9638 PWs)   bands (ev):

  -121.2617 -75.4193 -75.4193 -75.4193 -23.2508  -9.9251  -9.6106  -9.4163
    -7.2069  -7.1566  -6.6279  -2.1270  -2.1248  -2.1223  -2.1211  -2.1172
     1.2634   2.0990   2.2062   2.8028   2.8286   3.0679   3.2874   3.9665
     4.1300   4.2851   8.6832   9.6519   9.9081  10.8689

     occupation numbers 
     1.0000   1.0000   1.0000   1.0000   1.0000   1.0000   1.0000   1.0000
     1.0000   1.0000   1.0000   1.0000   1.0000   1.0000   1.0000   1.0000
     1.0000   1.0000   1.0000   1.0000   1.0000   1.0000   1.0000   1.0000
     0.8537   0.0150   0.0000   0.0000   0.0000   0.0000

          k = 0.1203 0.1203 0.3609 (  9642 PWs)   bands (ev):

  -121.2617 -75.4193 -75.4193 -75.4193 -23.2481 -10.1077  -9.6597  -9.4120
    -7.2014  -7.1522  -6.1259  -2.1291  -2.1266  -2.1245  -2.1222  -2.1151
     1.0773   2.0235   2.3009   2.3645   2.7684   2.8608   3.2806   3.8929
     4.0917   4.5360   8.3697   9.2670   9.7530  10.9762

     occupation numbers 
     1.0000   1.0000   1.0000   1.0000   1.0000   1.0000   1.0000   1.0000
     1.0000   1.0000   1.0000   1.0000   1.0000   1.0000   1.0000   1.0000
     1.0000   1.0000   1.0000   1.0000   1.0000   1.0000   1.0000   1.0000
     0.9677   0.0000   0.0000   0.0000   0.0000   0.0000

          k = 0.1203 0.1203-0.4812 (  9612 PWs)   bands (ev):

  -121.2617 -75.4193 -75.4192 -75.4192 -23.2470 -10.1834  -9.6668  -9.4102
    -7.1993  -7.1504  -5.9209  -2.1290  -2.1273  -2.1266  -2.1220  -2.1141
     1.0200   1.9881   2.0972   2.3554   2.7691   2.8042   3.2673   3.8681
     4.0775   4.6526   8.2754   9.0960   9.6848  11.0176

     occupation numbers 
     1.0000   1.0000   1.0000   1.0000   1.0000   1.0000   1.0000   1.0000
     1.0000   1.0000   1.0000   1.0000   1.0000   1.0000   1.0000   1.0000
     1.0000   1.0000   1.0000   1.0000   1.0000   1.0000   1.0000   1.0000
     0.9840   0.0000   0.0000   0.0000   0.0000   0.0000

          k = 0.1203 0.2406 0.2406 (  9628 PWs)   bands (ev):

  -121.2617 -75.4193 -75.4193 -75.4193 -23.2481  -9.9571  -9.7933  -9.5031
    -7.1802  -6.6603  -6.5932  -2.1274  -2.1254  -2.1241  -2.1196  -2.1170
     1.0737   2.0124   2.0821   2.6976   2.8896   2.9383   3.4151   3.6727
     4.0137   4.3382   8.4323   9.7049   9.7104  11.3953

     occupation numbers 
     1.0000   1.0000   1.0000   1.0000   1.0000   1.0000   1.0000   1.0000
     1.0000   1.0000   1.0000   1.0000   1.0000   1.0000   1.0000   1.0000
     1.0000   1.0000   1.0000   1.0000   1.0000   1.0000   1.0000   1.0000
     0.9997   0.0005   0.0000   0.0000   0.0000   0.0000

          k = 0.1203 0.2406 0.3609 (  9647 PWs)   bands (ev):

  -121.2617 -75.4194 -75.4193 -75.4193 -23.2454 -10.1022  -9.8659  -9.5115
    -7.1751  -6.6252  -6.1230  -2.1278  -2.1262  -2.1247  -2.1213  -2.1154
     0.9021   1.8872   2.0800   2.2862   2.8425   2.9660   3.3921   3.6231
     3.9462   4.4004   8.4654   9.2733   9.7097  11.6075

     occupation numbers 
     1.0000   1.0000   1.0000   1.0000   1.0000   1.0000   1.0000   1.0000
     1.0000   1.0000   1.0000   1.0000   1.0000   1.0000   1.0000   1.0000
     1.0000   1.0000   1.0000   1.0000   1.0000   1.0000   1.0000   1.0000
     1.0000   0.0000   0.0000   0.0000   0.0000   0.0000

          k = 0.1203 0.2406-0.4812 (  9632 PWs)   bands (ev):

  -121.2617 -75.4193 -75.4193 -75.4192 -23.2443 -10.1769  -9.8713  -9.5118
    -7.1731  -6.6231  -5.9184  -2.1273  -2.1268  -2.1247  -2.1225  -2.1145
     0.8411   1.8418   1.9856   2.1494   2.8464   2.9902   3.3594   3.6279
     3.9222   4.4190   8.7065   8.8914   9.6926  11.6486

     occupation numbers 
     1.0000   1.0000   1.0000   1.0000   1.0000   1.0000   1.0000   1.0000
     1.0000   1.0000   1.0000   1.0000   1.0000   1.0000   1.0000   1.0000
     1.0000   1.0000   1.0000   1.0000   1.0000   1.0000   1.0000   1.0000
     1.0000   0.0000   0.0000   0.0000   0.0000   0.0000

          k = 0.1203 0.3609 0.3609 (  9626 PWs)   bands (ev):

  -121.2617 -75.4193 -75.4192 -75.4192 -23.2427 -10.1093 -10.0694  -9.5262
    -7.1701  -6.1372  -6.1062  -2.1274  -2.1269  -2.1248  -2.1188  -2.1151
     0.7212   1.8403   1.9463   2.0677   2.7749   2.9886   3.1739   3.8355
     3.8706   4.2418   8.6593   9.3582   9.5194  12.3462

     occupation numbers 
     1.0000   1.0000   1.0000   1.0000   1.0000   1.0000   1.0000   1.0000
     1.0000   1.0000   1.0000   1.0000   1.0000   1.0000   1.0000   1.0000
     1.0000   1.0000   1.0000   1.0000   1.0000   1.0000   1.0000   1.0000
     1.0000   0.1018   0.0000   0.0000   0.0000   0.0000

          k = 0.1203 0.3609-0.4812 (  9642 PWs)   bands (ev):

  -121.2617 -75.4193 -75.4193 -75.4193 -23.2416 -10.1704 -10.0868  -9.5279
    -7.1682  -6.1208  -5.9160  -2.1274  -2.1272  -2.1252  -2.1179  -2.1146
     0.6506   1.7942   1.8628   1.9852   2.7234   3.0632   3.0975   3.7922
     3.9562   4.1742   8.8393   9.2075   9.5373  12.4759

     occupation numbers 
     1.0000   1.0000   1.0000   1.0000   1.0000   1.0000   1.0000   1.0000
     1.0000   1.0000   1.0000   1.0000   1.0000   1.0000   1.0000   1.0000
     1.0000   1.0000   1.0000   1.0000   1.0000   1.0000   1.0000   1.0000
     1.0000   0.5538   0.0000   0.0000   0.0000   0.0000

          k = 0.1203-0.4812-0.4812 (  9632 PWs)   bands (ev):

  -121.2617 -75.4193 -75.4192 -75.4192 -23.2405 -10.1678 -10.1678  -9.5298
    -7.1663  -5.9150  -5.9150  -2.1275  -2.1275  -2.1257  -2.1158  -2.1143
     0.5748   1.6905   1.8923   1.8923   2.6291   3.0890   3.0890   3.7354
     4.0671   4.0775   8.8522   9.4430   9.4430  13.0579

     occupation numbers 
     1.0000   1.0000   1.0000   1.0000   1.0000   1.0000   1.0000   1.0000
     1.0000   1.0000   1.0000   1.0000   1.0000   1.0000   1.0000   1.0000
     1.0000   1.0000   1.0000   1.0000   1.0000   1.0000   1.0000   1.0000
     0.9909   0.9840   0.0000   0.0000   0.0000   0.0000

          k = 0.2406 0.2406 0.2406 (  9651 PWs)   bands (ev):

  -121.2617 -75.4194 -75.4194 -75.4193 -23.2455  -9.9761  -9.7882  -9.7882
    -6.6989  -6.5900  -6.5900  -2.1264  -2.1264  -2.1242  -2.1172  -2.1172
     1.0138   1.7847   1.7847   2.6203   2.9663   2.9663   3.5594   3.6972
     3.6972   4.2337   8.2486   9.8461   9.8461  11.7151

     occupation numbers 
     1.0000   1.0000   1.0000   1.0000   1.0000   1.0000   1.0000   1.0000
     1.0000   1.0000   1.0000   1.0000   1.0000   1.0000   1.0000   1.0000
     1.0000   1.0000   1.0000   1.0000   1.0000   1.0000   1.0000   1.0000
     1.0000   0.1350   0.0000   0.0000   0.0000   0.0000

          k = 0.2406 0.2406 0.3609 (  9650 PWs)   bands (ev):

  -121.2617 -75.4194 -75.4193 -75.4193 -23.2428 -10.0970  -9.8970  -9.7832
    -6.6633  -6.5867  -6.1202  -2.1254  -2.1254  -2.1238  -2.1191  -2.1148
     0.9082   1.5627   1.7356   2.1809   3.0138   3.0479   3.5308   3.6520
     3.7178   4.1276   8.4637   9.5142   9.9690  12.0509

     occupation numbers 
     1.0000   1.0000   1.0000   1.0000   1.0000   1.0000   1.0000   1.0000
     1.0000   1.0000   1.0000   1.0000   1.0000   1.0000   1.0000   1.0000
     1.0000   1.0000   1.0000   1.0000   1.0000   1.0000   1.0000   1.0000
     1.0000   0.8648   0.0000   0.0000   0.0000   0.0000

          k = 0.2406 0.2406-0.4812 (  9626 PWs)   bands (ev):

  -121.2617 -75.4193 -75.4193 -75.4193 -23.2416 -10.1708  -9.9054  -9.7811
    -6.6605  -6.5854  -5.9162  -2.1250  -2.1232  -2.1231  -2.1217  -2.1139
     0.8618   1.4827   1.7232   1.9700   3.0311   3.1108   3.4483   3.6884
     3.7163   4.0797   8.9166   9.0118  10.0054  12.1333

     occupation numbers 
     1.0000   1.0000   1.0000   1.0000   1.0000   1.0000   1.0000   1.0000
     1.0000   1.0000   1.0000   1.0000   1.0000   1.0000   1.0000   1.0000
     1.0000   1.0000   1.0000   1.0000   1.0000   1.0000   1.0000   1.0000
     1.0000   0.9821   0.0000   0.0000   0.0000   0.0000

          k = 0.2406 0.3609 0.3609 (  9642 PWs)   bands (ev):

  -121.2617 -75.4193 -75.4193 -75.4193 -23.2401 -10.1043 -10.0639  -9.8328
    -6.6243  -6.1341  -6.1039  -2.1240  -2.1238  -2.1212  -2.1174  -2.1145
     0.8338   1.4547   1.5219   1.9178   2.8060   3.1223   3.5940   3.6386
     3.8493   3.8811   8.7787   9.7361   9.8789  12.5214

     occupation numbers 
     1.0000   1.0000   1.0000   1.0000   1.0000   1.0000   1.0000   1.0000
     1.0000   1.0000   1.0000   1.0000   1.0000   1.0000   1.0000   1.0000
     1.0000   1.0000   1.0000   1.0000   1.0000   1.0000   1.0000   1.0000
     1.0000   1.0000   0.0000   0.0000   0.0000   0.0000

          k = 0.2406 0.3609-0.4812 (  9644 PWs)   bands (ev):

  -121.2617 -75.4194 -75.4193 -75.4193 -23.2390 -10.1647 -10.0819  -9.8342
    -6.6220  -6.1181  -5.9139  -2.1237  -2.1224  -2.1204  -2.1174  -2.1139
     0.7840   1.4037   1.4953   1.7505   2.7417   3.1634   3.5769   3.6358
     3.7372   3.9687   9.1694   9.4459   9.9534  12.6679

     occupation numbers 
     1.0000   1.0000   1.0000   1.0000   1.0000   1.0000   1.0000   1.0000
     1.0000   1.0000   1.0000   1.0000   1.0000   1.0000   1.0000   1.0000
     1.0000   1.0000   1.0000   1.0000   1.0000   1.0000   1.0000   1.0000
     1.0000   1.0000   0.0000   0.0000   0.0000   0.0000

          k = 0.2406-0.4812-0.4812 (  9644 PWs)   bands (ev):

  -121.2617 -75.4193 -75.4193 -75.4193 -23.2378 -10.1622 -10.1622  -9.8363
    -6.6199  -5.9130  -5.9130  -2.1223  -2.1223  -2.1202  -2.1154  -2.1137
     0.7259   1.4265   1.4265   1.5937   2.6356   3.2083   3.5764   3.6140
     3.6140   4.0808   9.4851   9.6812   9.6812  12.8322

     occupation numbers 
     1.0000   1.0000   1.0000   1.0000   1.0000   1.0000   1.0000   1.0000
     1.0000   1.0000   1.0000   1.0000   1.0000   1.0000   1.0000   1.0000
     1.0000   1.0000   1.0000   1.0000   1.0000   1.0000   1.0000   1.0000
     1.0000   0.9811   0.0000   0.0000   0.0000   0.0000

          k = 0.3609 0.3609 0.3609 (  9675 PWs)   bands (ev):

  -121.2618 -75.4194 -75.4194 -75.4194 -23.2374 -10.1072 -10.0584 -10.0584
    -6.1519  -6.1016  -6.1016  -2.1199  -2.1199  -2.1195  -2.1147  -2.1147
     0.9231   1.2386   1.2386   1.6845   2.8191   2.8191   3.4521   3.8498
     3.8498   3.9203   9.1814  10.0698  10.0698  12.6784

     occupation numbers 
     1.0000   1.0000   1.0000   1.0000   1.0000   1.0000   1.0000   1.0000
     1.0000   1.0000   1.0000   1.0000   1.0000   1.0000   1.0000   1.0000
     1.0000   1.0000   1.0000   1.0000   1.0000   1.0000   1.0000   1.0000
     1.0000   1.0000   0.0000   0.0000   0.0000   0.0000

          k = 0.3609 0.3609-0.4812 (  9638 PWs)   bands (ev):

  -121.2617 -75.4193 -75.4193 -75.4193 -23.2363 -10.1589 -10.0886 -10.0562
    -6.1345  -6.1006  -5.9119  -2.1193  -2.1173  -2.1166  -2.1162  -2.1134
     0.9194   1.1399   1.2193   1.5408   2.7198   2.8237   3.2867   3.8763
     3.9307   3.9942   9.6201   9.8383  10.2625  12.6856

     occupation numbers 
     1.0000   1.0000   1.0000   1.0000   1.0000   1.0000   1.0000   1.0000
     1.0000   1.0000   1.0000   1.0000   1.0000   1.0000   1.0000   1.0000
     1.0000   1.0000   1.0000   1.0000   1.0000   1.0000   1.0000   1.0000
     1.0000   0.9999   0.0000   0.0000   0.0000   0.0000

          k = 0.3609-0.4812-0.4812 (  9660 PWs)   bands (ev):

  -121.2617 -75.4194 -75.4193 -75.4193 -23.2352 -10.1565 -10.1565 -10.0701
    -6.1168  -5.9111  -5.9111  -2.1168  -2.1168  -2.1152  -2.1147  -2.1132
     0.9186   1.1241   1.1241   1.4099   2.6421   2.7827   3.1033   3.9645
     3.9645   4.0840  10.0853  10.0853  10.1006  12.3978

     occupation numbers 
     1.0000   1.0000   1.0000   1.0000   1.0000   1.0000   1.0000   1.0000
     1.0000   1.0000   1.0000   1.0000   1.0000   1.0000   1.0000   1.0000
     1.0000   1.0000   1.0000   1.0000   1.0000   1.0000   1.0000   1.0000
     1.0000   0.9777   0.0000   0.0000   0.0000   0.0000

          k =-0.4812-0.4812-0.4812 (  9568 PWs)   bands (ev):

  -121.2617 -75.4191 -75.4191 -75.4191 -23.2340 -10.1542 -10.1542 -10.1542
    -5.9103  -5.9103  -5.9103  -2.1142  -2.1142  -2.1142  -2.1127  -2.1127
     1.0195   1.0195   1.0195   1.2947   2.6448   2.6448   2.8985   4.0854
     4.0854   4.0854  10.3611  10.3611  10.3611  12.2518

     occupation numbers 
     1.0000   1.0000   1.0000   1.0000   1.0000   1.0000   1.0000   1.0000
     1.0000   1.0000   1.0000   1.0000   1.0000   1.0000   1.0000   1.0000
     1.0000   1.0000   1.0000   1.0000   1.0000   1.0000   1.0000   0.9762
     0.9762   0.9762   0.0000   0.0000   0.0000   0.0000

     the Fermi energy is     4.1807 ev

!    total energy              =   -1275.90994085 Ry
     total all-electron energy =    -20435.055947 Ry
     estimated scf accuracy    <          4.4E-10 Ry
     smearing contrib. (-TS)   =      -0.00101888 Ry
     internal energy E=F+TS    =   -1275.90892197 Ry

     The total energy is F=E-TS. E is the sum of the following terms:
     one-electron contribution =    -489.88898899 Ry
     hartree contribution      =     263.98278422 Ry
     xc contribution           =     -79.49805030 Ry
     ewald contribution        =    -287.17232716 Ry
     one-center paw contrib.   =    -683.33233975 Ry
      -> PAW hartree energy AE =      39.19175199 Ry
      -> PAW hartree energy PS =     -38.97658843 Ry
      -> PAW xc energy AE      =     -66.41437656 Ry
      -> PAW xc energy PS      =      10.77383115 Ry
      -> total E_H with PAW    =     264.19794778 Ry
      -> total E_XC with PAW   =    -135.13859571 Ry

     convergence has been achieved in  12 iterations

     Forces acting on atoms (cartesian axes, Ry/au):

     atom    1 type  1   force =     0.00000000    0.00000000    0.00000000
     atom    2 type  2   force =     0.00000000    0.00000000    0.00000000
     atom    3 type  3   force =     0.00000000    0.00000000    0.00000000
     atom    4 type  3   force =     0.00000000    0.00000000    0.00000000
     atom    5 type  3   force =     0.00000000    0.00000000    0.00000000
     The non-local contrib.  to forces
     atom    1 type  1   force =     0.00000000    0.00000000    0.00000000
     atom    2 type  2   force =     0.00000000    0.00000000    0.00000000
     atom    3 type  3   force =     0.00000000    0.00000000    0.00000000
     atom    4 type  3   force =     0.00000000    0.00000000    0.00000000
     atom    5 type  3   force =     0.00000000    0.00000000    0.00000000
     The ionic contribution  to forces
     atom    1 type  1   force =    -0.00000000   -0.00000000   -0.00000000
     atom    2 type  2   force =     0.00000000    0.00000000    0.00000000
     atom    3 type  3   force =    -0.00000000   -0.00000000   -0.00000000
     atom    4 type  3   force =    -0.00000000   -0.00000000   -0.00000000
     atom    5 type  3   force =    -0.00000000   -0.00000000   -0.00000000
     The local contribution  to forces
     atom    1 type  1   force =    -0.00000000   -0.00000000    0.00000000
     atom    2 type  2   force =     0.00000000    0.00000000    0.00000000
     atom    3 type  3   force =    -0.00000000   -0.00000000   -0.00000000
     atom    4 type  3   force =    -0.00000000   -0.00000000   -0.00000000
     atom    5 type  3   force =    -0.00000000   -0.00000000   -0.00000000
     The core correction contribution to forces
     atom    1 type  1   force =    -0.00000000   -0.00000000    0.00000000
     atom    2 type  2   force =     0.00000000    0.00000000    0.00000000
     atom    3 type  3   force =    -0.00000000   -0.00000000   -0.00000000
     atom    4 type  3   force =     0.00000000   -0.00000000   -0.00000000
     atom    5 type  3   force =     0.00000000    0.00000000   -0.00000000
     The Hubbard contrib.    to forces
     atom    1 type  1   force =     0.00000000    0.00000000    0.00000000
     atom    2 type  2   force =     0.00000000    0.00000000    0.00000000
     atom    3 type  3   force =     0.00000000    0.00000000    0.00000000
     atom    4 type  3   force =     0.00000000    0.00000000    0.00000000
     atom    5 type  3   force =     0.00000000    0.00000000    0.00000000
     The SCF correction term to forces
     atom    1 type  1   force =     0.00000000    0.00000000    0.00000000
     atom    2 type  2   force =     0.00000000    0.00000000   -0.00000000
     atom    3 type  3   force =     0.00000000    0.00000000    0.00000000
     atom    4 type  3   force =     0.00000000    0.00000000    0.00000000
     atom    5 type  3   force =    -0.00000000   -0.00000000   -0.00000000

     Total force =     0.000000     Total SCF correction =     0.000000


     Computing stress (Cartesian axis) and pressure

          total   stress  (Ry/bohr**3)                   (kbar)     P=      141.83
   0.00096417   0.00000000   0.00000000          141.83        0.00        0.00
   0.00000000   0.00096417   0.00000000            0.00      141.83        0.00
   0.00000000   0.00000000   0.00096417            0.00        0.00      141.83

     kinetic stress (kbar)  15950.00      0.00      0.00
                                0.00  15950.00      0.00
                                0.00      0.00  15950.00

     local   stress (kbar)  -9001.15      0.00      0.00
                                0.00  -9001.15      0.00
                                0.00      0.00  -9001.15

     nonloc. stress (kbar)  -1687.33      0.00      0.00
                                0.00  -1687.33      0.00
                                0.00      0.00  -1687.33

     hartree stress (kbar)  14464.79      0.00      0.00
                                0.00  14464.79      0.00
                                0.00      0.00  14464.79

     exc-cor stress (kbar)  -1625.17     -0.00     -0.00
                               -0.00  -1625.17     -0.00
                               -0.00     -0.00  -1625.17

     corecor stress (kbar)  -2223.86     -0.00     -0.00
                               -0.00  -2223.86     -0.00
                               -0.00     -0.00  -2223.86

     ewald   stress (kbar) -15735.45      0.00     -0.00
                                0.00 -15735.45     -0.00
                               -0.00     -0.00 -15735.45

     hubbard stress (kbar)      0.00      0.00      0.00
                                0.00      0.00      0.00
                                0.00      0.00      0.00

     DFT-D   stress (kbar)      0.00      0.00      0.00
                                0.00      0.00      0.00
                                0.00      0.00      0.00

     XDM     stress (kbar)      0.00      0.00      0.00
                                0.00      0.00      0.00
                                0.00      0.00      0.00

     dft-nl  stress (kbar)      0.00      0.00      0.00
                                0.00      0.00      0.00
                                0.00      0.00      0.00

     TS-vdW  stress (kbar)      0.00      0.00      0.00
                                0.00      0.00      0.00
                                0.00      0.00      0.00

     MDB     stress (kbar)      0.00      0.00      0.00
                                0.00      0.00      0.00
                                0.00      0.00      0.00

     3D-RISM stress (kbar)      0.00      0.00      0.00
                                0.00      0.00      0.00
                                0.00      0.00      0.00

     Energy error            =      1.2E-01 Ry
     Gradient error          =      0.0E+00 Ry/Bohr
     Cell gradient error     =      1.4E+02 kbar

     number of scf cycles    =   2
     number of bfgs steps    =   1

     enthalpy           old  =   -1275.7892532806 Ry
     enthalpy           new  =   -1275.9099408544 Ry

     CASE: enthalpy          _new < enthalpy          _old

     new trust radius        =       0.2479737093 bohr
     new conv_thr            =            1.0E-10 Ry

     new unit-cell volume =   1010.83715 a.u.^3 (   149.79061 Ang^3 )
     density =      3.81560 g/cm^3

CELL_PARAMETERS (angstrom)
   5.310819375   0.000000000   0.000000000
   0.000000000   5.310819375   0.000000000
   0.000000000   0.000000000   5.310819375

ATOMIC_POSITIONS (crystal)
K                0.0000000000        0.0000000000        0.0000000000
Zn               0.5000000000        0.5000000000        0.5000000000
Br               0.5000000000        0.0000000000        0.0000000000
Br               0.0000000000        0.5000000000        0.0000000000
Br               0.0000000000        0.0000000000        0.5000000000



     Writing config-only to output data dir ./tmp/kznbr3.save/ :
     XML data file
     NEW-OLD atomic charge density approx. for the potential

     total cpu time spent up to now is      505.6 secs

     Self-consistent Calculation

     iteration #  1     ecut=    80.00 Ry     beta= 0.40
     Davidson diagonalization with overlap

---- Real-time Memory Report at c_bands before calling an iterative solver
           234 MiB given to the printing process from OS
             0 MiB allocation reported by mallinfo(arena+hblkhd)
         46618 MiB available memory on the node where the printing process lives
------------------
     ethr =  1.00E-06,  avg # of iterations =  7.6

     total cpu time spent up to now is      544.5 secs

     total energy              =   -1275.94742281 Ry
     estimated scf accuracy    <       0.04750431 Ry

     iteration #  2     ecut=    80.00 Ry     beta= 0.40
     Davidson diagonalization with overlap

---- Real-time Memory Report at c_bands before calling an iterative solver
           234 MiB given to the printing process from OS
             0 MiB allocation reported by mallinfo(arena+hblkhd)
         46723 MiB available memory on the node where the printing process lives
------------------
     ethr =  9.50E-05,  avg # of iterations =  2.3

     total cpu time spent up to now is      561.8 secs

     total energy              =   -1275.96380026 Ry
     estimated scf accuracy    <       0.15206926 Ry

     iteration #  3     ecut=    80.00 Ry     beta= 0.40
     Davidson diagonalization with overlap

---- Real-time Memory Report at c_bands before calling an iterative solver
           234 MiB given to the printing process from OS
             0 MiB allocation reported by mallinfo(arena+hblkhd)
         46433 MiB available memory on the node where the printing process lives
------------------
     ethr =  9.50E-05,  avg # of iterations =  2.0

     total cpu time spent up to now is      577.9 secs

     total energy              =   -1275.98420691 Ry
     estimated scf accuracy    <       0.00197827 Ry

     iteration #  4     ecut=    80.00 Ry     beta= 0.40
     Davidson diagonalization with overlap

---- Real-time Memory Report at c_bands before calling an iterative solver
           234 MiB given to the printing process from OS
             0 MiB allocation reported by mallinfo(arena+hblkhd)
         46484 MiB available memory on the node where the printing process lives
------------------
     ethr =  3.96E-06,  avg # of iterations =  2.1

     total cpu time spent up to now is      593.8 secs

     total energy              =   -1275.99022956 Ry
     estimated scf accuracy    <       0.00156975 Ry

     iteration #  5     ecut=    80.00 Ry     beta= 0.40
     Davidson diagonalization with overlap

---- Real-time Memory Report at c_bands before calling an iterative solver
           234 MiB given to the printing process from OS
             0 MiB allocation reported by mallinfo(arena+hblkhd)
         46652 MiB available memory on the node where the printing process lives
------------------
     ethr =  3.14E-06,  avg # of iterations =  2.0

     total cpu time spent up to now is      610.4 secs

     total energy              =   -1275.99337180 Ry
     estimated scf accuracy    <       0.00087010 Ry

     iteration #  6     ecut=    80.00 Ry     beta= 0.40
     Davidson diagonalization with overlap

---- Real-time Memory Report at c_bands before calling an iterative solver
           234 MiB given to the printing process from OS
             0 MiB allocation reported by mallinfo(arena+hblkhd)
         46515 MiB available memory on the node where the printing process lives
------------------
     ethr =  1.74E-06,  avg # of iterations =  2.0

     total cpu time spent up to now is      626.8 secs

     total energy              =   -1275.99492268 Ry
     estimated scf accuracy    <       0.00035244 Ry

     iteration #  7     ecut=    80.00 Ry     beta= 0.40
     Davidson diagonalization with overlap

---- Real-time Memory Report at c_bands before calling an iterative solver
           234 MiB given to the printing process from OS
             0 MiB allocation reported by mallinfo(arena+hblkhd)
         46512 MiB available memory on the node where the printing process lives
------------------
     ethr =  7.05E-07,  avg # of iterations =  2.2

     total cpu time spent up to now is      643.8 secs

     total energy              =   -1275.99559065 Ry
     estimated scf accuracy    <       0.00008368 Ry

     iteration #  8     ecut=    80.00 Ry     beta= 0.40
     Davidson diagonalization with overlap

---- Real-time Memory Report at c_bands before calling an iterative solver
           234 MiB given to the printing process from OS
             0 MiB allocation reported by mallinfo(arena+hblkhd)
         46410 MiB available memory on the node where the printing process lives
------------------
     ethr =  1.67E-07,  avg # of iterations =  3.1

     total cpu time spent up to now is      663.7 secs

     total energy              =   -1275.99562890 Ry
     estimated scf accuracy    <       0.00000700 Ry

     iteration #  9     ecut=    80.00 Ry     beta= 0.40
     Davidson diagonalization with overlap

---- Real-time Memory Report at c_bands before calling an iterative solver
           234 MiB given to the printing process from OS
             0 MiB allocation reported by mallinfo(arena+hblkhd)
         46431 MiB available memory on the node where the printing process lives
------------------
     ethr =  1.40E-08,  avg # of iterations =  2.0

     total cpu time spent up to now is      679.8 secs

     total energy              =   -1275.99563083 Ry
     estimated scf accuracy    <       0.00000025 Ry

     iteration # 10     ecut=    80.00 Ry     beta= 0.40
     Davidson diagonalization with overlap

---- Real-time Memory Report at c_bands before calling an iterative solver
           234 MiB given to the printing process from OS
             0 MiB allocation reported by mallinfo(arena+hblkhd)
         46599 MiB available memory on the node where the printing process lives
------------------
     ethr =  4.98E-10,  avg # of iterations =  3.0

     total cpu time spent up to now is      700.1 secs

     total energy              =   -1275.99563094 Ry
     estimated scf accuracy    <       0.00000004 Ry

     iteration # 11     ecut=    80.00 Ry     beta= 0.40
     Davidson diagonalization with overlap

---- Real-time Memory Report at c_bands before calling an iterative solver
           234 MiB given to the printing process from OS
             0 MiB allocation reported by mallinfo(arena+hblkhd)
         46445 MiB available memory on the node where the printing process lives
------------------
     ethr =  7.83E-11,  avg # of iterations =  3.9

     total cpu time spent up to now is      722.4 secs

     total energy              =   -1275.99563100 Ry
     estimated scf accuracy    <       0.00000007 Ry

     iteration # 12     ecut=    80.00 Ry     beta= 0.40
     Davidson diagonalization with overlap

---- Real-time Memory Report at c_bands before calling an iterative solver
           234 MiB given to the printing process from OS
             0 MiB allocation reported by mallinfo(arena+hblkhd)
         46542 MiB available memory on the node where the printing process lives
------------------
     ethr =  7.83E-11,  avg # of iterations =  2.4

     total cpu time spent up to now is      740.6 secs

     total energy              =   -1275.99563101 Ry
     estimated scf accuracy    <          2.4E-10 Ry

     iteration # 13     ecut=    80.00 Ry     beta= 0.40
     Davidson diagonalization with overlap

---- Real-time Memory Report at c_bands before calling an iterative solver
           234 MiB given to the printing process from OS
             0 MiB allocation reported by mallinfo(arena+hblkhd)
         46450 MiB available memory on the node where the printing process lives
------------------
     ethr =  4.78E-13,  avg # of iterations =  3.5

     total cpu time spent up to now is      762.2 secs

     total energy              =   -1275.99563101 Ry
     estimated scf accuracy    <          1.6E-10 Ry

     iteration # 14     ecut=    80.00 Ry     beta= 0.40
     Davidson diagonalization with overlap

---- Real-time Memory Report at c_bands before calling an iterative solver
           234 MiB given to the printing process from OS
             0 MiB allocation reported by mallinfo(arena+hblkhd)
         46642 MiB available memory on the node where the printing process lives
------------------
     ethr =  3.22E-13,  avg # of iterations =  2.0

     total cpu time spent up to now is      779.3 secs

     total energy              =   -1275.99563101 Ry
     estimated scf accuracy    <          4.3E-10 Ry

     iteration # 15     ecut=    80.00 Ry     beta= 0.40
     Davidson diagonalization with overlap

---- Real-time Memory Report at c_bands before calling an iterative solver
           234 MiB given to the printing process from OS
             0 MiB allocation reported by mallinfo(arena+hblkhd)
         46531 MiB available memory on the node where the printing process lives
------------------
     ethr =  3.22E-13,  avg # of iterations =  2.0

     total cpu time spent up to now is      796.8 secs

     End of self-consistent calculation

          k = 0.0000 0.0000 0.0000 (  9771 PWs)   bands (ev):

  -122.5579 -76.7142 -76.7142 -76.7142 -24.3270 -10.6697 -10.2631 -10.2631
    -8.3351  -8.3351  -8.3351  -3.4121  -3.4121  -3.4110  -3.4110  -3.4110
     1.0997   1.0997   1.0997   1.5820   2.0059   2.0059   2.0059   2.9637
     2.9637   2.9637   8.9072   9.3224   9.3224   9.3224

     occupation numbers 
     1.0000   1.0000   1.0000   1.0000   1.0000   1.0000   1.0000   1.0000
     1.0000   1.0000   1.0000   1.0000   1.0000   1.0000   1.0000   1.0000
     1.0000   1.0000   1.0000   1.0000   1.0000   1.0000   1.0000   0.0001
     0.0001   0.0001   0.0000   0.0000   0.0000   0.0000

          k = 0.0000 0.0000 0.1155 (  9667 PWs)   bands (ev):

  -122.5578 -76.7141 -76.7141 -76.7141 -24.3264 -10.6909 -10.3504 -10.2621
    -8.3338  -8.3338  -8.1600  -3.4128  -3.4115  -3.4115  -3.4113  -3.4108
     0.8509   1.1272   1.1272   1.8158   1.9683   1.9683   1.9754   2.8111
     2.9372   2.9372   8.3721   8.7033   8.7033   9.3621

     occupation numbers 
     1.0000   1.0000   1.0000   1.0000   1.0000   1.0000   1.0000   1.0000
     1.0000   1.0000   1.0000   1.0000   1.0000   1.0000   1.0000   1.0000
     1.0000   1.0000   1.0000   1.0000   1.0000   1.0000   1.0000   0.2419
     0.0004   0.0004   0.0000   0.0000   0.0000   0.0000

          k = 0.0000 0.0000 0.2310 (  9618 PWs)   bands (ev):

  -122.5577 -76.7141 -76.7141 -76.7141 -24.3249 -10.7795 -10.4744 -10.2599
    -8.3307  -8.3307  -7.7786  -3.4147  -3.4132  -3.4132  -3.4106  -3.4097
     0.5474   1.2079   1.2079   1.7751   1.8572   1.8572   1.9041   2.7999
     2.8847   2.8847   7.5735   8.4233   8.4233   9.4662

     occupation numbers 
     1.0000   1.0000   1.0000   1.0000   1.0000   1.0000   1.0000   1.0000
     1.0000   1.0000   1.0000   1.0000   1.0000   1.0000   1.0000   1.0000
     1.0000   1.0000   1.0000   1.0000   1.0000   1.0000   1.0000   0.3197
     0.0128   0.0128   0.0000   0.0000   0.0000   0.0000

          k = 0.0000 0.0000 0.3465 (  9634 PWs)   bands (ev):

  -122.5577 -76.7141 -76.7141 -76.7141 -24.3235 -10.9037 -10.5207 -10.2576
    -8.3276  -8.3276  -7.4258  -3.4166  -3.4151  -3.4151  -3.4105  -3.4082
     0.3674   1.3359   1.3359   1.3501   1.6916   1.6916   1.8358   2.8464
     2.8464   3.1181   6.9409   8.2119   8.2119   9.5859

     occupation numbers 
     1.0000   1.0000   1.0000   1.0000   1.0000   1.0000   1.0000   1.0000
     1.0000   1.0000   1.0000   1.0000   1.0000   1.0000   1.0000   1.0000
     1.0000   1.0000   1.0000   1.0000   1.0000   1.0000   1.0000   0.0758
     0.0758   0.0000   0.0000   0.0000   0.0000   0.0000

          k = 0.0000 0.0000-0.4620 (  9658 PWs)   bands (ev):

  -122.5578 -76.7141 -76.7141 -76.7141 -24.3229 -10.9572 -10.5297 -10.2567
    -8.3263  -8.3263  -7.2831  -3.4175  -3.4159  -3.4159  -3.4105  -3.4078
     0.3177   1.1406   1.4759   1.4759   1.5343   1.5343   1.8083   2.8340
     2.8340   3.2819   6.6895   8.1336   8.1336   9.6416

     occupation numbers 
     1.0000   1.0000   1.0000   1.0000   1.0000   1.0000   1.0000   1.0000
     1.0000   1.0000   1.0000   1.0000   1.0000   1.0000   1.0000   1.0000
     1.0000   1.0000   1.0000   1.0000   1.0000   1.0000   1.0000   0.1196
     0.1196   0.0000   0.0000   0.0000   0.0000   0.0000

          k = 0.0000 0.1155 0.1155 (  9629 PWs)   bands (ev):

  -122.5577 -76.7141 -76.7141 -76.7141 -24.3258 -10.7066 -10.3998 -10.3040
    -8.3325  -8.1713  -8.1468  -3.4132  -3.4115  -3.4114  -3.4113  -3.4112
     0.6933   1.1538   1.1609   1.8435   1.9160   1.9362   2.0472   2.7853
     2.8104   2.9072   8.1112   8.5432   8.5499   9.5994

     occupation numbers 
     1.0000   1.0000   1.0000   1.0000   1.0000   1.0000   1.0000   1.0000
     1.0000   1.0000   1.0000   1.0000   1.0000   1.0000   1.0000   1.0000
     1.0000   1.0000   1.0000   1.0000   1.0000   1.0000   1.0000   0.4345
     0.2458   0.0035   0.0000   0.0000   0.0000   0.0000

          k = 0.0000 0.1155 0.2310 (  9623 PWs)   bands (ev):

  -122.5577 -76.7141 -76.7141 -76.7141 -24.3244 -10.7820 -10.5224 -10.3153
    -8.3295  -8.1573  -7.7774  -3.4150  -3.4132  -3.4125  -3.4114  -3.4099
     0.4451   1.2255   1.2318   1.6725   1.7907   1.8389   2.0705   2.6684
     2.8464   2.8742   7.5326   8.2925   8.3231   9.7188

     occupation numbers 
     1.0000   1.0000   1.0000   1.0000   1.0000   1.0000   1.0000   1.0000
     1.0000   1.0000   1.0000   1.0000   1.0000   1.0000   1.0000   1.0000
     1.0000   1.0000   1.0000   1.0000   1.0000   1.0000   1.0000   0.9882
     0.0757   0.0221   0.0000   0.0000   0.0000   0.0000

          k = 0.0000 0.1155 0.3465 (  9640 PWs)   bands (ev):

  -122.5577 -76.7141 -76.7141 -76.7141 -24.3229 -10.9023 -10.5699 -10.3151
    -8.3264  -8.1544  -7.4251  -3.4164  -3.4151  -3.4141  -3.4114  -3.4085
     0.2810   1.2809   1.3479   1.3549   1.5751   1.6886   2.0618   2.6391
     2.8005   3.1055   7.0434   8.0859   8.1459   9.8061

     occupation numbers 
     1.0000   1.0000   1.0000   1.0000   1.0000   1.0000   1.0000   1.0000
     1.0000   1.0000   1.0000   1.0000   1.0000   1.0000   1.0000   1.0000
     1.0000   1.0000   1.0000   1.0000   1.0000   1.0000   1.0000   0.9980
     0.3153   0.0000   0.0000   0.0000   0.0000   0.0000

          k = 0.0000 0.1155-0.4620 (  9664 PWs)   bands (ev):

  -122.5578 -76.7142 -76.7141 -76.7141 -24.3223 -10.9556 -10.5785 -10.3146
    -8.3251  -8.1532  -7.2825  -3.4168  -3.4159  -3.4149  -3.4114  -3.4080
     0.2321   1.1142   1.3748   1.4905   1.4933   1.5397   2.0510   2.6273
     2.7854   3.2252   6.8529   8.0079   8.0764   9.8475

     occupation numbers 
     1.0000   1.0000   1.0000   1.0000   1.0000   1.0000   1.0000   1.0000
     1.0000   1.0000   1.0000   1.0000   1.0000   1.0000   1.0000   1.0000
     1.0000   1.0000   1.0000   1.0000   1.0000   1.0000   1.0000   0.9991
     0.4340   0.0000   0.0000   0.0000   0.0000   0.0000

          k = 0.0000 0.2310 0.2310 (  9661 PWs)   bands (ev):

  -122.5578 -76.7142 -76.7141 -76.7141 -24.3229 -10.8060 -10.6620 -10.3593
    -8.3264  -7.7968  -7.7561  -3.4155  -3.4133  -3.4133  -3.4117  -3.4099
     0.2470   1.2677   1.3011   1.4453   1.7069   1.7790   2.1660   2.4296
     2.7638   2.9522   7.4014   8.0358   8.1733  10.3299

     occupation numbers 
     1.0000   1.0000   1.0000   1.0000   1.0000   1.0000   1.0000   1.0000
     1.0000   1.0000   1.0000   1.0000   1.0000   1.0000   1.0000   1.0000
     1.0000   1.0000   1.0000   1.0000   1.0000   1.0000   1.0000   1.0000
     0.6111   0.0001   0.0000   0.0000   0.0000   0.0000

          k = 0.0000 0.2310 0.3465 (  9639 PWs)   bands (ev):

  -122.5577 -76.7141 -76.7141 -76.7141 -24.3215 -10.8992 -10.7256 -10.3691
    -8.3233  -7.7754  -7.4233  -3.4156  -3.4151  -3.4133  -3.4122  -3.4088
     0.0945   1.1595   1.3204   1.4079   1.5085   1.6740   2.1613   2.4123
     2.6955   3.0432   7.2867   7.8180   8.0369  10.3954

     occupation numbers 
     1.0000   1.0000   1.0000   1.0000   1.0000   1.0000   1.0000   1.0000
     1.0000   1.0000   1.0000   1.0000   1.0000   1.0000   1.0000   1.0000
     1.0000   1.0000   1.0000   1.0000   1.0000   1.0000   1.0000   1.0000
     0.9557   0.0000   0.0000   0.0000   0.0000   0.0000

          k = 0.0000 0.2310-0.4620 (  9604 PWs)   bands (ev):

  -122.5577 -76.7141 -76.7141 -76.7141 -24.3209 -10.9515 -10.7327 -10.3707
    -8.3220  -7.7741  -7.2810  -3.4158  -3.4154  -3.4132  -3.4125  -3.4082
     0.0426   1.0069   1.3446   1.4272   1.5263   1.5541   2.1745   2.4107
     2.6713   3.0818   7.2553   7.7348   7.9688  10.4140

     occupation numbers 
     1.0000   1.0000   1.0000   1.0000   1.0000   1.0000   1.0000   1.0000
     1.0000   1.0000   1.0000   1.0000   1.0000   1.0000   1.0000   1.0000
     1.0000   1.0000   1.0000   1.0000   1.0000   1.0000   1.0000   1.0000
     0.9863   0.0000   0.0000   0.0000   0.0000   0.0000

          k = 0.0000 0.3465 0.3465 (  9618 PWs)   bands (ev):

  -122.5577 -76.7141 -76.7141 -76.7141 -24.3201 -10.9061 -10.8699 -10.3839
    -8.3202  -7.4316  -7.4131  -3.4151  -3.4151  -3.4149  -3.4106  -3.4084
    -0.0645   0.9412   1.3478   1.4721   1.4842   1.6350   1.8589   2.5985
     2.6093   2.9609   7.5429   7.5834   7.9562  11.1476

     occupation numbers 
     1.0000   1.0000   1.0000   1.0000   1.0000   1.0000   1.0000   1.0000
     1.0000   1.0000   1.0000   1.0000   1.0000   1.0000   1.0000   1.0000
     1.0000   1.0000   1.0000   1.0000   1.0000   1.0000   1.0000   0.9999
     0.9998   0.0001   0.0000   0.0000   0.0000   0.0000

          k = 0.0000 0.3465-0.4620 (  9622 PWs)   bands (ev):

  -122.5577 -76.7141 -76.7141 -76.7141 -24.3195 -10.9475 -10.8865 -10.3866
    -8.3190  -7.4218  -7.2796  -3.4159  -3.4152  -3.4148  -3.4102  -3.4080
    -0.1235   0.8246   1.3930   1.4102   1.5631   1.5709   1.7820   2.5608
     2.6773   2.9260   7.4930   7.6832   7.8951  11.1825

     occupation numbers 
     1.0000   1.0000   1.0000   1.0000   1.0000   1.0000   1.0000   1.0000
     1.0000   1.0000   1.0000   1.0000   1.0000   1.0000   1.0000   1.0000
     1.0000   1.0000   1.0000   1.0000   1.0000   1.0000   1.0000   1.0000
     0.9812   0.0010   0.0000   0.0000   0.0000   0.0000

          k = 0.0000-0.4620-0.4620 (  9580 PWs)   bands (ev):

  -122.5577 -76.7141 -76.7141 -76.7141 -24.3189 -10.9458 -10.9458 -10.3897
    -8.3177  -7.2789  -7.2789  -3.4159  -3.4159  -3.4146  -3.4090  -3.4077
    -0.1864   0.7249   1.4254   1.4254   1.5787   1.5787   1.6280   2.5157
     2.7723   2.8579   7.3998   7.8728   7.8728  11.6772

     occupation numbers 
     1.0000   1.0000   1.0000   1.0000   1.0000   1.0000   1.0000   1.0000
     1.0000   1.0000   1.0000   1.0000   1.0000   1.0000   1.0000   1.0000
     1.0000   1.0000   1.0000   1.0000   1.0000   1.0000   1.0000   1.0000
     0.5422   0.0471   0.0000   0.0000   0.0000   0.0000

          k = 0.1155 0.1155 0.1155 (  9615 PWs)   bands (ev):

  -122.5577 -76.7141 -76.7141 -76.7141 -24.3252 -10.7192 -10.3987 -10.3987
    -8.1830  -8.1457  -8.1457  -3.4130  -3.4130  -3.4119  -3.4108  -3.4108
     0.5881   1.1615   1.1615   1.8399   1.8399   1.9559   2.1061   2.7713
     2.7713   2.8007   7.8101   8.5199   8.5199   9.7242

     occupation numbers 
     1.0000   1.0000   1.0000   1.0000   1.0000   1.0000   1.0000   1.0000
     1.0000   1.0000   1.0000   1.0000   1.0000   1.0000   1.0000   1.0000
     1.0000   1.0000   1.0000   1.0000   1.0000   1.0000   1.0000   0.5501
     0.5501   0.3141   0.0000   0.0000   0.0000   0.0000

          k = 0.1155 0.1155 0.2310 (  9638 PWs)   bands (ev):

  -122.5577 -76.7141 -76.7141 -76.7141 -24.3238 -10.7845 -10.5441 -10.3962
    -8.1699  -8.1430  -7.7762  -3.4149  -3.4136  -3.4122  -3.4118  -3.4097
     0.3851   1.1543   1.2174   1.6980   1.7211   1.8611   2.1474   2.6099
     2.7364   2.8791   7.3813   8.2189   8.4225   9.8867

     occupation numbers 
     1.0000   1.0000   1.0000   1.0000   1.0000   1.0000   1.0000   1.0000
     1.0000   1.0000   1.0000   1.0000   1.0000   1.0000   1.0000   1.0000
     1.0000   1.0000   1.0000   1.0000   1.0000   1.0000   1.0000   0.9998
     0.8027   0.0172   0.0000   0.0000   0.0000   0.0000

          k = 0.1155 0.1155 0.3465 (  9642 PWs)   bands (ev):

  -122.5577 -76.7141 -76.7141 -76.7141 -24.3223 -10.9008 -10.5974 -10.3936
    -8.1667  -8.1403  -7.4244  -3.4161  -3.4146  -3.4136  -3.4121  -3.4084
     0.2371   1.1311   1.2769   1.3094   1.6612   1.8027   2.1484   2.5252
     2.7029   3.0666   7.0884   7.9030   8.2996   9.9952

     occupation numbers 
     1.0000   1.0000   1.0000   1.0000   1.0000   1.0000   1.0000   1.0000
     1.0000   1.0000   1.0000   1.0000   1.0000   1.0000   1.0000   1.0000
     1.0000   1.0000   1.0000   1.0000   1.0000   1.0000   1.0000   1.0000
     0.9392   0.0000   0.0000   0.0000   0.0000   0.0000

          k = 0.1155 0.1155-0.4620 (  9612 PWs)   bands (ev):

  -122.5577 -76.7141 -76.7141 -76.7141 -24.3217 -10.9539 -10.6065 -10.3926
    -8.1655  -8.1392  -7.2819  -3.4160  -3.4150  -3.4147  -3.4120  -3.4078
     0.1915   1.0827   1.1164   1.3523   1.6492   1.7686   2.1410   2.4968
     2.6902   3.1539   6.9915   7.7696   8.2464  10.0373

     occupation numbers 
     1.0000   1.0000   1.0000   1.0000   1.0000   1.0000   1.0000   1.0000
     1.0000   1.0000   1.0000   1.0000   1.0000   1.0000   1.0000   1.0000
     1.0000   1.0000   1.0000   1.0000   1.0000   1.0000   1.0000   1.0000
     0.9651   0.0000   0.0000   0.0000   0.0000   0.0000

          k = 0.1155 0.2310 0.2310 (  9628 PWs)   bands (ev):

  -122.5577 -76.7141 -76.7141 -76.7141 -24.3223 -10.8073 -10.6607 -10.4634
    -8.1550  -7.7951  -7.7553  -3.4151  -3.4139  -3.4132  -3.4110  -3.4095
     0.2394   1.0992   1.1489   1.5220   1.7694   1.7969   2.2425   2.4369
     2.6398   2.9143   7.1871   8.2235   8.2597  10.3297

     occupation numbers 
     1.0000   1.0000   1.0000   1.0000   1.0000   1.0000   1.0000   1.0000
     1.0000   1.0000   1.0000   1.0000   1.0000   1.0000   1.0000   1.0000
     1.0000   1.0000   1.0000   1.0000   1.0000   1.0000   1.0000   1.0000
     0.9979   0.0022   0.0000   0.0000   0.0000   0.0000

          k = 0.1155 0.2310 0.3465 (  9647 PWs)   bands (ev):

  -122.5577 -76.7141 -76.7141 -76.7141 -24.3209 -10.8979 -10.7270 -10.4725
    -8.1520  -7.7741  -7.4226  -3.4152  -3.4143  -3.4134  -3.4119  -3.4085
     0.1101   1.0087   1.1202   1.2276   1.7321   1.8639   2.1979   2.4136
     2.5805   2.9586   7.1985   7.8787   8.2421  10.5159

     occupation numbers 
     1.0000   1.0000   1.0000   1.0000   1.0000   1.0000   1.0000   1.0000
     1.0000   1.0000   1.0000   1.0000   1.0000   1.0000   1.0000   1.0000
     1.0000   1.0000   1.0000   1.0000   1.0000   1.0000   1.0000   1.0000
     1.0000   0.0001   0.0000   0.0000   0.0000   0.0000

          k = 0.1155 0.2310-0.4620 (  9632 PWs)   bands (ev):

  -122.5577 -76.7141 -76.7141 -76.7141 -24.3203 -10.9500 -10.7347 -10.4735
    -8.1509  -7.7729  -7.2805  -3.4149  -3.4146  -3.4134  -3.4125  -3.4080
     0.0647   0.9627   0.9882   1.2087   1.7292   1.9141   2.1409   2.4229
     2.5593   2.9740   7.3515   7.5953   8.2322  10.5521

     occupation numbers 
     1.0000   1.0000   1.0000   1.0000   1.0000   1.0000   1.0000   1.0000
     1.0000   1.0000   1.0000   1.0000   1.0000   1.0000   1.0000   1.0000
     1.0000   1.0000   1.0000   1.0000   1.0000   1.0000   1.0000   1.0000
     1.0000   0.0000   0.0000   0.0000   0.0000   0.0000

          k = 0.1155 0.3465 0.3465 (  9626 PWs)   bands (ev):

  -122.5577 -76.7141 -76.7141 -76.7141 -24.3195 -10.9048 -10.8685 -10.4892
    -8.1491  -7.4310  -7.4125  -3.4148  -3.4146  -3.4135  -3.4105  -3.4082
    -0.0233   0.8813   1.0639   1.0829   1.7203   1.8732   2.0642   2.4681
     2.6121   2.8319   7.3762   7.9624   8.0264  11.1452

     occupation numbers 
     1.0000   1.0000   1.0000   1.0000   1.0000   1.0000   1.0000   1.0000
     1.0000   1.0000   1.0000   1.0000   1.0000   1.0000   1.0000   1.0000
     1.0000   1.0000   1.0000   1.0000   1.0000   1.0000   1.0000   1.0000
     0.9997   0.1285   0.0000   0.0000   0.0000   0.0000

          k = 0.1155 0.3465-0.4620 (  9642 PWs)   bands (ev):

  -122.5577 -76.7141 -76.7141 -76.7141 -24.3189 -10.9461 -10.8852 -10.4918
    -8.1479  -7.4211  -7.2790  -3.4149  -3.4147  -3.4136  -3.4100  -3.4079
    -0.0763   0.7863   1.0008   1.0855   1.6850   1.9727   1.9773   2.4226
     2.6768   2.7797   7.5680   7.7598   8.0638  11.2276

     occupation numbers 
     1.0000   1.0000   1.0000   1.0000   1.0000   1.0000   1.0000   1.0000
     1.0000   1.0000   1.0000   1.0000   1.0000   1.0000   1.0000   1.0000
     1.0000   1.0000   1.0000   1.0000   1.0000   1.0000   1.0000   1.0000
     0.9818   0.4804   0.0000   0.0000   0.0000   0.0000

          k = 0.1155-0.4620-0.4620 (  9632 PWs)   bands (ev):

  -122.5577 -76.7141 -76.7141 -76.7141 -24.3183 -10.9444 -10.9444 -10.4948
    -8.1468  -7.2784  -7.2784  -3.4149  -3.4149  -3.4137  -3.4089  -3.4077
    -0.1341   0.6932   1.0257   1.0257   1.6299   1.9943   1.9943   2.3520
     2.6891   2.7734   7.6049   7.9487   7.9487  11.7027

     occupation numbers 
     1.0000   1.0000   1.0000   1.0000   1.0000   1.0000   1.0000   1.0000
     1.0000   1.0000   1.0000   1.0000   1.0000   1.0000   1.0000   1.0000
     1.0000   1.0000   1.0000   1.0000   1.0000   1.0000   1.0000   1.0000
     0.9667   0.5328   0.0000   0.0000   0.0000   0.0000

          k = 0.2310 0.2310 0.2310 (  9651 PWs)   bands (ev):

  -122.5577 -76.7141 -76.7141 -76.7141 -24.3209 -10.8209 -10.6577 -10.6577
    -7.8170  -7.7533  -7.7533  -3.4144  -3.4144  -3.4132  -3.4096  -3.4096
     0.1941   0.9306   0.9306   1.3851   1.8272   1.8272   2.3645   2.4576
     2.4576   2.8277   7.0472   8.3435   8.3435  10.5852

     occupation numbers 
     1.0000   1.0000   1.0000   1.0000   1.0000   1.0000   1.0000   1.0000
     1.0000   1.0000   1.0000   1.0000   1.0000   1.0000   1.0000   1.0000
     1.0000   1.0000   1.0000   1.0000   1.0000   1.0000   1.0000   1.0000
     1.0000   0.1478   0.0000   0.0000   0.0000   0.0000

          k = 0.2310 0.2310 0.3465 (  9650 PWs)   bands (ev):

  -122.5577 -76.7141 -76.7141 -76.7141 -24.3195 -10.8951 -10.7514 -10.6546
    -7.7958  -7.7513  -7.4209  -3.4139  -3.4138  -3.4130  -3.4106  -3.4082
     0.1226   0.7594   0.8739   1.0786   1.8540   1.8899   2.3376   2.4329
     2.4832   2.7472   7.2127   8.0629   8.4473  10.8504

     occupation numbers 
     1.0000   1.0000   1.0000   1.0000   1.0000   1.0000   1.0000   1.0000
     1.0000   1.0000   1.0000   1.0000   1.0000   1.0000   1.0000   1.0000
     1.0000   1.0000   1.0000   1.0000   1.0000   1.0000   1.0000   1.0000
     1.0000   0.7346   0.0000   0.0000   0.0000   0.0000

          k = 0.2310 0.2310-0.4620 (  9626 PWs)   bands (ev):

  -122.5577 -76.7141 -76.7141 -76.7141 -24.3189 -10.9463 -10.7619 -10.6534
    -7.7942  -7.7505  -7.2791  -3.4135  -3.4127  -3.4125  -3.4121  -3.4076
     0.0926   0.6967   0.8055   0.9869   1.8651   1.9378   2.2710   2.4524
     2.4933   2.7139   7.5919   7.6308   8.4818  10.9074

     occupation numbers 
     1.0000   1.0000   1.0000   1.0000   1.0000   1.0000   1.0000   1.0000
     1.0000   1.0000   1.0000   1.0000   1.0000   1.0000   1.0000   1.0000
     1.0000   1.0000   1.0000   1.0000   1.0000   1.0000   1.0000   1.0000
     1.0000   0.9064   0.0000   0.0000   0.0000   0.0000

          k = 0.2310 0.3465 0.3465 (  9642 PWs)   bands (ev):

  -122.5577 -76.7141 -76.7141 -76.7141 -24.3181 -10.9020 -10.8651 -10.6981
    -7.7727  -7.4291  -7.4110  -3.4130  -3.4130  -3.4116  -3.4097  -3.4079
     0.0815   0.6521   0.7218   0.8481   1.7424   1.9379   2.3940   2.4154
     2.5299   2.6202   7.4696   8.2359   8.3783  11.2090

     occupation numbers 
     1.0000   1.0000   1.0000   1.0000   1.0000   1.0000   1.0000   1.0000
     1.0000   1.0000   1.0000   1.0000   1.0000   1.0000   1.0000   1.0000
     1.0000   1.0000   1.0000   1.0000   1.0000   1.0000   1.0000   1.0000
     1.0000   0.9995   0.0000   0.0000   0.0000   0.0000

          k = 0.2310 0.3465-0.4620 (  9644 PWs)   bands (ev):

  -122.5577 -76.7141 -76.7141 -76.7141 -24.3175 -10.9425 -10.8825 -10.7004
    -7.7715  -7.4195  -7.2777  -3.4129  -3.4123  -3.4110  -3.4098  -3.4075
     0.0507   0.6259   0.6404   0.7675   1.7013   1.9694   2.3568   2.4236
     2.4531   2.6888   7.7966   7.9955   8.4316  11.2677

     occupation numbers 
     1.0000   1.0000   1.0000   1.0000   1.0000   1.0000   1.0000   1.0000
     1.0000   1.0000   1.0000   1.0000   1.0000   1.0000   1.0000   1.0000
     1.0000   1.0000   1.0000   1.0000   1.0000   1.0000   1.0000   1.0000
     1.0000   0.9671   0.0000   0.0000   0.0000   0.0000

          k = 0.2310-0.4620-0.4620 (  9644 PWs)   bands (ev):

  -122.5577 -76.7141 -76.7141 -76.7141 -24.3169 -10.9410 -10.9410 -10.7036
    -7.7703  -7.2771  -7.2771  -3.4123  -3.4123  -3.4107  -3.4087  -3.4073
     0.0120   0.5846   0.6442   0.6442   1.6347   2.0035   2.2960   2.4096
     2.4096   2.7762   8.0815   8.1832   8.1832  11.3170

     occupation numbers 
     1.0000   1.0000   1.0000   1.0000   1.0000   1.0000   1.0000   1.0000
     1.0000   1.0000   1.0000   1.0000   1.0000   1.0000   1.0000   1.0000
     1.0000   1.0000   1.0000   1.0000   1.0000   1.0000   1.0000   1.0000
     1.0000   0.5101   0.0000   0.0000   0.0000   0.0000

          k = 0.3465 0.3465 0.3465 (  9675 PWs)   bands (ev):

  -122.5578 -76.7141 -76.7141 -76.7141 -24.3167 -10.9050 -10.8618 -10.8618
    -7.4392  -7.4095  -7.4095  -3.4110  -3.4110  -3.4108  -3.4081  -3.4081
     0.1731   0.4909   0.4909   0.6301   1.7525   1.7525   2.1940   2.5944
     2.5944   2.6511   7.8043   8.5227   8.5227  11.2037

     occupation numbers 
     1.0000   1.0000   1.0000   1.0000   1.0000   1.0000   1.0000   1.0000
     1.0000   1.0000   1.0000   1.0000   1.0000   1.0000   1.0000   1.0000
     1.0000   1.0000   1.0000   1.0000   1.0000   1.0000   1.0000   0.9999
     0.9999   0.9957   0.0000   0.0000   0.0000   0.0000

          k = 0.3465 0.3465-0.4620 (  9638 PWs)   bands (ev):

  -122.5577 -76.7141 -76.7141 -76.7141 -24.3161 -10.9390 -10.8892 -10.8604
    -7.4289  -7.4089  -7.2764  -3.4106  -3.4097  -3.4094  -3.4087  -3.4072
     0.1871   0.4102   0.4536   0.5372   1.6890   1.7561   2.0523   2.6155
     2.6579   2.7092   8.1628   8.3384   8.6761  11.1863

     occupation numbers 
     1.0000   1.0000   1.0000   1.0000   1.0000   1.0000   1.0000   1.0000
     1.0000   1.0000   1.0000   1.0000   1.0000   1.0000   1.0000   1.0000
     1.0000   1.0000   1.0000   1.0000   1.0000   1.0000   1.0000   0.9996
     0.9935   0.9217   0.0000   0.0000   0.0000   0.0000

          k = 0.3465-0.4620-0.4620 (  9660 PWs)   bands (ev):

  -122.5578 -76.7141 -76.7141 -76.7141 -24.3155 -10.9375 -10.9375 -10.8734
    -7.4184  -7.2759  -7.2759  -3.4095  -3.4095  -3.4085  -3.4081  -3.4070
     0.2041   0.3954   0.3954   0.4134   1.6395   1.7305   1.8912   2.6851
     2.6851   2.7789   8.5357   8.5357   8.5520  10.9315

     occupation numbers 
     1.0000   1.0000   1.0000   1.0000   1.0000   1.0000   1.0000   1.0000
     1.0000   1.0000   1.0000   1.0000   1.0000   1.0000   1.0000   1.0000
     1.0000   1.0000   1.0000   1.0000   1.0000   1.0000   1.0000   0.9725
     0.9725   0.4873   0.0000   0.0000   0.0000   0.0000

          k =-0.4620-0.4620-0.4620 (  9568 PWs)   bands (ev):

  -122.5576 -76.7141 -76.7141 -76.7141 -24.3149 -10.9361 -10.9361 -10.9361
    -7.2753  -7.2753  -7.2753  -3.4081  -3.4081  -3.4081  -3.4067  -3.4067
     0.3093   0.3093   0.3093   0.3200   1.6415   1.6415   1.7057   2.7800
     2.7800   2.7800   8.7509   8.7509   8.7509  10.8015

     occupation numbers 
     1.0000   1.0000   1.0000   1.0000   1.0000   1.0000   1.0000   1.0000
     1.0000   1.0000   1.0000   1.0000   1.0000   1.0000   1.0000   1.0000
     1.0000   1.0000   1.0000   1.0000   1.0000   1.0000   1.0000   0.4779
     0.4779   0.4779   0.0000   0.0000   0.0000   0.0000

     the Fermi energy is     2.7774 ev

!    total energy              =   -1275.99563101 Ry
     total all-electron energy =    -20435.141637 Ry
     estimated scf accuracy    <          6.6E-12 Ry
     smearing contrib. (-TS)   =      -0.00146597 Ry
     internal energy E=F+TS    =   -1275.99416505 Ry

     The total energy is F=E-TS. E is the sum of the following terms:
     one-electron contribution =    -508.87626928 Ry
     hartree contribution      =     271.25577033 Ry
     xc contribution           =     -79.30858682 Ry
     ewald contribution        =    -275.74364456 Ry
     one-center paw contrib.   =    -683.32143471 Ry
      -> PAW hartree energy AE =      38.63918254 Ry
      -> PAW hartree energy PS =     -38.42495025 Ry
      -> PAW xc energy AE      =     -66.34527111 Ry
      -> PAW xc energy PS      =      10.70705200 Ry
      -> total E_H with PAW    =     271.47000262 Ry
      -> total E_XC with PAW   =    -134.94680592 Ry

     convergence has been achieved in  15 iterations

     Forces acting on atoms (cartesian axes, Ry/au):

     atom    1 type  1   force =     0.00000000    0.00000000    0.00000000
     atom    2 type  2   force =     0.00000000    0.00000000    0.00000000
     atom    3 type  3   force =     0.00000000    0.00000000    0.00000000
     atom    4 type  3   force =     0.00000000    0.00000000    0.00000000
     atom    5 type  3   force =     0.00000000    0.00000000    0.00000000
     The non-local contrib.  to forces
     atom    1 type  1   force =     0.00000000    0.00000000    0.00000000
     atom    2 type  2   force =     0.00000000    0.00000000    0.00000000
     atom    3 type  3   force =     0.00000000    0.00000000    0.00000000
     atom    4 type  3   force =     0.00000000    0.00000000    0.00000000
     atom    5 type  3   force =     0.00000000    0.00000000    0.00000000
     The ionic contribution  to forces
     atom    1 type  1   force =    -0.00000000   -0.00000000   -0.00000000
     atom    2 type  2   force =     0.00000000    0.00000000    0.00000000
     atom    3 type  3   force =    -0.00000000   -0.00000000   -0.00000000
     atom    4 type  3   force =    -0.00000000   -0.00000000   -0.00000000
     atom    5 type  3   force =    -0.00000000   -0.00000000   -0.00000000
     The local contribution  to forces
     atom    1 type  1   force =    -0.00000000   -0.00000000    0.00000000
     atom    2 type  2   force =    -0.00000000   -0.00000000   -0.00000000
     atom    3 type  3   force =     0.00000000   -0.00000000    0.00000000
     atom    4 type  3   force =    -0.00000000    0.00000000    0.00000000
     atom    5 type  3   force =    -0.00000000    0.00000000    0.00000000
     The core correction contribution to forces
     atom    1 type  1   force =    -0.00000000    0.00000000    0.00000000
     atom    2 type  2   force =    -0.00000000   -0.00000000   -0.00000000
     atom    3 type  3   force =    -0.00000000    0.00000000    0.00000000
     atom    4 type  3   force =     0.00000000   -0.00000000    0.00000000
     atom    5 type  3   force =    -0.00000000   -0.00000000    0.00000000
     The Hubbard contrib.    to forces
     atom    1 type  1   force =     0.00000000    0.00000000    0.00000000
     atom    2 type  2   force =     0.00000000    0.00000000    0.00000000
     atom    3 type  3   force =     0.00000000    0.00000000    0.00000000
     atom    4 type  3   force =     0.00000000    0.00000000    0.00000000
     atom    5 type  3   force =     0.00000000    0.00000000    0.00000000
     The SCF correction term to forces
     atom    1 type  1   force =     0.00000000    0.00000000   -0.00000000
     atom    2 type  2   force =     0.00000000    0.00000000    0.00000000
     atom    3 type  3   force =     0.00000000    0.00000000   -0.00000000
     atom    4 type  3   force =     0.00000000    0.00000000   -0.00000000
     atom    5 type  3   force =     0.00000000    0.00000000   -0.00000000

     Total force =     0.000000     Total SCF correction =     0.000000


     Computing stress (Cartesian axis) and pressure

          total   stress  (Ry/bohr**3)                   (kbar)     P=       81.40
   0.00055333   0.00000000   0.00000000           81.40        0.00        0.00
   0.00000000   0.00055333   0.00000000            0.00       81.40        0.00
   0.00000000   0.00000000   0.00055333            0.00        0.00       81.40

     kinetic stress (kbar)  14077.13      0.00      0.00
                                0.00  14077.13      0.00
                                0.00      0.00  14077.13

     local   stress (kbar)  -8875.46      0.00     -0.00
                                0.00  -8875.46     -0.00
                               -0.00     -0.00  -8875.46

     nonloc. stress (kbar)  -1503.20      0.00      0.00
                                0.00  -1503.20      0.00
                                0.00      0.00  -1503.20

     hartree stress (kbar)  13158.43      0.00      0.00
                                0.00  13158.43      0.00
                                0.00      0.00  13158.43

     exc-cor stress (kbar)  -1431.98      0.00      0.00
                                0.00  -1431.98     -0.00
                                0.00     -0.00  -1431.98

     corecor stress (kbar)  -1967.39      0.00      0.00
                                0.00  -1967.39      0.00
                                0.00      0.00  -1967.39

     ewald   stress (kbar) -13376.14      0.00     -0.00
                                0.00 -13376.14     -0.00
                               -0.00     -0.00 -13376.14

     hubbard stress (kbar)      0.00      0.00      0.00
                                0.00      0.00      0.00
                                0.00      0.00      0.00

     DFT-D   stress (kbar)      0.00      0.00      0.00
                                0.00      0.00      0.00
                                0.00      0.00      0.00

     XDM     stress (kbar)      0.00      0.00      0.00
                                0.00      0.00      0.00
                                0.00      0.00      0.00

     dft-nl  stress (kbar)      0.00      0.00      0.00
                                0.00      0.00      0.00
                                0.00      0.00      0.00

     TS-vdW  stress (kbar)      0.00      0.00      0.00
                                0.00      0.00      0.00
                                0.00      0.00      0.00

     MDB     stress (kbar)      0.00      0.00      0.00
                                0.00      0.00      0.00
                                0.00      0.00      0.00

     3D-RISM stress (kbar)      0.00      0.00      0.00
                                0.00      0.00      0.00
                                0.00      0.00      0.00

     Energy error            =      8.6E-02 Ry
     Gradient error          =      0.0E+00 Ry/Bohr
     Cell gradient error     =      8.1E+01 kbar

     number of scf cycles    =   3
     number of bfgs steps    =   2

     enthalpy           old  =   -1275.9099408544 Ry
     enthalpy           new  =   -1275.9956310137 Ry

     CASE: enthalpy          _new < enthalpy          _old

     new trust radius        =       0.3795905880 bohr
     new conv_thr            =            1.0E-10 Ry

     new unit-cell volume =   1202.88750 a.u.^3 (   178.24954 Ang^3 )
     density =      3.20641 g/cm^3

CELL_PARAMETERS (angstrom)
   5.627853764   0.000000000   0.000000000
   0.000000000   5.627853764   0.000000000
   0.000000000   0.000000000   5.627853764

ATOMIC_POSITIONS (crystal)
K                0.0000000000        0.0000000000        0.0000000000
Zn               0.5000000000        0.5000000000        0.5000000000
Br               0.5000000000        0.0000000000        0.0000000000
Br               0.0000000000        0.5000000000        0.0000000000
Br               0.0000000000        0.0000000000        0.5000000000



     Writing config-only to output data dir ./tmp/kznbr3.save/ :
     XML data file
     NEW-OLD atomic charge density approx. for the potential

     total cpu time spent up to now is      810.3 secs

     Self-consistent Calculation

     iteration #  1     ecut=    80.00 Ry     beta= 0.40
     Davidson diagonalization with overlap

---- Real-time Memory Report at c_bands before calling an iterative solver
           234 MiB given to the printing process from OS
             0 MiB allocation reported by mallinfo(arena+hblkhd)
         46521 MiB available memory on the node where the printing process lives
------------------
     ethr =  1.00E-06,  avg # of iterations =  8.2

     total cpu time spent up to now is      854.0 secs

     total energy              =   -1275.97832587 Ry
     estimated scf accuracy    <       0.08031691 Ry

     iteration #  2     ecut=    80.00 Ry     beta= 0.40
     Davidson diagonalization with overlap

---- Real-time Memory Report at c_bands before calling an iterative solver
           234 MiB given to the printing process from OS
             0 MiB allocation reported by mallinfo(arena+hblkhd)
         46586 MiB available memory on the node where the printing process lives
------------------
     ethr =  1.61E-04,  avg # of iterations =  2.2

     total cpu time spent up to now is      871.3 secs

     total energy              =   -1276.01442204 Ry
     estimated scf accuracy    <       0.28049400 Ry

     iteration #  3     ecut=    80.00 Ry     beta= 0.40
     Davidson diagonalization with overlap

---- Real-time Memory Report at c_bands before calling an iterative solver
           234 MiB given to the printing process from OS
             0 MiB allocation reported by mallinfo(arena+hblkhd)
         46710 MiB available memory on the node where the printing process lives
------------------
     ethr =  1.61E-04,  avg # of iterations =  1.9

     total cpu time spent up to now is      887.5 secs

     total energy              =   -1276.04436659 Ry
     estimated scf accuracy    <       0.00730685 Ry

     iteration #  4     ecut=    80.00 Ry     beta= 0.40
     Davidson diagonalization with overlap

---- Real-time Memory Report at c_bands before calling an iterative solver
           234 MiB given to the printing process from OS
             0 MiB allocation reported by mallinfo(arena+hblkhd)
         46675 MiB available memory on the node where the printing process lives
------------------
     ethr =  1.46E-05,  avg # of iterations =  1.2

     total cpu time spent up to now is      901.0 secs

     total energy              =   -1276.05438136 Ry
     estimated scf accuracy    <       0.00463929 Ry

     iteration #  5     ecut=    80.00 Ry     beta= 0.40
     Davidson diagonalization with overlap

---- Real-time Memory Report at c_bands before calling an iterative solver
           234 MiB given to the printing process from OS
             0 MiB allocation reported by mallinfo(arena+hblkhd)
         46623 MiB available memory on the node where the printing process lives
------------------
     ethr =  9.28E-06,  avg # of iterations =  2.0

     total cpu time spent up to now is      917.4 secs

     total energy              =   -1276.06002905 Ry
     estimated scf accuracy    <       0.00201830 Ry

     iteration #  6     ecut=    80.00 Ry     beta= 0.40
     Davidson diagonalization with overlap

---- Real-time Memory Report at c_bands before calling an iterative solver
           234 MiB given to the printing process from OS
             0 MiB allocation reported by mallinfo(arena+hblkhd)
         46457 MiB available memory on the node where the printing process lives
------------------
     ethr =  4.04E-06,  avg # of iterations =  2.0

     total cpu time spent up to now is      933.1 secs

     total energy              =   -1276.05920296 Ry
     estimated scf accuracy    <       0.00116182 Ry

     iteration #  7     ecut=    80.00 Ry     beta= 0.40
     Davidson diagonalization with overlap

---- Real-time Memory Report at c_bands before calling an iterative solver
           234 MiB given to the printing process from OS
             0 MiB allocation reported by mallinfo(arena+hblkhd)
         46819 MiB available memory on the node where the printing process lives
------------------
     ethr =  2.32E-06,  avg # of iterations =  1.0

     total cpu time spent up to now is      945.8 secs

     total energy              =   -1276.06267988 Ry
     estimated scf accuracy    <       0.00153064 Ry

     iteration #  8     ecut=    80.00 Ry     beta= 0.40
     Davidson diagonalization with overlap

---- Real-time Memory Report at c_bands before calling an iterative solver
           234 MiB given to the printing process from OS
             0 MiB allocation reported by mallinfo(arena+hblkhd)
         46515 MiB available memory on the node where the printing process lives
------------------
     ethr =  2.32E-06,  avg # of iterations =  2.0

     total cpu time spent up to now is      963.0 secs

     total energy              =   -1276.06342926 Ry
     estimated scf accuracy    <       0.00021580 Ry

     iteration #  9     ecut=    80.00 Ry     beta= 0.40
     Davidson diagonalization with overlap

---- Real-time Memory Report at c_bands before calling an iterative solver
           234 MiB given to the printing process from OS
             0 MiB allocation reported by mallinfo(arena+hblkhd)
         46560 MiB available memory on the node where the printing process lives
------------------
     ethr =  4.32E-07,  avg # of iterations =  3.0

     total cpu time spent up to now is      981.4 secs

     total energy              =   -1276.06348867 Ry
     estimated scf accuracy    <       0.00000656 Ry

     iteration # 10     ecut=    80.00 Ry     beta= 0.40
     Davidson diagonalization with overlap

---- Real-time Memory Report at c_bands before calling an iterative solver
           234 MiB given to the printing process from OS
             0 MiB allocation reported by mallinfo(arena+hblkhd)
         46507 MiB available memory on the node where the printing process lives
------------------
     ethr =  1.31E-08,  avg # of iterations =  2.0

     total cpu time spent up to now is      997.0 secs

     total energy              =   -1276.06348534 Ry
     estimated scf accuracy    <       0.00000525 Ry

     iteration # 11     ecut=    80.00 Ry     beta= 0.40
     Davidson diagonalization with overlap

---- Real-time Memory Report at c_bands before calling an iterative solver
           234 MiB given to the printing process from OS
             0 MiB allocation reported by mallinfo(arena+hblkhd)
         46630 MiB available memory on the node where the printing process lives
------------------
     ethr =  1.05E-08,  avg # of iterations =  1.1

     total cpu time spent up to now is     1009.2 secs

     total energy              =   -1276.06348456 Ry
     estimated scf accuracy    <       0.00000394 Ry

     iteration # 12     ecut=    80.00 Ry     beta= 0.40
     Davidson diagonalization with overlap

---- Real-time Memory Report at c_bands before calling an iterative solver
           234 MiB given to the printing process from OS
             0 MiB allocation reported by mallinfo(arena+hblkhd)
         46630 MiB available memory on the node where the printing process lives
------------------
     ethr =  7.88E-09,  avg # of iterations =  1.0

     total cpu time spent up to now is     1021.3 secs

     total energy              =   -1276.06348743 Ry
     estimated scf accuracy    <       0.00000135 Ry

     iteration # 13     ecut=    80.00 Ry     beta= 0.40
     Davidson diagonalization with overlap

---- Real-time Memory Report at c_bands before calling an iterative solver
           234 MiB given to the printing process from OS
             0 MiB allocation reported by mallinfo(arena+hblkhd)
         46618 MiB available memory on the node where the printing process lives
------------------
     ethr =  2.71E-09,  avg # of iterations =  2.2

     total cpu time spent up to now is     1038.9 secs

     total energy              =   -1276.06348743 Ry
     estimated scf accuracy    <       0.00000020 Ry

     iteration # 14     ecut=    80.00 Ry     beta= 0.40
     Davidson diagonalization with overlap

---- Real-time Memory Report at c_bands before calling an iterative solver
           234 MiB given to the printing process from OS
             0 MiB allocation reported by mallinfo(arena+hblkhd)
         46440 MiB available memory on the node where the printing process lives
------------------
     ethr =  4.02E-10,  avg # of iterations =  2.8

     total cpu time spent up to now is     1058.1 secs

     total energy              =   -1276.06348760 Ry
     estimated scf accuracy    <       0.00000005 Ry

     iteration # 15     ecut=    80.00 Ry     beta= 0.40
     Davidson diagonalization with overlap

---- Real-time Memory Report at c_bands before calling an iterative solver
           234 MiB given to the printing process from OS
             0 MiB allocation reported by mallinfo(arena+hblkhd)
         46617 MiB available memory on the node where the printing process lives
------------------
     ethr =  1.07E-10,  avg # of iterations =  2.3

     total cpu time spent up to now is     1076.0 secs

     total energy              =   -1276.06348761 Ry
     estimated scf accuracy    <          3.1E-09 Ry

     iteration # 16     ecut=    80.00 Ry     beta= 0.40
     Davidson diagonalization with overlap

---- Real-time Memory Report at c_bands before calling an iterative solver
           234 MiB given to the printing process from OS
             0 MiB allocation reported by mallinfo(arena+hblkhd)
         46584 MiB available memory on the node where the printing process lives
------------------
     ethr =  6.19E-12,  avg # of iterations =  3.1

     total cpu time spent up to now is     1095.9 secs

     End of self-consistent calculation

          k = 0.0000 0.0000 0.0000 (  9771 PWs)   bands (ev):

  -124.0104 -78.1692 -78.1692 -78.1692 -25.7997 -11.8708 -11.5957 -11.5957
    -9.5967  -9.5967  -9.5967  -4.8703  -4.8703  -4.8693  -4.8693  -4.8693
    -0.1451  -0.1451  -0.1451   0.1401   0.6106   0.6106   0.6106   1.2133
     1.2133   1.2133   6.9854   6.9854   6.9854   8.1756

     occupation numbers 
     1.0000   1.0000   1.0000   1.0000   1.0000   1.0000   1.0000   1.0000
     1.0000   1.0000   1.0000   1.0000   1.0000   1.0000   1.0000   1.0000
     1.0000   1.0000   1.0000   1.0000   1.0000   1.0000   1.0000   0.0197
     0.0197   0.0197   0.0000   0.0000   0.0000   0.0000

          k = 0.0000 0.0000 0.1090 (  9667 PWs)   bands (ev):

  -124.0101 -78.1689 -78.1689 -78.1687 -25.7995 -11.8793 -11.6422 -11.5952
    -9.5961  -9.5961  -9.5041  -4.8707  -4.8700  -4.8696  -4.8696  -4.8693
    -0.3448  -0.1200  -0.1200   0.3155   0.5856   0.5856   0.5914   1.1343
     1.1926   1.1926   6.5709   6.8750   6.8750   8.2131

     occupation numbers 
     1.0000   1.0000   1.0000   1.0000   1.0000   1.0000   1.0000   1.0000
     1.0000   1.0000   1.0000   1.0000   1.0000   1.0000   1.0000   1.0000
     1.0000   1.0000   1.0000   1.0000   1.0000   1.0000   1.0000   0.3377
     0.0515   0.0515   0.0000   0.0000   0.0000   0.0000

          k = 0.0000 0.0000 0.2180 (  9618 PWs)   bands (ev):

  -124.0099 -78.1687 -78.1687 -78.1686 -25.7990 -11.9145 -11.7248 -11.5941
    -9.5948  -9.5948  -9.2930  -4.8715  -4.8704  -4.8704  -4.8693  -4.8692
    -0.5743  -0.0470  -0.0470   0.3027   0.5067   0.5067   0.5461   1.1506
     1.1506   1.1508   5.9188   6.6712   6.6712   8.3124

     occupation numbers 
     1.0000   1.0000   1.0000   1.0000   1.0000   1.0000   1.0000   1.0000
     1.0000   1.0000   1.0000   1.0000   1.0000   1.0000   1.0000   1.0000
     1.0000   1.0000   1.0000   1.0000   1.0000   1.0000   1.0000   0.2242
     0.2242   0.2227   0.0000   0.0000   0.0000   0.0000

          k = 0.0000 0.0000 0.3270 (  9634 PWs)   bands (ev):

  -124.0100 -78.1687 -78.1687 -78.1687 -25.7984 -11.9739 -11.7676 -11.5931
    -9.5934  -9.5934  -9.0933  -4.8723  -4.8713  -4.8713  -4.8692  -4.8685
    -0.7104   0.0473   0.0668   0.0668   0.3790   0.3790   0.5022   1.1195
     1.1195   1.3526   5.4198   6.5092   6.5092   8.4280

     occupation numbers 
     1.0000   1.0000   1.0000   1.0000   1.0000   1.0000   1.0000   1.0000
     1.0000   1.0000   1.0000   1.0000   1.0000   1.0000   1.0000   1.0000
     1.0000   1.0000   1.0000   1.0000   1.0000   1.0000   1.0000   0.4559
     0.4559   0.0000   0.0000   0.0000   0.0000   0.0000

          k = 0.0000 0.0000-0.4360 (  9658 PWs)   bands (ev):

  -124.0100 -78.1689 -78.1687 -78.1687 -25.7982 -12.0032 -11.7773 -11.5926
    -9.5928  -9.5928  -9.0127  -4.8726  -4.8716  -4.8716  -4.8692  -4.8682
    -0.7500  -0.0824   0.1771   0.1771   0.2607   0.2607   0.4843   1.1094
     1.1094   1.4544   5.2309   6.4491   6.4491   8.4826

     occupation numbers 
     1.0000   1.0000   1.0000   1.0000   1.0000   1.0000   1.0000   1.0000
     1.0000   1.0000   1.0000   1.0000   1.0000   1.0000   1.0000   1.0000
     1.0000   1.0000   1.0000   1.0000   1.0000   1.0000   1.0000   0.5391
     0.5391   0.0000   0.0000   0.0000   0.0000   0.0000

          k = 0.0000 0.1090 0.1090 (  9629 PWs)   bands (ev):

  -124.0100 -78.1688 -78.1688 -78.1685 -25.7993 -11.8860 -11.6673 -11.6178
    -9.5956  -9.5084  -9.4989  -4.8708  -4.8700  -4.8697  -4.8696  -4.8696
    -0.4627  -0.0957  -0.0875   0.3741   0.4986   0.5650   0.6417   1.1100
     1.1375   1.1689   6.3663   6.7338   6.7773   8.3933

     occupation numbers 
     1.0000   1.0000   1.0000   1.0000   1.0000   1.0000   1.0000   1.0000
     1.0000   1.0000   1.0000   1.0000   1.0000   1.0000   1.0000   1.0000
     1.0000   1.0000   1.0000   1.0000   1.0000   1.0000   1.0000   0.5345
     0.3136   0.1275   0.0000   0.0000   0.0000   0.0000

          k = 0.0000 0.1090 0.2180 (  9623 PWs)   bands (ev):

  -124.0099 -78.1687 -78.1687 -78.1686 -25.7987 -11.9164 -11.7464 -11.6245
    -9.5942  -9.5027  -9.2925  -4.8715  -4.8704  -4.8702  -4.8696  -4.8693
    -0.6452  -0.0247  -0.0227   0.2662   0.4058   0.4972   0.6609   1.0333
     1.1195   1.1904   5.8936   6.5642   6.5864   8.5028

     occupation numbers 
     1.0000   1.0000   1.0000   1.0000   1.0000   1.0000   1.0000   1.0000
     1.0000   1.0000   1.0000   1.0000   1.0000   1.0000   1.0000   1.0000
     1.0000   1.0000   1.0000   1.0000   1.0000   1.0000   1.0000   0.9535
     0.4552   0.0564   0.0000   0.0000   0.0000   0.0000

          k = 0.0000 0.1090 0.3270 (  9640 PWs)   bands (ev):

  -124.0100 -78.1688 -78.1687 -78.1687 -25.7982 -11.9733 -11.7903 -11.6247
    -9.5929  -9.5015  -9.0930  -4.8721  -4.8713  -4.8709  -4.8696  -4.8685
    -0.7650   0.0039   0.0663   0.0855   0.2888   0.3813   0.6628   0.9983
     1.0816   1.3402   5.4991   6.4289   6.4323   8.5960

     occupation numbers 
     1.0000   1.0000   1.0000   1.0000   1.0000   1.0000   1.0000   1.0000
     1.0000   1.0000   1.0000   1.0000   1.0000   1.0000   1.0000   1.0000
     1.0000   1.0000   1.0000   1.0000   1.0000   1.0000   1.0000   0.9920
     0.7506   0.0000   0.0000   0.0000   0.0000   0.0000

          k = 0.0000 0.1090-0.4360 (  9664 PWs)   bands (ev):

  -124.0101 -78.1689 -78.1688 -78.1687 -25.7980 -12.0024 -11.7998 -11.6245
    -9.5923  -9.5009  -9.0124  -4.8723  -4.8716  -4.8712  -4.8696  -4.8682
    -0.8012  -0.1227   0.1689   0.1761   0.1925   0.2695   0.6591   0.9860
     1.0691   1.4156   5.3495   6.3696   6.3812   8.6395

     occupation numbers 
     1.0000   1.0000   1.0000   1.0000   1.0000   1.0000   1.0000   1.0000
     1.0000   1.0000   1.0000   1.0000   1.0000   1.0000   1.0000   1.0000
     1.0000   1.0000   1.0000   1.0000   1.0000   1.0000   1.0000   0.9961
     0.8256   0.0000   0.0000   0.0000   0.0000   0.0000

          k = 0.0000 0.2180 0.2180 (  9661 PWs)   bands (ev):

  -124.0101 -78.1688 -78.1688 -78.1688 -25.7982 -11.9291 -11.8187 -11.6553
    -9.5929  -9.3005  -9.2834  -4.8716  -4.8704  -4.8704  -4.8699  -4.8692
    -0.7818   0.0278   0.0400   0.0891   0.3434   0.4600   0.7175   0.9126
     1.0496   1.2373   5.7987   6.3983   6.4074   8.9704

     occupation numbers 
     1.0000   1.0000   1.0000   1.0000   1.0000   1.0000   1.0000   1.0000
     1.0000   1.0000   1.0000   1.0000   1.0000   1.0000   1.0000   1.0000
     1.0000   1.0000   1.0000   1.0000   1.0000   1.0000   1.0000   1.0000
     0.9100   0.0052   0.0000   0.0000   0.0000   0.0000

          k = 0.0000 0.2180 0.3270 (  9639 PWs)   bands (ev):

  -124.0100 -78.1688 -78.1688 -78.1687 -25.7977 -11.9723 -11.8675 -11.6635
    -9.5915  -9.2913  -9.0922  -4.8716  -4.8712  -4.8704  -4.8701  -4.8686
    -0.8856  -0.1369   0.0861   0.1392   0.2457   0.3816   0.7072   0.9097
     0.9891   1.2914   5.6875   6.2513   6.2871   9.0527

     occupation numbers 
     1.0000   1.0000   1.0000   1.0000   1.0000   1.0000   1.0000   1.0000
     1.0000   1.0000   1.0000   1.0000   1.0000   1.0000   1.0000   1.0000
     1.0000   1.0000   1.0000   1.0000   1.0000   1.0000   1.0000   1.0000
     0.9953   0.0001   0.0000   0.0000   0.0000   0.0000

          k = 0.0000 0.2180-0.4360 (  9604 PWs)   bands (ev):

  -124.0099 -78.1687 -78.1686 -78.1685 -25.7975 -12.0005 -11.8759 -11.6650
    -9.5910  -9.2908  -9.0117  -4.8716  -4.8716  -4.8704  -4.8702  -4.8683
    -0.9203  -0.2432   0.1441   0.1650   0.2356   0.2910   0.7137   0.9096
     0.9675   1.3161   5.6441   6.1912   6.2444   9.0734

     occupation numbers 
     1.0000   1.0000   1.0000   1.0000   1.0000   1.0000   1.0000   1.0000
     1.0000   1.0000   1.0000   1.0000   1.0000   1.0000   1.0000   1.0000
     1.0000   1.0000   1.0000   1.0000   1.0000   1.0000   1.0000   1.0000
     0.9988   0.0000   0.0000   0.0000   0.0000   0.0000

          k = 0.0000 0.3270 0.3270 (  9618 PWs)   bands (ev):

  -124.0099 -78.1688 -78.1687 -78.1685 -25.7971 -11.9774 -11.9487 -11.6772
    -9.5902  -9.0956  -9.0877  -4.8712  -4.8712  -4.8712  -4.8695  -4.8683
    -0.9911  -0.3118   0.1288   0.2180   0.2290   0.3614   0.5222   0.8947
     1.0478   1.2286   5.8754   6.0907   6.1789   9.6519

     occupation numbers 
     1.0000   1.0000   1.0000   1.0000   1.0000   1.0000   1.0000   1.0000
     1.0000   1.0000   1.0000   1.0000   1.0000   1.0000   1.0000   1.0000
     1.0000   1.0000   1.0000   1.0000   1.0000   1.0000   1.0000   1.0000
     0.9160   0.0087   0.0000   0.0000   0.0000   0.0000

          k = 0.0000 0.3270-0.4360 (  9622 PWs)   bands (ev):

  -124.0099 -78.1688 -78.1687 -78.1685 -25.7969 -11.9987 -11.9625 -11.6800
    -9.5896  -9.0914  -9.0110  -4.8716  -4.8712  -4.8712  -4.8693  -4.8681
    -1.0307  -0.3935   0.1801   0.1831   0.2919   0.3130   0.4694   0.8550
     1.0937   1.2031   5.9586   6.0280   6.1361   9.6588

     occupation numbers 
     1.0000   1.0000   1.0000   1.0000   1.0000   1.0000   1.0000   1.0000
     1.0000   1.0000   1.0000   1.0000   1.0000   1.0000   1.0000   1.0000
     1.0000   1.0000   1.0000   1.0000   1.0000   1.0000   1.0000   1.0000
     0.6647   0.0321   0.0000   0.0000   0.0000   0.0000

          k = 0.0000-0.4360-0.4360 (  9580 PWs)   bands (ev):

  -124.0098 -78.1686 -78.1686 -78.1683 -25.7967 -11.9979 -11.9979 -11.6833
    -9.5891  -9.0108  -9.0108  -4.8716  -4.8716  -4.8711  -4.8689  -4.8679
    -1.0735  -0.4642   0.2068   0.2068   0.3222   0.3222   0.3653   0.8020
     1.1513   1.1604   5.9641   6.0978   6.0978  10.0222

     occupation numbers 
     1.0000   1.0000   1.0000   1.0000   1.0000   1.0000   1.0000   1.0000
     1.0000   1.0000   1.0000   1.0000   1.0000   1.0000   1.0000   1.0000
     1.0000   1.0000   1.0000   1.0000   1.0000   1.0000   1.0000   1.0000
     0.2198   0.1681   0.0000   0.0000   0.0000   0.0000

          k = 0.1090 0.1090 0.1090 (  9615 PWs)   bands (ev):

  -124.0099 -78.1687 -78.1687 -78.1685 -25.7990 -11.8916 -11.6668 -11.6668
    -9.5129  -9.4984  -9.4984  -4.8706  -4.8706  -4.8699  -4.8696  -4.8696
    -0.5422  -0.0763  -0.0763   0.3878   0.4899   0.4899   0.6845   1.0995
     1.0995   1.1327   6.1577   6.7091   6.7091   8.4763

     occupation numbers 
     1.0000   1.0000   1.0000   1.0000   1.0000   1.0000   1.0000   1.0000
     1.0000   1.0000   1.0000   1.0000   1.0000   1.0000   1.0000   1.0000
     1.0000   1.0000   1.0000   1.0000   1.0000   1.0000   1.0000   0.6194
     0.6194   0.3501   0.0000   0.0000   0.0000   0.0000

          k = 0.1090 0.1090 0.2180 (  9638 PWs)   bands (ev):

  -124.0100 -78.1688 -78.1687 -78.1687 -25.7985 -11.9183 -11.7573 -11.6656
    -9.5074  -9.4972  -9.2920  -4.8714  -4.8706  -4.8700  -4.8700  -4.8691
    -0.6891  -0.0480  -0.0203   0.2401   0.3803   0.4824   0.7174   0.9915
     1.0728   1.1908   5.8090   6.4820   6.6351   8.6286

     occupation numbers 
     1.0000   1.0000   1.0000   1.0000   1.0000   1.0000   1.0000   1.0000
     1.0000   1.0000   1.0000   1.0000   1.0000   1.0000   1.0000   1.0000
     1.0000   1.0000   1.0000   1.0000   1.0000   1.0000   1.0000   0.9946
     0.8047   0.0556   0.0000   0.0000   0.0000   0.0000

          k = 0.1090 0.1090 0.3270 (  9642 PWs)   bands (ev):

  -124.0100 -78.1688 -78.1688 -78.1687 -25.7980 -11.9728 -11.8046 -11.6644
    -9.5061  -9.4960  -9.0927  -4.8719  -4.8710  -4.8707  -4.8699  -4.8685
    -0.7933  -0.0425  -0.0181   0.0630   0.2966   0.4728   0.7246   0.9087
     1.0462   1.3117   5.5488   6.2584   6.5505   8.7358

     occupation numbers 
     1.0000   1.0000   1.0000   1.0000   1.0000   1.0000   1.0000   1.0000
     1.0000   1.0000   1.0000   1.0000   1.0000   1.0000   1.0000   1.0000
     1.0000   1.0000   1.0000   1.0000   1.0000   1.0000   1.0000   1.0000
     0.9210   0.0000   0.0000   0.0000   0.0000   0.0000

          k = 0.1090 0.1090-0.4360 (  9612 PWs)   bands (ev):

  -124.0099 -78.1687 -78.1686 -78.1685 -25.7978 -12.0016 -11.8144 -11.6640
    -9.5055  -9.4955  -9.0121  -4.8719  -4.8712  -4.8711  -4.8699  -4.8682
    -0.8249  -0.1660  -0.0055   0.0979   0.2664   0.4585   0.7227   0.8784
     1.0358   1.3682   5.4560   6.1686   6.5142   8.7773

     occupation numbers 
     1.0000   1.0000   1.0000   1.0000   1.0000   1.0000   1.0000   1.0000
     1.0000   1.0000   1.0000   1.0000   1.0000   1.0000   1.0000   1.0000
     1.0000   1.0000   1.0000   1.0000   1.0000   1.0000   1.0000   1.0000
     0.9482   0.0000   0.0000   0.0000   0.0000   0.0000

          k = 0.1090 0.2180 0.2180 (  9628 PWs)   bands (ev):

  -124.0100 -78.1688 -78.1687 -78.1686 -25.7980 -11.9301 -11.8181 -11.7082
    -9.5014  -9.2998  -9.2830  -4.8714  -4.8707  -4.8704  -4.8696  -4.8690
    -0.7883  -0.0688  -0.0334   0.0941   0.3824   0.4392   0.7808   0.9175
     1.0027   1.2085   5.6782   6.4390   6.5161   8.9620

     occupation numbers 
     1.0000   1.0000   1.0000   1.0000   1.0000   1.0000   1.0000   1.0000
     1.0000   1.0000   1.0000   1.0000   1.0000   1.0000   1.0000   1.0000
     1.0000   1.0000   1.0000   1.0000   1.0000   1.0000   1.0000   1.0000
     0.9897   0.0249   0.0000   0.0000   0.0000   0.0000

          k = 0.1090 0.2180 0.3270 (  9647 PWs)   bands (ev):

  -124.0100 -78.1688 -78.1688 -78.1687 -25.7975 -11.9718 -11.8689 -11.7157
    -9.5001  -9.2908  -9.0919  -4.8714  -4.8709  -4.8705  -4.8700  -4.8685
    -0.8724  -0.1867  -0.0766   0.0104   0.3560   0.4907   0.7362   0.9054
     0.9615   1.2340   5.6637   6.2009   6.4856   9.1214

     occupation numbers 
     1.0000   1.0000   1.0000   1.0000   1.0000   1.0000   1.0000   1.0000
     1.0000   1.0000   1.0000   1.0000   1.0000   1.0000   1.0000   1.0000
     1.0000   1.0000   1.0000   1.0000   1.0000   1.0000   1.0000   1.0000
     0.9992   0.0064   0.0000   0.0000   0.0000   0.0000

          k = 0.1090 0.2180-0.4360 (  9632 PWs)   bands (ev):

  -124.0100 -78.1688 -78.1688 -78.1686 -25.7972 -11.9998 -11.8778 -11.7168
    -9.4996  -9.2903  -9.0115  -4.8712  -4.8712  -4.8705  -4.8702  -4.8682
    -0.9007  -0.2878  -0.1055   0.0252   0.3470   0.5582   0.6614   0.9180
     0.9437   1.2447   5.7288   6.0270   6.4812   9.1504

     occupation numbers 
     1.0000   1.0000   1.0000   1.0000   1.0000   1.0000   1.0000   1.0000
     1.0000   1.0000   1.0000   1.0000   1.0000   1.0000   1.0000   1.0000
     1.0000   1.0000   1.0000   1.0000   1.0000   1.0000   1.0000   1.0000
     0.9998   0.0033   0.0000   0.0000   0.0000   0.0000

          k = 0.1090 0.3270 0.3270 (  9626 PWs)   bands (ev):

  -124.0100 -78.1688 -78.1687 -78.1686 -25.7969 -11.9768 -11.9481 -11.7311
    -9.4989  -9.0953  -9.0874  -4.8711  -4.8710  -4.8706  -4.8694  -4.8682
    -0.9559  -0.3537  -0.0668  -0.0612   0.4033   0.4723   0.6702   0.8562
     1.0496   1.1424   5.8143   6.2446   6.2969   9.5790

     occupation numbers 
     1.0000   1.0000   1.0000   1.0000   1.0000   1.0000   1.0000   1.0000
     1.0000   1.0000   1.0000   1.0000   1.0000   1.0000   1.0000   1.0000
     1.0000   1.0000   1.0000   1.0000   1.0000   1.0000   1.0000   1.0000
     0.9100   0.2783   0.0000   0.0000   0.0000   0.0000

          k = 0.1090 0.3270-0.4360 (  9642 PWs)   bands (ev):

  -124.0100 -78.1689 -78.1688 -78.1686 -25.7967 -11.9980 -11.9619 -11.7339
    -9.4984  -9.0911  -9.0108  -4.8711  -4.8710  -4.8706  -4.8692  -4.8680
    -0.9895  -0.4330  -0.1002  -0.0469   0.3830   0.5638   0.5995   0.8160
     1.0824   1.1159   6.0133   6.0322   6.3185   9.6171

     occupation numbers 
     1.0000   1.0000   1.0000   1.0000   1.0000   1.0000   1.0000   1.0000
     1.0000   1.0000   1.0000   1.0000   1.0000   1.0000   1.0000   1.0000
     1.0000   1.0000   1.0000   1.0000   1.0000   1.0000   1.0000   1.0000
     0.7453   0.4852   0.0000   0.0000   0.0000   0.0000

          k = 0.1090-0.4360-0.4360 (  9632 PWs)   bands (ev):

  -124.0100 -78.1688 -78.1688 -78.1687 -25.7965 -11.9973 -11.9973 -11.7371
    -9.4978  -9.0105  -9.0105  -4.8711  -4.8711  -4.8706  -4.8688  -4.8679
    -1.0273  -0.5013  -0.0814  -0.0814   0.3665   0.6159   0.6159   0.7188
     1.0364   1.1612   6.0902   6.1704   6.1704   9.9626

     occupation numbers 
     1.0000   1.0000   1.0000   1.0000   1.0000   1.0000   1.0000   1.0000
     1.0000   1.0000   1.0000   1.0000   1.0000   1.0000   1.0000   1.0000
     1.0000   1.0000   1.0000   1.0000   1.0000   1.0000   1.0000   1.0000
     0.9469   0.1640   0.0000   0.0000   0.0000   0.0000

          k = 0.2180 0.2180 0.2180 (  9651 PWs)   bands (ev):

  -124.0100 -78.1689 -78.1689 -78.1687 -25.7975 -11.9373 -11.8167 -11.8167
    -9.3084  -9.2821  -9.2821  -4.8709  -4.8709  -4.8704  -4.8690  -4.8690
    -0.8175  -0.1637  -0.1637  -0.0465   0.4288   0.4288   0.8724   0.9321
     0.9321   1.1421   5.5881   6.5339   6.5339   9.1466

     occupation numbers 
     1.0000   1.0000   1.0000   1.0000   1.0000   1.0000   1.0000   1.0000
     1.0000   1.0000   1.0000   1.0000   1.0000   1.0000   1.0000   1.0000
     1.0000   1.0000   1.0000   1.0000   1.0000   1.0000   1.0000   0.9999
     0.9999   0.2803   0.0000   0.0000   0.0000   0.0000

          k = 0.2180 0.2180 0.3270 (  9650 PWs)   bands (ev):

  -124.0100 -78.1688 -78.1688 -78.1688 -25.7969 -11.9709 -11.8840 -11.8153
    -9.2994  -9.2811  -9.0911  -4.8707  -4.8706  -4.8703  -4.8694  -4.8683
    -0.8551  -0.3003  -0.2753  -0.1527   0.4350   0.4859   0.8542   0.9177
     0.9559   1.0882   5.6991   6.3131   6.6193   9.3176

     occupation numbers 
     1.0000   1.0000   1.0000   1.0000   1.0000   1.0000   1.0000   1.0000
     1.0000   1.0000   1.0000   1.0000   1.0000   1.0000   1.0000   1.0000
     1.0000   1.0000   1.0000   1.0000   1.0000   1.0000   1.0000   1.0000
     0.9995   0.7054   0.0000   0.0000   0.0000   0.0000

          k = 0.2180 0.2180-0.4360 (  9626 PWs)   bands (ev):

  -124.0100 -78.1688 -78.1687 -78.1687 -25.7967 -11.9981 -11.8952 -11.8147
    -9.2987  -9.2807  -9.0108  -4.8705  -4.8703  -4.8702  -4.8701  -4.8680
    -0.8678  -0.4101  -0.3175  -0.1459   0.4395   0.5251   0.8019   0.9280
     0.9678   1.0693   5.9601   6.0015   6.6507   9.3393

     occupation numbers 
     1.0000   1.0000   1.0000   1.0000   1.0000   1.0000   1.0000   1.0000
     1.0000   1.0000   1.0000   1.0000   1.0000   1.0000   1.0000   1.0000
     1.0000   1.0000   1.0000   1.0000   1.0000   1.0000   1.0000   0.9999
     0.9988   0.8241   0.0000   0.0000   0.0000   0.0000

          k = 0.2180 0.3270 0.3270 (  9642 PWs)   bands (ev):

  -124.0100 -78.1689 -78.1688 -78.1687 -25.7964 -11.9757 -11.9465 -11.8470
    -9.2897  -9.0944  -9.0867  -4.8704  -4.8703  -4.8698  -4.8690  -4.8681
    -0.8660  -0.4663  -0.3186  -0.3059   0.4172   0.4995   0.8869   0.8978
     0.9509   1.0548   5.8891   6.4270   6.5704   9.4797

     occupation numbers 
     1.0000   1.0000   1.0000   1.0000   1.0000   1.0000   1.0000   1.0000
     1.0000   1.0000   1.0000   1.0000   1.0000   1.0000   1.0000   1.0000
     1.0000   1.0000   1.0000   1.0000   1.0000   1.0000   1.0000   1.0000
     0.9997   0.8911   0.0000   0.0000   0.0000   0.0000

          k = 0.2180 0.3270-0.4360 (  9644 PWs)   bands (ev):

  -124.0100 -78.1689 -78.1688 -78.1687 -25.7962 -11.9964 -11.9609 -11.8496
    -9.2891  -9.0903  -9.0101  -4.8703  -4.8701  -4.8694  -4.8691  -4.8679
    -0.8769  -0.5483  -0.3747  -0.2993   0.3999   0.5229   0.8238   0.9163
     0.9174   1.1027   6.1428   6.2413   6.6025   9.4722

     occupation numbers 
     1.0000   1.0000   1.0000   1.0000   1.0000   1.0000   1.0000   1.0000
     1.0000   1.0000   1.0000   1.0000   1.0000   1.0000   1.0000   1.0000
     1.0000   1.0000   1.0000   1.0000   1.0000   1.0000   1.0000   1.0000
     1.0000   0.5939   0.0000   0.0000   0.0000   0.0000

          k = 0.2180-0.4360-0.4360 (  9644 PWs)   bands (ev):

  -124.0100 -78.1689 -78.1689 -78.1687 -25.7960 -11.9957 -11.9957 -11.8532
    -9.2886  -9.0098  -9.0098  -4.8701  -4.8701  -4.8693  -4.8687  -4.8677
    -0.8960  -0.6123  -0.3617  -0.3617   0.3695   0.5473   0.7539   0.9074
     0.9074   1.1631   6.3788   6.3788   6.3898   9.4149

     occupation numbers 
     1.0000   1.0000   1.0000   1.0000   1.0000   1.0000   1.0000   1.0000
     1.0000   1.0000   1.0000   1.0000   1.0000   1.0000   1.0000   1.0000
     1.0000   1.0000   1.0000   1.0000   1.0000   1.0000   1.0000   1.0000
     1.0000   0.1542   0.0000   0.0000   0.0000   0.0000

          k = 0.3270 0.3270 0.3270 (  9675 PWs)   bands (ev):

  -124.0101 -78.1689 -78.1689 -78.1689 -25.7959 -11.9779 -11.9450 -11.9450
    -9.0984  -9.0859  -9.0859  -4.8695  -4.8695  -4.8695  -4.8682  -4.8682
    -0.7821  -0.5942  -0.4742  -0.4742   0.4241   0.4241   0.6785   1.0368
     1.0368   1.0761   6.1378   6.6542   6.6542   9.3584

     occupation numbers 
     1.0000   1.0000   1.0000   1.0000   1.0000   1.0000   1.0000   1.0000
     1.0000   1.0000   1.0000   1.0000   1.0000   1.0000   1.0000   1.0000
     1.0000   1.0000   1.0000   1.0000   1.0000   1.0000   1.0000   0.9461
     0.9461   0.7856   0.0000   0.0000   0.0000   0.0000

          k = 0.3270 0.3270-0.4360 (  9638 PWs)   bands (ev):

  -124.0100 -78.1688 -78.1688 -78.1688 -25.7956 -11.9948 -11.9663 -11.9443
    -9.0940  -9.0856  -9.0095  -4.8694  -4.8691  -4.8690  -4.8683  -4.8678
    -0.7484  -0.6894  -0.5334  -0.4801   0.3966   0.4266   0.5681   1.0512
     1.0804   1.1169   6.4033   6.5152   6.7673   9.3195

     occupation numbers 
     1.0000   1.0000   1.0000   1.0000   1.0000   1.0000   1.0000   1.0000
     1.0000   1.0000   1.0000   1.0000   1.0000   1.0000   1.0000   1.0000
     1.0000   1.0000   1.0000   1.0000   1.0000   1.0000   1.0000   0.9047
     0.7586   0.4768   0.0000   0.0000   0.0000   0.0000

          k = 0.3270-0.4360-0.4360 (  9660 PWs)   bands (ev):

  -124.0101 -78.1689 -78.1689 -78.1689 -25.7954 -11.9941 -11.9941 -11.9547
    -9.0895  -9.0092  -9.0092  -4.8690  -4.8690  -4.8686  -4.8681  -4.8676
    -0.7557  -0.7161  -0.5460  -0.5460   0.3725   0.4168   0.4372   1.0996
     1.0996   1.1651   6.6595   6.6595   6.6880   9.1033

     occupation numbers 
     1.0000   1.0000   1.0000   1.0000   1.0000   1.0000   1.0000   1.0000
     1.0000   1.0000   1.0000   1.0000   1.0000   1.0000   1.0000   1.0000
     1.0000   1.0000   1.0000   1.0000   1.0000   1.0000   1.0000   0.6189
     0.6189   0.1448   0.0000   0.0000   0.0000   0.0000

          k =-0.4360-0.4360-0.4360 (  9568 PWs)   bands (ev):

  -124.0098 -78.1685 -78.1685 -78.1685 -25.7952 -11.9934 -11.9934 -11.9934
    -9.0089  -9.0089  -9.0089  -4.8686  -4.8686  -4.8686  -4.8675  -4.8675
    -0.8241  -0.6100  -0.6100  -0.6100   0.2796   0.3738   0.3738   1.1659
     1.1659   1.1659   6.8130   6.8130   6.8130   8.9969

     occupation numbers 
     1.0000   1.0000   1.0000   1.0000   1.0000   1.0000   1.0000   1.0000
     1.0000   1.0000   1.0000   1.0000   1.0000   1.0000   1.0000   1.0000
     1.0000   1.0000   1.0000   1.0000   1.0000   1.0000   1.0000   0.1410
     0.1410   0.1410   0.0000   0.0000   0.0000   0.0000

     the Fermi energy is     1.1141 ev

!    total energy              =   -1276.06348761 Ry
     total all-electron energy =    -20435.209494 Ry
     estimated scf accuracy    <          7.5E-11 Ry
     smearing contrib. (-TS)   =      -0.00240315 Ry
     internal energy E=F+TS    =   -1276.06108446 Ry

     The total energy is F=E-TS. E is the sum of the following terms:
     one-electron contribution =    -535.15193054 Ry
     hartree contribution      =     281.71277413 Ry
     xc contribution           =     -79.09847198 Ry
     ewald contribution        =    -260.21015317 Ry
     one-center paw contrib.   =    -683.31330290 Ry
      -> PAW hartree energy AE =      38.07419834 Ry
      -> PAW hartree energy PS =     -37.86105540 Ry
      -> PAW xc energy AE      =     -66.27352960 Ry
      -> PAW xc energy PS      =      10.63831934 Ry
      -> total E_H with PAW    =     281.92591707 Ry
      -> total E_XC with PAW   =    -134.73368224 Ry

     convergence has been achieved in  16 iterations

     Forces acting on atoms (cartesian axes, Ry/au):

     atom    1 type  1   force =     0.00000000    0.00000000    0.00000000
     atom    2 type  2   force =     0.00000000    0.00000000    0.00000000
     atom    3 type  3   force =     0.00000000    0.00000000    0.00000000
     atom    4 type  3   force =     0.00000000    0.00000000    0.00000000
     atom    5 type  3   force =     0.00000000    0.00000000    0.00000000
     The non-local contrib.  to forces
     atom    1 type  1   force =     0.00000000    0.00000000    0.00000000
     atom    2 type  2   force =     0.00000000    0.00000000    0.00000000
     atom    3 type  3   force =     0.00000000    0.00000000    0.00000000
     atom    4 type  3   force =     0.00000000    0.00000000    0.00000000
     atom    5 type  3   force =     0.00000000    0.00000000    0.00000000
     The ionic contribution  to forces
     atom    1 type  1   force =    -0.00000000   -0.00000000   -0.00000000
     atom    2 type  2   force =     0.00000000    0.00000000    0.00000000
     atom    3 type  3   force =     0.00000000   -0.00000000   -0.00000000
     atom    4 type  3   force =    -0.00000000    0.00000000   -0.00000000
     atom    5 type  3   force =    -0.00000000   -0.00000000    0.00000000
     The local contribution  to forces
     atom    1 type  1   force =    -0.00000000   -0.00000000   -0.00000000
     atom    2 type  2   force =     0.00000000    0.00000000    0.00000000
     atom    3 type  3   force =     0.00000000   -0.00000000   -0.00000000
     atom    4 type  3   force =    -0.00000000    0.00000000   -0.00000000
     atom    5 type  3   force =    -0.00000000   -0.00000000   -0.00000000
     The core correction contribution to forces
     atom    1 type  1   force =     0.00000000    0.00000000   -0.00000000
     atom    2 type  2   force =     0.00000000    0.00000000    0.00000000
     atom    3 type  3   force =    -0.00000000   -0.00000000   -0.00000000
     atom    4 type  3   force =     0.00000000   -0.00000000   -0.00000000
     atom    5 type  3   force =     0.00000000   -0.00000000   -0.00000000
     The Hubbard contrib.    to forces
     atom    1 type  1   force =     0.00000000    0.00000000    0.00000000
     atom    2 type  2   force =     0.00000000    0.00000000    0.00000000
     atom    3 type  3   force =     0.00000000    0.00000000    0.00000000
     atom    4 type  3   force =     0.00000000    0.00000000    0.00000000
     atom    5 type  3   force =     0.00000000    0.00000000    0.00000000
     The SCF correction term to forces
     atom    1 type  1   force =    -0.00000000   -0.00000000    0.00000000
     atom    2 type  2   force =    -0.00000000   -0.00000000    0.00000000
     atom    3 type  3   force =    -0.00000000    0.00000000    0.00000000
     atom    4 type  3   force =    -0.00000000    0.00000000   -0.00000000
     atom    5 type  3   force =    -0.00000000    0.00000000    0.00000000

     Total force =     0.000000     Total SCF correction =     0.000000


     Computing stress (Cartesian axis) and pressure

          total   stress  (Ry/bohr**3)                   (kbar)     P=       28.04
   0.00019063   0.00000000   0.00000000           28.04        0.00        0.00
   0.00000000   0.00019063   0.00000000            0.00       28.04        0.00
   0.00000000   0.00000000   0.00019063            0.00        0.00       28.04

     kinetic stress (kbar)  11802.15      0.00      0.00
                                0.00  11802.15      0.00
                                0.00      0.00  11802.15

     local   stress (kbar)  -8519.89     -0.00      0.00
                               -0.00  -8519.89      0.00
                                0.00      0.00  -8519.89

     nonloc. stress (kbar)  -1281.60      0.00      0.00
                                0.00  -1281.60      0.00
                                0.00      0.00  -1281.60

     hartree stress (kbar)  11483.86      0.00     -0.00
                                0.00  11483.86      0.00
                               -0.00      0.00  11483.86

     exc-cor stress (kbar)  -1197.15     -0.00     -0.00
                               -0.00  -1197.15      0.00
                               -0.00      0.00  -1197.15

     corecor stress (kbar)  -1652.00      0.00      0.00
                                0.00  -1652.00      0.00
                                0.00      0.00  -1652.00

     ewald   stress (kbar) -10607.32      0.00     -0.00
                                0.00 -10607.32     -0.00
                               -0.00     -0.00 -10607.32

     hubbard stress (kbar)      0.00      0.00      0.00
                                0.00      0.00      0.00
                                0.00      0.00      0.00

     DFT-D   stress (kbar)      0.00      0.00      0.00
                                0.00      0.00      0.00
                                0.00      0.00      0.00

     XDM     stress (kbar)      0.00      0.00      0.00
                                0.00      0.00      0.00
                                0.00      0.00      0.00

     dft-nl  stress (kbar)      0.00      0.00      0.00
                                0.00      0.00      0.00
                                0.00      0.00      0.00

     TS-vdW  stress (kbar)      0.00      0.00      0.00
                                0.00      0.00      0.00
                                0.00      0.00      0.00

     MDB     stress (kbar)      0.00      0.00      0.00
                                0.00      0.00      0.00
                                0.00      0.00      0.00

     3D-RISM stress (kbar)      0.00      0.00      0.00
                                0.00      0.00      0.00
                                0.00      0.00      0.00

     Energy error            =      6.8E-02 Ry
     Gradient error          =      0.0E+00 Ry/Bohr
     Cell gradient error     =      2.8E+01 kbar

     number of scf cycles    =   4
     number of bfgs steps    =   3

     enthalpy           old  =   -1275.9956310137 Ry
     enthalpy           new  =   -1276.0634876090 Ry

     CASE: enthalpy          _new < enthalpy          _old

     new trust radius        =       0.2465743636 bohr
     new conv_thr            =            1.0E-10 Ry

     new unit-cell volume =   1335.77931 a.u.^3 (   197.94207 Ang^3 )
     density =      2.88742 g/cm^3

CELL_PARAMETERS (angstrom)
   5.827908217   0.000000000   0.000000000
   0.000000000   5.827908217   0.000000000
   0.000000000   0.000000000   5.827908217

ATOMIC_POSITIONS (crystal)
K                0.0000000000        0.0000000000        0.0000000000
Zn               0.5000000000        0.5000000000        0.5000000000
Br               0.5000000000        0.0000000000        0.0000000000
Br               0.0000000000        0.5000000000        0.0000000000
Br               0.0000000000        0.0000000000        0.5000000000



     Writing config-only to output data dir ./tmp/kznbr3.save/ :
     XML data file
     NEW-OLD atomic charge density approx. for the potential

     total cpu time spent up to now is     1109.2 secs

     Self-consistent Calculation

     iteration #  1     ecut=    80.00 Ry     beta= 0.40
     Davidson diagonalization with overlap

---- Real-time Memory Report at c_bands before calling an iterative solver
           234 MiB given to the printing process from OS
             0 MiB allocation reported by mallinfo(arena+hblkhd)
         46531 MiB available memory on the node where the printing process lives
------------------
     ethr =  1.00E-06,  avg # of iterations =  7.8

     total cpu time spent up to now is     1147.7 secs

     total energy              =   -1276.03740083 Ry
     estimated scf accuracy    <       0.03864828 Ry

     iteration #  2     ecut=    80.00 Ry     beta= 0.40
     Davidson diagonalization with overlap

---- Real-time Memory Report at c_bands before calling an iterative solver
           234 MiB given to the printing process from OS
             0 MiB allocation reported by mallinfo(arena+hblkhd)
         46551 MiB available memory on the node where the printing process lives
------------------
     ethr =  7.73E-05,  avg # of iterations =  2.1

     total cpu time spent up to now is     1164.4 secs

     total energy              =   -1276.05140173 Ry
     estimated scf accuracy    <       0.19537362 Ry

     iteration #  3     ecut=    80.00 Ry     beta= 0.40
     Davidson diagonalization with overlap

---- Real-time Memory Report at c_bands before calling an iterative solver
           234 MiB given to the printing process from OS
             0 MiB allocation reported by mallinfo(arena+hblkhd)
         46425 MiB available memory on the node where the printing process lives
------------------
     ethr =  7.73E-05,  avg # of iterations =  2.0

     total cpu time spent up to now is     1179.4 secs

     total energy              =   -1276.06868242 Ry
     estimated scf accuracy    <       0.00497800 Ry

     iteration #  4     ecut=    80.00 Ry     beta= 0.40
     Davidson diagonalization with overlap

---- Real-time Memory Report at c_bands before calling an iterative solver
           234 MiB given to the printing process from OS
             0 MiB allocation reported by mallinfo(arena+hblkhd)
         46452 MiB available memory on the node where the printing process lives
------------------
     ethr =  9.96E-06,  avg # of iterations =  1.0

     total cpu time spent up to now is     1192.4 secs

     total energy              =   -1276.07317543 Ry
     estimated scf accuracy    <       0.00249056 Ry

     iteration #  5     ecut=    80.00 Ry     beta= 0.40
     Davidson diagonalization with overlap

---- Real-time Memory Report at c_bands before calling an iterative solver
           234 MiB given to the printing process from OS
             0 MiB allocation reported by mallinfo(arena+hblkhd)
         46444 MiB available memory on the node where the printing process lives
------------------
     ethr =  4.98E-06,  avg # of iterations =  2.0

     total cpu time spent up to now is     1208.5 secs

     total energy              =   -1276.07558295 Ry
     estimated scf accuracy    <       0.00102743 Ry

     iteration #  6     ecut=    80.00 Ry     beta= 0.40
     Davidson diagonalization with overlap

---- Real-time Memory Report at c_bands before calling an iterative solver
           234 MiB given to the printing process from OS
             0 MiB allocation reported by mallinfo(arena+hblkhd)
         46408 MiB available memory on the node where the printing process lives
------------------
     ethr =  2.05E-06,  avg # of iterations =  2.0

     total cpu time spent up to now is     1224.3 secs

     total energy              =   -1276.07579826 Ry
     estimated scf accuracy    <       0.00054012 Ry

     iteration #  7     ecut=    80.00 Ry     beta= 0.40
     Davidson diagonalization with overlap

---- Real-time Memory Report at c_bands before calling an iterative solver
           234 MiB given to the printing process from OS
             0 MiB allocation reported by mallinfo(arena+hblkhd)
         46562 MiB available memory on the node where the printing process lives
------------------
     ethr =  1.08E-06,  avg # of iterations =  1.0

     total cpu time spent up to now is     1237.4 secs

     total energy              =   -1276.07642808 Ry
     estimated scf accuracy    <       0.00043217 Ry

     iteration #  8     ecut=    80.00 Ry     beta= 0.40
     Davidson diagonalization with overlap

---- Real-time Memory Report at c_bands before calling an iterative solver
           234 MiB given to the printing process from OS
             0 MiB allocation reported by mallinfo(arena+hblkhd)
         46628 MiB available memory on the node where the printing process lives
------------------
     ethr =  8.64E-07,  avg # of iterations =  2.0

     total cpu time spent up to now is     1253.8 secs

     total energy              =   -1276.07675354 Ry
     estimated scf accuracy    <       0.00019539 Ry

     iteration #  9     ecut=    80.00 Ry     beta= 0.40
     Davidson diagonalization with overlap

---- Real-time Memory Report at c_bands before calling an iterative solver
           234 MiB given to the printing process from OS
             0 MiB allocation reported by mallinfo(arena+hblkhd)
         46575 MiB available memory on the node where the printing process lives
------------------
     ethr =  3.91E-07,  avg # of iterations =  2.1

     total cpu time spent up to now is     1270.5 secs

     total energy              =   -1276.07677947 Ry
     estimated scf accuracy    <       0.00001174 Ry

     iteration # 10     ecut=    80.00 Ry     beta= 0.40
     Davidson diagonalization with overlap

---- Real-time Memory Report at c_bands before calling an iterative solver
           234 MiB given to the printing process from OS
             0 MiB allocation reported by mallinfo(arena+hblkhd)
         46642 MiB available memory on the node where the printing process lives
------------------
     ethr =  2.35E-08,  avg # of iterations =  2.2

     total cpu time spent up to now is     1287.4 secs

     total energy              =   -1276.07678008 Ry
     estimated scf accuracy    <       0.00000151 Ry

     iteration # 11     ecut=    80.00 Ry     beta= 0.40
     Davidson diagonalization with overlap

---- Real-time Memory Report at c_bands before calling an iterative solver
           234 MiB given to the printing process from OS
             0 MiB allocation reported by mallinfo(arena+hblkhd)
         46770 MiB available memory on the node where the printing process lives
------------------
     ethr =  3.01E-09,  avg # of iterations =  2.1

     total cpu time spent up to now is     1304.7 secs

     total energy              =   -1276.07678033 Ry
     estimated scf accuracy    <       0.00000001 Ry

     iteration # 12     ecut=    80.00 Ry     beta= 0.40
     Davidson diagonalization with overlap

---- Real-time Memory Report at c_bands before calling an iterative solver
           234 MiB given to the printing process from OS
             0 MiB allocation reported by mallinfo(arena+hblkhd)
         46545 MiB available memory on the node where the printing process lives
------------------
     ethr =  2.86E-11,  avg # of iterations =  4.6

     total cpu time spent up to now is     1330.3 secs

     total energy              =   -1276.07678034 Ry
     estimated scf accuracy    <       0.00000007 Ry

     iteration # 13     ecut=    80.00 Ry     beta= 0.40
     Davidson diagonalization with overlap

---- Real-time Memory Report at c_bands before calling an iterative solver
           234 MiB given to the printing process from OS
             0 MiB allocation reported by mallinfo(arena+hblkhd)
         46651 MiB available memory on the node where the printing process lives
------------------
     ethr =  2.86E-11,  avg # of iterations =  2.0

     total cpu time spent up to now is     1346.8 secs

     total energy              =   -1276.07678034 Ry
     estimated scf accuracy    <          3.2E-09 Ry

     iteration # 14     ecut=    80.00 Ry     beta= 0.40
     Davidson diagonalization with overlap

---- Real-time Memory Report at c_bands before calling an iterative solver
           234 MiB given to the printing process from OS
             0 MiB allocation reported by mallinfo(arena+hblkhd)
         46481 MiB available memory on the node where the printing process lives
------------------
     ethr =  6.46E-12,  avg # of iterations =  2.5

     total cpu time spent up to now is     1365.5 secs

     total energy              =   -1276.07678034 Ry
     estimated scf accuracy    <          5.6E-10 Ry

     iteration # 15     ecut=    80.00 Ry     beta= 0.40
     Davidson diagonalization with overlap

---- Real-time Memory Report at c_bands before calling an iterative solver
           234 MiB given to the printing process from OS
             0 MiB allocation reported by mallinfo(arena+hblkhd)
         46557 MiB available memory on the node where the printing process lives
------------------
     ethr =  1.11E-12,  avg # of iterations =  2.2

     total cpu time spent up to now is     1382.8 secs

     total energy              =   -1276.07678034 Ry
     estimated scf accuracy    <          1.3E-10 Ry

     iteration # 16     ecut=    80.00 Ry     beta= 0.40
     Davidson diagonalization with overlap

---- Real-time Memory Report at c_bands before calling an iterative solver
           234 MiB given to the printing process from OS
             0 MiB allocation reported by mallinfo(arena+hblkhd)
         46593 MiB available memory on the node where the printing process lives
------------------
     ethr =  2.57E-13,  avg # of iterations =  2.0

     total cpu time spent up to now is     1399.0 secs

     End of self-consistent calculation

          k = 0.0000 0.0000 0.0000 (  9771 PWs)   bands (ev):

  -124.7366 -78.8913 -78.8913 -78.8913 -26.6681 -12.5090 -12.2980 -12.2980
   -10.3704 -10.3704 -10.3704  -5.6020  -5.6020  -5.6012  -5.6012  -5.6012
    -0.7902  -0.7902  -0.7902  -0.5753  -0.1205  -0.1205  -0.1205   0.3328
     0.3328   0.3328   6.0095   6.0095   6.0095   7.5450

     occupation numbers 
     1.0000   1.0000   1.0000   1.0000   1.0000   1.0000   1.0000   1.0000
     1.0000   1.0000   1.0000   1.0000   1.0000   1.0000   1.0000   1.0000
     1.0000   1.0000   1.0000   1.0000   1.0000   1.0000   1.0000   0.1050
     0.1050   0.1050   0.0000   0.0000   0.0000   0.0000

          k = 0.0000 0.0000 0.1053 (  9667 PWs)   bands (ev):

  -124.7363 -78.8897 -78.8897 -78.8889 -26.6680 -12.5140 -12.3302 -12.2977
   -10.3701 -10.3701 -10.3078  -5.6021  -5.6017  -5.6013  -5.6013  -5.6011
    -0.9580  -0.7677  -0.7677  -0.4328  -0.1398  -0.1398  -0.1347   0.2827
     0.3152   0.3152   5.6476   5.9288   5.9288   7.5808

     occupation numbers 
     1.0000   1.0000   1.0000   1.0000   1.0000   1.0000   1.0000   1.0000
     1.0000   1.0000   1.0000   1.0000   1.0000   1.0000   1.0000   1.0000
     1.0000   1.0000   1.0000   1.0000   1.0000   1.0000   1.0000   0.4155
     0.1871   0.1871   0.0000   0.0000   0.0000   0.0000

          k = 0.0000 0.0000 0.2105 (  9618 PWs)   bands (ev):

  -124.7361 -78.8888 -78.8888 -78.8881 -26.6677 -12.5346 -12.3920 -12.2970
   -10.3693 -10.3693 -10.1628  -5.6025  -5.6017  -5.6017  -5.6012  -5.6010
    -1.1479  -0.7026  -0.7026  -0.4388  -0.2028  -0.2028  -0.1686   0.2793
     0.2793   0.3085   5.0769   5.7679   5.7679   7.6757

     occupation numbers 
     1.0000   1.0000   1.0000   1.0000   1.0000   1.0000   1.0000   1.0000
     1.0000   1.0000   1.0000   1.0000   1.0000   1.0000   1.0000   1.0000
     1.0000   1.0000   1.0000   1.0000   1.0000   1.0000   1.0000   0.4430
     0.4430   0.2270   0.0000   0.0000   0.0000   0.0000

          k = 0.0000 0.0000 0.3158 (  9634 PWs)   bands (ev):

  -124.7362 -78.8890 -78.8887 -78.8887 -26.6674 -12.5717 -12.4286 -12.2964
   -10.3685 -10.3685 -10.0244  -5.6029  -5.6022  -5.6022  -5.6010  -5.6007
    -1.2610  -0.6262  -0.6046  -0.6046  -0.3065  -0.3065  -0.2017   0.2527
     0.2527   0.4613   4.6470   5.6347   5.6347   7.7869

     occupation numbers 
     1.0000   1.0000   1.0000   1.0000   1.0000   1.0000   1.0000   1.0000
     1.0000   1.0000   1.0000   1.0000   1.0000   1.0000   1.0000   1.0000
     1.0000   1.0000   1.0000   1.0000   1.0000   1.0000   1.0000   0.6594
     0.6594   0.0000   0.0000   0.0000   0.0000   0.0000

          k = 0.0000 0.0000-0.4210 (  9658 PWs)   bands (ev):

  -124.7363 -78.8898 -78.8890 -78.8890 -26.6673 -12.5914 -12.4376 -12.2961
   -10.3682 -10.3682  -9.9685  -5.6031  -5.6024  -5.6024  -5.6010  -5.6005
    -1.2947  -0.7231  -0.5255  -0.5255  -0.3901  -0.3901  -0.2152   0.2441
     0.2441   0.5374   4.4873   5.5848   5.5848   7.8396

     occupation numbers 
     1.0000   1.0000   1.0000   1.0000   1.0000   1.0000   1.0000   1.0000
     1.0000   1.0000   1.0000   1.0000   1.0000   1.0000   1.0000   1.0000
     1.0000   1.0000   1.0000   1.0000   1.0000   1.0000   1.0000   0.7219
     0.7219   0.0000   0.0000   0.0000   0.0000   0.0000

          k = 0.0000 0.1053 0.1053 (  9629 PWs)   bands (ev):

  -124.7362 -78.8891 -78.8890 -78.8881 -26.6679 -12.5181 -12.3473 -12.3134
   -10.3698 -10.3101 -10.3048  -5.6021  -5.6016  -5.6013  -5.6013  -5.6012
    -1.0558  -0.7457  -0.7359  -0.3927  -0.2090  -0.1556  -0.0945   0.2594
     0.2876   0.2950   5.4735   5.8027   5.8552   7.7325

     occupation numbers 
     1.0000   1.0000   1.0000   1.0000   1.0000   1.0000   1.0000   1.0000
     1.0000   1.0000   1.0000   1.0000   1.0000   1.0000   1.0000   1.0000
     1.0000   1.0000   1.0000   1.0000   1.0000   1.0000   1.0000   0.6070
     0.3768   0.3195   0.0000   0.0000   0.0000   0.0000

          k = 0.0000 0.1053 0.2105 (  9623 PWs)   bands (ev):

  -124.7361 -78.8889 -78.8888 -78.8883 -26.6676 -12.5360 -12.4059 -12.3183
   -10.3690 -10.3069 -10.1625  -5.6025  -5.6017  -5.6017  -5.6012  -5.6012
    -1.2053  -0.6821  -0.6755  -0.4737  -0.2875  -0.2094  -0.0776   0.2009
     0.2525   0.3349   5.0593   5.6613   5.7034   7.8365

     occupation numbers 
     1.0000   1.0000   1.0000   1.0000   1.0000   1.0000   1.0000   1.0000
     1.0000   1.0000   1.0000   1.0000   1.0000   1.0000   1.0000   1.0000
     1.0000   1.0000   1.0000   1.0000   1.0000   1.0000   1.0000   0.9314
     0.6607   0.0973   0.0000   0.0000   0.0000   0.0000

          k = 0.0000 0.1053 0.3158 (  9640 PWs)   bands (ev):

  -124.7362 -78.8891 -78.8889 -78.8888 -26.6673 -12.5714 -12.4433 -12.3185
   -10.3682 -10.3062 -10.0242  -5.6028  -5.6022  -5.6020  -5.6012  -5.6007
    -1.3029  -0.6748  -0.5915  -0.5862  -0.3823  -0.3038  -0.0725   0.1672
     0.2198   0.4497   4.7144   5.5548   5.5743   7.9290

     occupation numbers 
     1.0000   1.0000   1.0000   1.0000   1.0000   1.0000   1.0000   1.0000
     1.0000   1.0000   1.0000   1.0000   1.0000   1.0000   1.0000   1.0000
     1.0000   1.0000   1.0000   1.0000   1.0000   1.0000   1.0000   0.9857
     0.8633   0.0001   0.0000   0.0000   0.0000   0.0000

          k = 0.0000 0.1053-0.4210 (  9664 PWs)   bands (ev):

  -124.7363 -78.8897 -78.8893 -78.8889 -26.6672 -12.5909 -12.4522 -12.3184
   -10.3679 -10.3059  -9.9683  -5.6029  -5.6024  -5.6022  -5.6012  -5.6005
    -1.3326  -0.7699  -0.5176  -0.5081  -0.4627  -0.3837  -0.0735   0.1553
     0.2091   0.5064   4.5850   5.5137   5.5254   7.9722

     occupation numbers 
     1.0000   1.0000   1.0000   1.0000   1.0000   1.0000   1.0000   1.0000
     1.0000   1.0000   1.0000   1.0000   1.0000   1.0000   1.0000   1.0000
     1.0000   1.0000   1.0000   1.0000   1.0000   1.0000   1.0000   0.9926
     0.9062   0.0000   0.0000   0.0000   0.0000   0.0000

          k = 0.0000 0.2105 0.2105 (  9661 PWs)   bands (ev):

  -124.7363 -78.8894 -78.8894 -78.8893 -26.6673 -12.5442 -12.4553 -12.3418
   -10.3682 -10.1670 -10.1573  -5.6025  -5.6018  -5.6017  -5.6015  -5.6011
    -1.3145  -0.6227  -0.6215  -0.6196  -0.3435  -0.2372  -0.0374   0.1246
     0.1910   0.3688   4.9822   5.4951   5.5631   8.2296

     occupation numbers 
     1.0000   1.0000   1.0000   1.0000   1.0000   1.0000   1.0000   1.0000
     1.0000   1.0000   1.0000   1.0000   1.0000   1.0000   1.0000   1.0000
     1.0000   1.0000   1.0000   1.0000   1.0000   1.0000   1.0000   0.9989
     0.9549   0.0226   0.0000   0.0000   0.0000   0.0000

          k = 0.0000 0.2105 0.3158 (  9639 PWs)   bands (ev):

  -124.7362 -78.8892 -78.8890 -78.8887 -26.6670 -12.5710 -12.4944 -12.3485
   -10.3674 -10.1617 -10.0237  -5.6025  -5.6022  -5.6017  -5.6016  -5.6007
    -1.3956  -0.8037  -0.5616  -0.5334  -0.4163  -0.3010  -0.0474   0.1262
     0.1368   0.4084   4.8753   5.3990   5.4382   8.3173

     occupation numbers 
     1.0000   1.0000   1.0000   1.0000   1.0000   1.0000   1.0000   1.0000
     1.0000   1.0000   1.0000   1.0000   1.0000   1.0000   1.0000   1.0000
     1.0000   1.0000   1.0000   1.0000   1.0000   1.0000   1.0000   0.9988
     0.9976   0.0024   0.0000   0.0000   0.0000   0.0000

          k = 0.0000 0.2105-0.4210 (  9604 PWs)   bands (ev):

  -124.7361 -78.8886 -78.8884 -78.8878 -26.6669 -12.5898 -12.5023 -12.3498
   -10.3671 -10.1614  -9.9679  -5.6025  -5.6024  -5.6017  -5.6017  -5.6005
    -1.4220  -0.8879  -0.4978  -0.4920  -0.4584  -0.3683  -0.0430   0.1175
     0.1265   0.4274   4.8288   5.3679   5.3898   8.3389

     occupation numbers 
     1.0000   1.0000   1.0000   1.0000   1.0000   1.0000   1.0000   1.0000
     1.0000   1.0000   1.0000   1.0000   1.0000   1.0000   1.0000   1.0000
     1.0000   1.0000   1.0000   1.0000   1.0000   1.0000   1.0000   0.9994
     0.9988   0.0006   0.0000   0.0000   0.0000   0.0000

          k = 0.0000 0.3158 0.3158 (  9618 PWs)   bands (ev):

  -124.7361 -78.8893 -78.8886 -78.8879 -26.6667 -12.5748 -12.5512 -12.3602
   -10.3667 -10.0257 -10.0211  -5.6023  -5.6022  -5.6022  -5.6013  -5.6005
    -1.4771  -0.9512  -0.5158  -0.4557  -0.4256  -0.3149  -0.1857   0.0470
     0.2371   0.3558   5.0312   5.2833   5.3129   8.8365

     occupation numbers 
     1.0000   1.0000   1.0000   1.0000   1.0000   1.0000   1.0000   1.0000
     1.0000   1.0000   1.0000   1.0000   1.0000   1.0000   1.0000   1.0000
     1.0000   1.0000   1.0000   1.0000   1.0000   1.0000   1.0000   1.0000
     0.7688   0.0417   0.0000   0.0000   0.0000   0.0000

          k = 0.0000 0.3158-0.4210 (  9622 PWs)   bands (ev):

  -124.7361 -78.8893 -78.8889 -78.8879 -26.6666 -12.5887 -12.5628 -12.3628
   -10.3663 -10.0232  -9.9675  -5.6024  -5.6022  -5.6022  -5.6012  -5.6004
    -1.5078  -1.0171  -0.4668  -0.4622  -0.3887  -0.3526  -0.2273   0.0073
     0.2724   0.3354   5.0899   5.2488   5.2636   8.8287

     occupation numbers 
     1.0000   1.0000   1.0000   1.0000   1.0000   1.0000   1.0000   1.0000
     1.0000   1.0000   1.0000   1.0000   1.0000   1.0000   1.0000   1.0000
     1.0000   1.0000   1.0000   1.0000   1.0000   1.0000   1.0000   1.0000
     0.5005   0.0953   0.0000   0.0000   0.0000   0.0000

          k = 0.0000-0.4210-0.4210 (  9580 PWs)   bands (ev):

  -124.7360 -78.8884 -78.8884 -78.8873 -26.6665 -12.5882 -12.5882 -12.3658
   -10.3660  -9.9673  -9.9673  -5.6023  -5.6023  -5.6021  -5.6009  -5.6002
    -1.5412  -1.0744  -0.4389  -0.4389  -0.3460  -0.3460  -0.3115  -0.0519
     0.2917   0.3267   5.2054   5.2054   5.2137   9.1238

     occupation numbers 
     1.0000   1.0000   1.0000   1.0000   1.0000   1.0000   1.0000   1.0000
     1.0000   1.0000   1.0000   1.0000   1.0000   1.0000   1.0000   1.0000
     1.0000   1.0000   1.0000   1.0000   1.0000   1.0000   1.0000   1.0000
     0.3443   0.1297   0.0000   0.0000   0.0000   0.0000

          k = 0.1053 0.1053 0.1053 (  9615 PWs)   bands (ev):

  -124.7361 -78.8887 -78.8887 -78.8880 -26.6677 -12.5215 -12.3470 -12.3470
   -10.3125 -10.3045 -10.3045  -5.6019  -5.6019  -5.6014  -5.6013  -5.6013
    -1.1221  -0.7226  -0.7226  -0.3892  -0.2187  -0.2187  -0.0595   0.2508
     0.2508   0.2848   5.3064   5.7813   5.7813   7.7925

     occupation numbers 
     1.0000   1.0000   1.0000   1.0000   1.0000   1.0000   1.0000   1.0000
     1.0000   1.0000   1.0000   1.0000   1.0000   1.0000   1.0000   1.0000
     1.0000   1.0000   1.0000   1.0000   1.0000   1.0000   1.0000   0.6735
     0.6735   0.3984   0.0000   0.0000   0.0000   0.0000

          k = 0.1053 0.1053 0.2105 (  9638 PWs)   bands (ev):

  -124.7362 -78.8891 -78.8890 -78.8887 -26.6675 -12.5373 -12.4132 -12.3463
   -10.3094 -10.3038 -10.1622  -5.6024  -5.6019  -5.6015  -5.6015  -5.6011
    -1.2416  -0.6860  -0.6694  -0.5028  -0.3171  -0.2270  -0.0313   0.1677
     0.2287   0.3336   5.0013   5.5915   5.7216   7.9388

     occupation numbers 
     1.0000   1.0000   1.0000   1.0000   1.0000   1.0000   1.0000   1.0000
     1.0000   1.0000   1.0000   1.0000   1.0000   1.0000   1.0000   1.0000
     1.0000   1.0000   1.0000   1.0000   1.0000   1.0000   1.0000   0.9853
     0.8183   0.1018   0.0000   0.0000   0.0000   0.0000

          k = 0.1053 0.1053 0.3158 (  9642 PWs)   bands (ev):

  -124.7362 -78.8893 -78.8891 -78.8887 -26.6672 -12.5711 -12.4529 -12.3456
   -10.3087 -10.3031 -10.0240  -5.6027  -5.6021  -5.6019  -5.6014  -5.6007
    -1.3246  -0.7223  -0.6375  -0.5908  -0.4064  -0.2277  -0.0226   0.0921
     0.2062   0.4263   4.7623   5.4146   5.6555   8.0429

     occupation numbers 
     1.0000   1.0000   1.0000   1.0000   1.0000   1.0000   1.0000   1.0000
     1.0000   1.0000   1.0000   1.0000   1.0000   1.0000   1.0000   1.0000
     1.0000   1.0000   1.0000   1.0000   1.0000   1.0000   1.0000   0.9999
     0.9158   0.0007   0.0000   0.0000   0.0000   0.0000

          k = 0.1053 0.1053-0.4210 (  9612 PWs)   bands (ev):

  -124.7361 -78.8888 -78.8884 -78.8880 -26.6671 -12.5905 -12.4620 -12.3453
   -10.3084 -10.3028  -9.9682  -5.6027  -5.6022  -5.6021  -5.6014  -5.6005
    -1.3492  -0.8165  -0.6084  -0.5602  -0.4489  -0.2346  -0.0224   0.0624
     0.1973   0.4698   4.6749   5.3452   5.6272   8.0825

     occupation numbers 
     1.0000   1.0000   1.0000   1.0000   1.0000   1.0000   1.0000   1.0000
     1.0000   1.0000   1.0000   1.0000   1.0000   1.0000   1.0000   1.0000
     1.0000   1.0000   1.0000   1.0000   1.0000   1.0000   1.0000   1.0000
     0.9410   0.0000   0.0000   0.0000   0.0000   0.0000

          k = 0.1053 0.2105 0.2105 (  9628 PWs)   bands (ev):

  -124.7362 -78.8891 -78.8887 -78.8885 -26.6672 -12.5449 -12.4549 -12.3777
   -10.3061 -10.1666 -10.1570  -5.6023  -5.6019  -5.6017  -5.6013  -5.6010
    -1.3202  -0.6993  -0.6602  -0.6189  -0.3289  -0.2692   0.0180   0.1283
     0.1722   0.3450   4.8998   5.5302   5.6248   8.2137

     occupation numbers 
     1.0000   1.0000   1.0000   1.0000   1.0000   1.0000   1.0000   1.0000
     1.0000   1.0000   1.0000   1.0000   1.0000   1.0000   1.0000   1.0000
     1.0000   1.0000   1.0000   1.0000   1.0000   1.0000   1.0000   0.9986
     0.9814   0.0658   0.0000   0.0000   0.0000   0.0000

          k = 0.1053 0.2105 0.3158 (  9647 PWs)   bands (ev):

  -124.7362 -78.8894 -78.8892 -78.8888 -26.6669 -12.5707 -12.4955 -12.3838
   -10.3053 -10.1614 -10.0235  -5.6023  -5.6020  -5.6018  -5.6015  -5.6007
    -1.3840  -0.8465  -0.6801  -0.6199  -0.3596  -0.2268  -0.0226   0.1148
     0.1468   0.3628   4.8733   5.3429   5.5928   8.3539

     occupation numbers 
     1.0000   1.0000   1.0000   1.0000   1.0000   1.0000   1.0000   1.0000
     1.0000   1.0000   1.0000   1.0000   1.0000   1.0000   1.0000   1.0000
     1.0000   1.0000   1.0000   1.0000   1.0000   1.0000   1.0000   0.9995
     0.9955   0.0301   0.0000   0.0000   0.0000   0.0000

          k = 0.1053 0.2105-0.4210 (  9632 PWs)   bands (ev):

  -124.7362 -78.8893 -78.8891 -78.8882 -26.6668 -12.5894 -12.5040 -12.3847
   -10.3050 -10.1611  -9.9677  -5.6022  -5.6022  -5.6017  -5.6017  -5.6005
    -1.4043  -0.9318  -0.6923  -0.6027  -0.3722  -0.1560  -0.1014   0.1267
     0.1331   0.3713   4.9043   5.2176   5.5893   8.3767

     occupation numbers 
     1.0000   1.0000   1.0000   1.0000   1.0000   1.0000   1.0000   1.0000
     1.0000   1.0000   1.0000   1.0000   1.0000   1.0000   1.0000   1.0000
     1.0000   1.0000   1.0000   1.0000   1.0000   1.0000   1.0000   0.9988
     0.9981   0.0199   0.0000   0.0000   0.0000   0.0000

          k = 0.1053 0.3158 0.3158 (  9626 PWs)   bands (ev):

  -124.7362 -78.8892 -78.8889 -78.8884 -26.6666 -12.5744 -12.5508 -12.3969
   -10.3046 -10.0255 -10.0209  -5.6021  -5.6020  -5.6019  -5.6012  -5.6005
    -1.4458  -0.9910  -0.6698  -0.6621  -0.2925  -0.2631  -0.0638   0.0467
     0.2385   0.2880   5.0063   5.3433   5.4498   8.6846

     occupation numbers 
     1.0000   1.0000   1.0000   1.0000   1.0000   1.0000   1.0000   1.0000
     1.0000   1.0000   1.0000   1.0000   1.0000   1.0000   1.0000   1.0000
     1.0000   1.0000   1.0000   1.0000   1.0000   1.0000   1.0000   1.0000
     0.7601   0.3730   0.0000   0.0000   0.0000   0.0000

          k = 0.1053 0.3158-0.4210 (  9642 PWs)   bands (ev):

  -124.7362 -78.8895 -78.8893 -78.8886 -26.6665 -12.5883 -12.5624 -12.3994
   -10.3043 -10.0230  -9.9673  -5.6022  -5.6021  -5.6019  -5.6011  -5.6004
    -1.4707  -1.0568  -0.6894  -0.6502  -0.3100  -0.1837  -0.1230   0.0155
     0.2467   0.2834   5.1577   5.1979   5.4451   8.7072

     occupation numbers 
     1.0000   1.0000   1.0000   1.0000   1.0000   1.0000   1.0000   1.0000
     1.0000   1.0000   1.0000   1.0000   1.0000   1.0000   1.0000   1.0000
     1.0000   1.0000   1.0000   1.0000   1.0000   1.0000   1.0000   1.0000
     0.7040   0.4100   0.0000   0.0000   0.0000   0.0000

          k = 0.1053-0.4210-0.4210 (  9632 PWs)   bands (ev):

  -124.7362 -78.8890 -78.8890 -78.8890 -26.6664 -12.5878 -12.5878 -12.4024
   -10.3040  -9.9671  -9.9671  -5.6021  -5.6021  -5.6019  -5.6009  -5.6003
    -1.4995  -1.1124  -0.6737  -0.6737  -0.3106  -0.1091  -0.1091  -0.1023
     0.2000   0.3273   5.2724   5.2724   5.3045   9.0138

     occupation numbers 
     1.0000   1.0000   1.0000   1.0000   1.0000   1.0000   1.0000   1.0000
     1.0000   1.0000   1.0000   1.0000   1.0000   1.0000   1.0000   1.0000
     1.0000   1.0000   1.0000   1.0000   1.0000   1.0000   1.0000   1.0000
     0.9340   0.1270   0.0000   0.0000   0.0000   0.0000

          k = 0.2105 0.2105 0.2105 (  9651 PWs)   bands (ev):

  -124.7362 -78.8895 -78.8895 -78.8887 -26.6669 -12.5497 -12.4541 -12.4541
   -10.1714 -10.1565 -10.1565  -5.6021  -5.6021  -5.6017  -5.6010  -5.6010
    -1.3426  -0.7565  -0.7504  -0.7504  -0.2950  -0.2950   0.0943   0.1398
     0.1398   0.2888   4.8333   5.6121   5.6121   8.3603

     occupation numbers 
     1.0000   1.0000   1.0000   1.0000   1.0000   1.0000   1.0000   1.0000
     1.0000   1.0000   1.0000   1.0000   1.0000   1.0000   1.0000   1.0000
     1.0000   1.0000   1.0000   1.0000   1.0000   1.0000   0.9999   0.9971
     0.9971   0.3671   0.0000   0.0000   0.0000   0.0000

          k = 0.2105 0.2105 0.3158 (  9650 PWs)   bands (ev):

  -124.7362 -78.8894 -78.8892 -78.8891 -26.6666 -12.5703 -12.5065 -12.4532
   -10.1661 -10.1559 -10.0231  -5.6020  -5.6019  -5.6017  -5.6012  -5.6006
    -1.3664  -0.9504  -0.8332  -0.7480  -0.2981  -0.2413   0.0799   0.1291
     0.1618   0.2469   4.9187   5.4217   5.6879   8.4659

     occupation numbers 
     1.0000   1.0000   1.0000   1.0000   1.0000   1.0000   1.0000   1.0000
     1.0000   1.0000   1.0000   1.0000   1.0000   1.0000   1.0000   1.0000
     1.0000   1.0000   1.0000   1.0000   1.0000   1.0000   1.0000   0.9986
     0.9893   0.7021   0.0000   0.0000   0.0000   0.0000

          k = 0.2105 0.2105-0.4210 (  9626 PWs)   bands (ev):

  -124.7362 -78.8891 -78.8888 -78.8887 -26.6665 -12.5883 -12.5167 -12.4529
   -10.1658 -10.1556  -9.9673  -5.6018  -5.6017  -5.6016  -5.6016  -5.6003
    -1.3711  -1.0437  -0.8652  -0.7361  -0.2967  -0.2060   0.0353   0.1362
     0.1731   0.2342   5.1063   5.1868   5.7168   8.4679

     occupation numbers 
     1.0000   1.0000   1.0000   1.0000   1.0000   1.0000   1.0000   1.0000
     1.0000   1.0000   1.0000   1.0000   1.0000   1.0000   1.0000   1.0000
     1.0000   1.0000   1.0000   1.0000   1.0000   1.0000   1.0000   0.9977
     0.9805   0.7868   0.0000   0.0000   0.0000   0.0000

          k = 0.2105 0.3158 0.3158 (  9642 PWs)   bands (ev):

  -124.7362 -78.8894 -78.8893 -78.8888 -26.6664 -12.5738 -12.5499 -12.4781
   -10.1606 -10.0249 -10.0205  -5.6017  -5.6017  -5.6014  -5.6010  -5.6004
    -1.3666  -1.0920  -0.8766  -0.8590  -0.2834  -0.2428   0.0888   0.1174
     0.1508   0.2424   5.0768   5.5056   5.6480   8.5156

     occupation numbers 
     1.0000   1.0000   1.0000   1.0000   1.0000   1.0000   1.0000   1.0000
     1.0000   1.0000   1.0000   1.0000   1.0000   1.0000   1.0000   1.0000
     1.0000   1.0000   1.0000   1.0000   1.0000   1.0000   0.9999   0.9994
     0.9943   0.7340   0.0000   0.0000   0.0000   0.0000

          k = 0.2105 0.3158-0.4210 (  9644 PWs)   bands (ev):

  -124.7362 -78.8895 -78.8894 -78.8889 -26.6662 -12.5873 -12.5619 -12.4804
   -10.1603 -10.0225  -9.9669  -5.6017  -5.6016  -5.6012  -5.6011  -5.6003
    -1.3687  -1.1650  -0.9140  -0.8558  -0.2921  -0.2228   0.0321   0.1293
     0.1310   0.2807   5.2941   5.3453   5.6715   8.4875

     occupation numbers 
     1.0000   1.0000   1.0000   1.0000   1.0000   1.0000   1.0000   1.0000
     1.0000   1.0000   1.0000   1.0000   1.0000   1.0000   1.0000   1.0000
     1.0000   1.0000   1.0000   1.0000   1.0000   1.0000   1.0000   0.9985
     0.9984   0.4322   0.0000   0.0000   0.0000   0.0000

          k = 0.2105-0.4210-0.4210 (  9644 PWs)   bands (ev):

  -124.7362 -78.8895 -78.8895 -78.8889 -26.6661 -12.5869 -12.5869 -12.4837
   -10.1600  -9.9667  -9.9667  -5.6016  -5.6016  -5.6011  -5.6008  -5.6002
    -1.3797  -1.2190  -0.9036  -0.9036  -0.3084  -0.2037  -0.0300   0.1243
     0.1243   0.3289   5.4598   5.4598   5.5213   8.3991

     occupation numbers 
     1.0000   1.0000   1.0000   1.0000   1.0000   1.0000   1.0000   1.0000
     1.0000   1.0000   1.0000   1.0000   1.0000   1.0000   1.0000   1.0000
     1.0000   1.0000   1.0000   1.0000   1.0000   1.0000   1.0000   0.9990
     0.9990   0.1205   0.0000   0.0000   0.0000   0.0000

          k = 0.3158 0.3158 0.3158 (  9675 PWs)   bands (ev):

  -124.7363 -78.8898 -78.8898 -78.8898 -26.6661 -12.5755 -12.5490 -12.5490
   -10.0271 -10.0200 -10.0200  -5.6013  -5.6013  -5.6013  -5.6005  -5.6005
    -1.2986  -1.1983  -0.9960  -0.9960  -0.2782  -0.2782  -0.0924   0.2281
     0.2281   0.2591   5.2824   5.7009   5.7009   8.3717

     occupation numbers 
     1.0000   1.0000   1.0000   1.0000   1.0000   1.0000   1.0000   1.0000
     1.0000   1.0000   1.0000   1.0000   1.0000   1.0000   1.0000   1.0000
     1.0000   1.0000   1.0000   1.0000   1.0000   1.0000   1.0000   0.8216
     0.8216   0.6095   0.0000   0.0000   0.0000   0.0000

          k = 0.3158 0.3158-0.4210 (  9638 PWs)   bands (ev):

  -124.7362 -78.8892 -78.8892 -78.8890 -26.6660 -12.5863 -12.5662 -12.5486
   -10.0246 -10.0198  -9.9665  -5.6012  -5.6010  -5.6010  -5.6005  -5.6002
    -1.2889  -1.2487  -1.0445  -1.0026  -0.2916  -0.2763  -0.1857   0.2394
     0.2626   0.2920   5.5027   5.5811   5.7954   8.3328

     occupation numbers 
     1.0000   1.0000   1.0000   1.0000   1.0000   1.0000   1.0000   1.0000
     1.0000   1.0000   1.0000   1.0000   1.0000   1.0000   1.0000   1.0000
     1.0000   1.0000   1.0000   1.0000   1.0000   1.0000   1.0000   0.7540
     0.5810   0.3425   0.0000   0.0000   0.0000   0.0000

          k = 0.3158-0.4210-0.4210 (  9660 PWs)   bands (ev):

  -124.7363 -78.8898 -78.8894 -78.8894 -26.6658 -12.5859 -12.5859 -12.5570
   -10.0220  -9.9663  -9.9663  -5.6010  -5.6010  -5.6008  -5.6004  -5.6001
    -1.3445  -1.2120  -1.0554  -1.0554  -0.3061  -0.2999  -0.2799   0.2780
     0.2780   0.3304   5.7008   5.7008   5.7369   8.1348

     occupation numbers 
     1.0000   1.0000   1.0000   1.0000   1.0000   1.0000   1.0000   1.0000
     1.0000   1.0000   1.0000   1.0000   1.0000   1.0000   1.0000   1.0000
     1.0000   1.0000   1.0000   1.0000   1.0000   1.0000   1.0000   0.4545
     0.4545   0.1142   0.0000   0.0000   0.0000   0.0000

          k =-0.4210-0.4210-0.4210 (  9568 PWs)   bands (ev):

  -124.7360 -78.8878 -78.8878 -78.8878 -26.6657 -12.5855 -12.5855 -12.5855
    -9.9661  -9.9661  -9.9661  -5.6007  -5.6007  -5.6007  -5.6000  -5.6000
    -1.4012  -1.1083  -1.1083  -1.1083  -0.4405  -0.3052  -0.3052   0.3310
     0.3310   0.3310   5.8267   5.8267   5.8267   8.0431

     occupation numbers 
     1.0000   1.0000   1.0000   1.0000   1.0000   1.0000   1.0000   1.0000
     1.0000   1.0000   1.0000   1.0000   1.0000   1.0000   1.0000   1.0000
     1.0000   1.0000   1.0000   1.0000   1.0000   1.0000   1.0000   0.1117
     0.1117   0.1117   0.0000   0.0000   0.0000   0.0000

     the Fermi energy is     0.2725 ev

!    total energy              =   -1276.07678034 Ry
     total all-electron energy =    -20435.222787 Ry
     estimated scf accuracy    <          8.1E-13 Ry
     smearing contrib. (-TS)   =      -0.00284973 Ry
     internal energy E=F+TS    =   -1276.07393061 Ry

     The total energy is F=E-TS. E is the sum of the following terms:
     one-electron contribution =    -550.44858435 Ry
     hartree contribution      =     287.95507279 Ry
     xc contribution           =     -78.99954232 Ry
     ewald contribution        =    -251.27792605 Ry
     one-center paw contrib.   =    -683.30295068 Ry
      -> PAW hartree energy AE =      37.82938360 Ry
      -> PAW hartree energy PS =     -37.61678168 Ry
      -> PAW xc energy AE      =     -66.24188627 Ry
      -> PAW xc energy PS      =      10.60827411 Ry
      -> total E_H with PAW    =     288.16767471 Ry
      -> total E_XC with PAW   =    -134.63315448 Ry

     convergence has been achieved in  16 iterations

     Forces acting on atoms (cartesian axes, Ry/au):

     atom    1 type  1   force =     0.00000000    0.00000000    0.00000000
     atom    2 type  2   force =     0.00000000    0.00000000    0.00000000
     atom    3 type  3   force =     0.00000000    0.00000000    0.00000000
     atom    4 type  3   force =     0.00000000    0.00000000    0.00000000
     atom    5 type  3   force =     0.00000000    0.00000000    0.00000000
     The non-local contrib.  to forces
     atom    1 type  1   force =     0.00000000    0.00000000    0.00000000
     atom    2 type  2   force =     0.00000000    0.00000000    0.00000000
     atom    3 type  3   force =     0.00000000    0.00000000    0.00000000
     atom    4 type  3   force =     0.00000000    0.00000000    0.00000000
     atom    5 type  3   force =     0.00000000    0.00000000    0.00000000
     The ionic contribution  to forces
     atom    1 type  1   force =     0.00000000    0.00000000    0.00000000
     atom    2 type  2   force =    -0.00000000   -0.00000000   -0.00000000
     atom    3 type  3   force =    -0.00000000   -0.00000000   -0.00000000
     atom    4 type  3   force =    -0.00000000   -0.00000000   -0.00000000
     atom    5 type  3   force =    -0.00000000   -0.00000000   -0.00000000
     The local contribution  to forces
     atom    1 type  1   force =    -0.00000000   -0.00000000   -0.00000000
     atom    2 type  2   force =     0.00000000    0.00000000    0.00000000
     atom    3 type  3   force =    -0.00000000   -0.00000000   -0.00000000
     atom    4 type  3   force =    -0.00000000   -0.00000000    0.00000000
     atom    5 type  3   force =    -0.00000000   -0.00000000   -0.00000000
     The core correction contribution to forces
     atom    1 type  1   force =    -0.00000000   -0.00000000   -0.00000000
     atom    2 type  2   force =     0.00000000    0.00000000    0.00000000
     atom    3 type  3   force =    -0.00000000   -0.00000000   -0.00000000
     atom    4 type  3   force =    -0.00000000   -0.00000000   -0.00000000
     atom    5 type  3   force =    -0.00000000    0.00000000   -0.00000000
     The Hubbard contrib.    to forces
     atom    1 type  1   force =     0.00000000    0.00000000    0.00000000
     atom    2 type  2   force =     0.00000000    0.00000000    0.00000000
     atom    3 type  3   force =     0.00000000    0.00000000    0.00000000
     atom    4 type  3   force =     0.00000000    0.00000000    0.00000000
     atom    5 type  3   force =     0.00000000    0.00000000    0.00000000
     The SCF correction term to forces
     atom    1 type  1   force =    -0.00000000    0.00000000    0.00000000
     atom    2 type  2   force =     0.00000000    0.00000000   -0.00000000
     atom    3 type  3   force =    -0.00000000   -0.00000000    0.00000000
     atom    4 type  3   force =     0.00000000   -0.00000000   -0.00000000
     atom    5 type  3   force =    -0.00000000   -0.00000000    0.00000000

     Total force =     0.000000     Total SCF correction =     0.000000


     Computing stress (Cartesian axis) and pressure

          total   stress  (Ry/bohr**3)                   (kbar)     P=        1.78
   0.00001210   0.00000000   0.00000000            1.78        0.00        0.00
   0.00000000   0.00001210   0.00000000            0.00        1.78        0.00
   0.00000000   0.00000000   0.00001210            0.00        0.00        1.78

     kinetic stress (kbar)  10621.48      0.00      0.00
                                0.00  10621.48      0.00
                                0.00      0.00  10621.48

     local   stress (kbar)  -8234.05      0.00      0.00
                                0.00  -8234.05      0.00
                                0.00      0.00  -8234.05

     nonloc. stress (kbar)  -1169.44      0.00      0.00
                                0.00  -1169.44      0.00
                                0.00      0.00  -1169.44

     hartree stress (kbar)  10570.52     -0.00      0.00
                               -0.00  10570.52     -0.00
                                0.00     -0.00  10570.52

     exc-cor stress (kbar)  -1075.46     -0.00     -0.00
                               -0.00  -1075.46      0.00
                               -0.00      0.00  -1075.46

     corecor stress (kbar)  -1487.13      0.00     -0.00
                                0.00  -1487.13      0.00
                               -0.00      0.00  -1487.13

     ewald   stress (kbar)  -9224.14      0.00     -0.00
                                0.00  -9224.14     -0.00
                               -0.00     -0.00  -9224.14

     hubbard stress (kbar)      0.00      0.00      0.00
                                0.00      0.00      0.00
                                0.00      0.00      0.00

     DFT-D   stress (kbar)      0.00      0.00      0.00
                                0.00      0.00      0.00
                                0.00      0.00      0.00

     XDM     stress (kbar)      0.00      0.00      0.00
                                0.00      0.00      0.00
                                0.00      0.00      0.00

     dft-nl  stress (kbar)      0.00      0.00      0.00
                                0.00      0.00      0.00
                                0.00      0.00      0.00

     TS-vdW  stress (kbar)      0.00      0.00      0.00
                                0.00      0.00      0.00
                                0.00      0.00      0.00

     MDB     stress (kbar)      0.00      0.00      0.00
                                0.00      0.00      0.00
                                0.00      0.00      0.00

     3D-RISM stress (kbar)      0.00      0.00      0.00
                                0.00      0.00      0.00
                                0.00      0.00      0.00

     Energy error            =      1.3E-02 Ry
     Gradient error          =      0.0E+00 Ry/Bohr
     Cell gradient error     =      1.8E+00 kbar

     number of scf cycles    =   5
     number of bfgs steps    =   4

     enthalpy           old  =   -1276.0634876090 Ry
     enthalpy           new  =   -1276.0767803404 Ry

     CASE: enthalpy          _new < enthalpy          _old

     new trust radius        =       0.0183248433 bohr
     new conv_thr            =            1.0E-10 Ry

     new unit-cell volume =   1345.85065 a.u.^3 (   199.43449 Ang^3 )
     density =      2.86581 g/cm^3

CELL_PARAMETERS (angstrom)
   5.842518399   0.000000000   0.000000000
   0.000000000   5.842518399   0.000000000
   0.000000000   0.000000000   5.842518399

ATOMIC_POSITIONS (crystal)
K                0.0000000000        0.0000000000        0.0000000000
Zn               0.5000000000        0.5000000000        0.5000000000
Br               0.5000000000        0.0000000000        0.0000000000
Br               0.0000000000        0.5000000000        0.0000000000
Br               0.0000000000        0.0000000000        0.5000000000



     Writing config-only to output data dir ./tmp/kznbr3.save/ :
     XML data file
     NEW-OLD atomic charge density approx. for the potential

     total cpu time spent up to now is     1412.4 secs

     Self-consistent Calculation

     iteration #  1     ecut=    80.00 Ry     beta= 0.40
     Davidson diagonalization with overlap

---- Real-time Memory Report at c_bands before calling an iterative solver
           234 MiB given to the printing process from OS
             0 MiB allocation reported by mallinfo(arena+hblkhd)
         46802 MiB available memory on the node where the printing process lives
------------------
     ethr =  1.00E-06,  avg # of iterations =  3.0

     total cpu time spent up to now is     1434.3 secs

     total energy              =   -1276.07651810 Ry
     estimated scf accuracy    <       0.00034367 Ry

     iteration #  2     ecut=    80.00 Ry     beta= 0.40
     Davidson diagonalization with overlap

---- Real-time Memory Report at c_bands before calling an iterative solver
           234 MiB given to the printing process from OS
             0 MiB allocation reported by mallinfo(arena+hblkhd)
         46533 MiB available memory on the node where the printing process lives
------------------
     ethr =  6.87E-07,  avg # of iterations =  2.5

     total cpu time spent up to now is     1452.7 secs

     total energy              =   -1276.07650662 Ry
     estimated scf accuracy    <       0.00357838 Ry

     iteration #  3     ecut=    80.00 Ry     beta= 0.40
     Davidson diagonalization with overlap

---- Real-time Memory Report at c_bands before calling an iterative solver
           234 MiB given to the printing process from OS
             0 MiB allocation reported by mallinfo(arena+hblkhd)
         46596 MiB available memory on the node where the printing process lives
------------------
     ethr =  6.87E-07,  avg # of iterations =  2.0

     total cpu time spent up to now is     1468.9 secs

     total energy              =   -1276.07677914 Ry
     estimated scf accuracy    <       0.00002896 Ry

     iteration #  4     ecut=    80.00 Ry     beta= 0.40
     Davidson diagonalization with overlap

---- Real-time Memory Report at c_bands before calling an iterative solver
           234 MiB given to the printing process from OS
             0 MiB allocation reported by mallinfo(arena+hblkhd)
         46483 MiB available memory on the node where the printing process lives
------------------
     ethr =  5.79E-08,  avg # of iterations =  2.0

     total cpu time spent up to now is     1485.5 secs

     total energy              =   -1276.07681278 Ry
     estimated scf accuracy    <       0.00002245 Ry

     iteration #  5     ecut=    80.00 Ry     beta= 0.40
     Davidson diagonalization with overlap

---- Real-time Memory Report at c_bands before calling an iterative solver
           234 MiB given to the printing process from OS
             0 MiB allocation reported by mallinfo(arena+hblkhd)
         46644 MiB available memory on the node where the printing process lives
------------------
     ethr =  4.49E-08,  avg # of iterations =  2.0

     total cpu time spent up to now is     1500.9 secs

     total energy              =   -1276.07682741 Ry
     estimated scf accuracy    <       0.00001038 Ry

     iteration #  6     ecut=    80.00 Ry     beta= 0.40
     Davidson diagonalization with overlap

---- Real-time Memory Report at c_bands before calling an iterative solver
           234 MiB given to the printing process from OS
             0 MiB allocation reported by mallinfo(arena+hblkhd)
         46553 MiB available memory on the node where the printing process lives
------------------
     ethr =  2.08E-08,  avg # of iterations =  2.0

     total cpu time spent up to now is     1517.9 secs

     total energy              =   -1276.07683454 Ry
     estimated scf accuracy    <       0.00000344 Ry

     iteration #  7     ecut=    80.00 Ry     beta= 0.40
     Davidson diagonalization with overlap

---- Real-time Memory Report at c_bands before calling an iterative solver
           234 MiB given to the printing process from OS
             0 MiB allocation reported by mallinfo(arena+hblkhd)
         46591 MiB available memory on the node where the printing process lives
------------------
     ethr =  6.87E-09,  avg # of iterations =  2.1

     total cpu time spent up to now is     1535.0 secs

     total energy              =   -1276.07683562 Ry
     estimated scf accuracy    <       0.00000044 Ry

     iteration #  8     ecut=    80.00 Ry     beta= 0.40
     Davidson diagonalization with overlap

---- Real-time Memory Report at c_bands before calling an iterative solver
           234 MiB given to the printing process from OS
             0 MiB allocation reported by mallinfo(arena+hblkhd)
         46534 MiB available memory on the node where the printing process lives
------------------
     ethr =  8.79E-10,  avg # of iterations =  2.2

     total cpu time spent up to now is     1552.0 secs

     total energy              =   -1276.07683572 Ry
     estimated scf accuracy    <       0.00000002 Ry

     iteration #  9     ecut=    80.00 Ry     beta= 0.40
     Davidson diagonalization with overlap

---- Real-time Memory Report at c_bands before calling an iterative solver
           234 MiB given to the printing process from OS
             0 MiB allocation reported by mallinfo(arena+hblkhd)
         46617 MiB available memory on the node where the printing process lives
------------------
     ethr =  4.12E-11,  avg # of iterations =  2.9

     total cpu time spent up to now is     1570.1 secs

     total energy              =   -1276.07683575 Ry
     estimated scf accuracy    <          7.9E-09 Ry

     iteration # 10     ecut=    80.00 Ry     beta= 0.40
     Davidson diagonalization with overlap

---- Real-time Memory Report at c_bands before calling an iterative solver
           234 MiB given to the printing process from OS
             0 MiB allocation reported by mallinfo(arena+hblkhd)
         46697 MiB available memory on the node where the printing process lives
------------------
     ethr =  1.59E-11,  avg # of iterations =  2.9

     total cpu time spent up to now is     1589.4 secs

     total energy              =   -1276.07683576 Ry
     estimated scf accuracy    <          6.7E-10 Ry

     iteration # 11     ecut=    80.00 Ry     beta= 0.40
     Davidson diagonalization with overlap

---- Real-time Memory Report at c_bands before calling an iterative solver
           234 MiB given to the printing process from OS
             0 MiB allocation reported by mallinfo(arena+hblkhd)
         46500 MiB available memory on the node where the printing process lives
------------------
     ethr =  1.34E-12,  avg # of iterations =  2.1

     total cpu time spent up to now is     1606.3 secs

     total energy              =   -1276.07683576 Ry
     estimated scf accuracy    <          1.4E-10 Ry

     iteration # 12     ecut=    80.00 Ry     beta= 0.40
     Davidson diagonalization with overlap

---- Real-time Memory Report at c_bands before calling an iterative solver
           234 MiB given to the printing process from OS
             0 MiB allocation reported by mallinfo(arena+hblkhd)
         46537 MiB available memory on the node where the printing process lives
------------------
     ethr =  2.86E-13,  avg # of iterations =  3.0

     total cpu time spent up to now is     1627.0 secs

     End of self-consistent calculation

          k = 0.0000 0.0000 0.0000 (  9771 PWs)   bands (ev):

  -124.7860 -78.9400 -78.9400 -78.9400 -26.7296 -12.5524 -12.3455 -12.3455
   -10.4261 -10.4261 -10.4261  -5.6517  -5.6517  -5.6509  -5.6509  -5.6509
    -0.8335  -0.8335  -0.8335  -0.6228  -0.1698  -0.1698  -0.1698   0.2741
     0.2741   0.2741   5.9441   5.9441   5.9441   7.5014

     occupation numbers 
     1.0000   1.0000   1.0000   1.0000   1.0000   1.0000   1.0000   1.0000
     1.0000   1.0000   1.0000   1.0000   1.0000   1.0000   1.0000   1.0000
     1.0000   1.0000   1.0000   1.0000   1.0000   1.0000   1.0000   0.1144
     0.1144   0.1144   0.0000   0.0000   0.0000   0.0000

          k = 0.0000 0.0000 0.1050 (  9667 PWs)   bands (ev):

  -124.7857 -78.9382 -78.9382 -78.9374 -26.7295 -12.5572 -12.3769 -12.3452
   -10.4257 -10.4257 -10.3651  -5.6518  -5.6514  -5.6510  -5.6510  -5.6508
    -0.9991  -0.8112  -0.8112  -0.4824  -0.1888  -0.1888  -0.1837   0.2258
     0.2568   0.2568   5.5856   5.8651   5.8651   7.5371

     occupation numbers 
     1.0000   1.0000   1.0000   1.0000   1.0000   1.0000   1.0000   1.0000
     1.0000   1.0000   1.0000   1.0000   1.0000   1.0000   1.0000   1.0000
     1.0000   1.0000   1.0000   1.0000   1.0000   1.0000   1.0000   0.4210
     0.1996   0.1996   0.0000   0.0000   0.0000   0.0000

          k = 0.0000 0.0000 0.2100 (  9618 PWs)   bands (ev):

  -124.7856 -78.9372 -78.9372 -78.9364 -26.7292 -12.5770 -12.4373 -12.3446
   -10.4250 -10.4250 -10.2240  -5.6522  -5.6514  -5.6514  -5.6509  -5.6507
    -1.1863  -0.7468  -0.7468  -0.4882  -0.2507  -0.2507  -0.2169   0.2213
     0.2213   0.2521   5.0204   5.7070   5.7070   7.6316

     occupation numbers 
     1.0000   1.0000   1.0000   1.0000   1.0000   1.0000   1.0000   1.0000
     1.0000   1.0000   1.0000   1.0000   1.0000   1.0000   1.0000   1.0000
     1.0000   1.0000   1.0000   1.0000   1.0000   1.0000   1.0000   0.4576
     0.4576   0.2280   0.0000   0.0000   0.0000   0.0000

          k = 0.0000 0.0000 0.3150 (  9634 PWs)   bands (ev):

  -124.7856 -78.9374 -78.9371 -78.9371 -26.7290 -12.6130 -12.4735 -12.3439
   -10.4242 -10.4242 -10.0893  -5.6526  -5.6519  -5.6519  -5.6507  -5.6504
    -1.2979  -0.6716  -0.6500  -0.6500  -0.3528  -0.3528  -0.2493   0.1950
     0.1950   0.4020   4.5952   5.5758   5.5758   7.7424

     occupation numbers 
     1.0000   1.0000   1.0000   1.0000   1.0000   1.0000   1.0000   1.0000
     1.0000   1.0000   1.0000   1.0000   1.0000   1.0000   1.0000   1.0000
     1.0000   1.0000   1.0000   1.0000   1.0000   1.0000   1.0000   0.6704
     0.6704   0.0001   0.0000   0.0000   0.0000   0.0000

          k = 0.0000 0.0000-0.4200 (  9658 PWs)   bands (ev):

  -124.7857 -78.9383 -78.9374 -78.9374 -26.7289 -12.6321 -12.4824 -12.3437
   -10.4239 -10.4239 -10.0349  -5.6528  -5.6521  -5.6521  -5.6507  -5.6503
    -1.3312  -0.7664  -0.5727  -0.5727  -0.4344  -0.4344  -0.2625   0.1866
     0.1866   0.4764   4.4374   5.5266   5.5266   7.7950

     occupation numbers 
     1.0000   1.0000   1.0000   1.0000   1.0000   1.0000   1.0000   1.0000
     1.0000   1.0000   1.0000   1.0000   1.0000   1.0000   1.0000   1.0000
     1.0000   1.0000   1.0000   1.0000   1.0000   1.0000   1.0000   0.7312
     0.7312   0.0000   0.0000   0.0000   0.0000   0.0000

          k = 0.0000 0.1050 0.1050 (  9629 PWs)   bands (ev):

  -124.7856 -78.9376 -78.9375 -78.9365 -26.7294 -12.5611 -12.3935 -12.3605
   -10.4254 -10.3674 -10.3623  -5.6517  -5.6513  -5.6510  -5.6510  -5.6509
    -1.0955  -0.7894  -0.7796  -0.4435  -0.2568  -0.2042  -0.1442   0.2025
     0.2308   0.2368   5.4136   5.7401   5.7930   7.6869

     occupation numbers 
     1.0000   1.0000   1.0000   1.0000   1.0000   1.0000   1.0000   1.0000
     1.0000   1.0000   1.0000   1.0000   1.0000   1.0000   1.0000   1.0000
     1.0000   1.0000   1.0000   1.0000   1.0000   1.0000   1.0000   0.6119
     0.3813   0.3342   0.0000   0.0000   0.0000   0.0000

          k = 0.0000 0.1050 0.2100 (  9623 PWs)   bands (ev):

  -124.7856 -78.9374 -78.9372 -78.9366 -26.7291 -12.5784 -12.4509 -12.3653
   -10.4247 -10.3643 -10.2238  -5.6521  -5.6514  -5.6513  -5.6509  -5.6509
    -1.2429  -0.7264  -0.7195  -0.5231  -0.3342  -0.2571  -0.1274   0.1452
     0.1948   0.2777   5.0033   5.6005   5.6438   7.7905

     occupation numbers 
     1.0000   1.0000   1.0000   1.0000   1.0000   1.0000   1.0000   1.0000
     1.0000   1.0000   1.0000   1.0000   1.0000   1.0000   1.0000   1.0000
     1.0000   1.0000   1.0000   1.0000   1.0000   1.0000   1.0000   0.9300
     0.6718   0.1006   0.0000   0.0000   0.0000   0.0000

          k = 0.0000 0.1050 0.3150 (  9640 PWs)   bands (ev):

  -124.7856 -78.9376 -78.9373 -78.9372 -26.7289 -12.6127 -12.4877 -12.3655
   -10.4239 -10.3636 -10.0891  -5.6524  -5.6518  -5.6517  -5.6509  -5.6504
    -1.3390  -0.7205  -0.6360  -0.6316  -0.4276  -0.3501  -0.1222   0.1117
     0.1624   0.3904   4.6618   5.4958   5.5167   7.8829

     occupation numbers 
     1.0000   1.0000   1.0000   1.0000   1.0000   1.0000   1.0000   1.0000
     1.0000   1.0000   1.0000   1.0000   1.0000   1.0000   1.0000   1.0000
     1.0000   1.0000   1.0000   1.0000   1.0000   1.0000   1.0000   0.9851
     0.8682   0.0001   0.0000   0.0000   0.0000   0.0000

          k = 0.0000 0.1050-0.4200 (  9664 PWs)   bands (ev):

  -124.7857 -78.9383 -78.9378 -78.9373 -26.7288 -12.6316 -12.4965 -12.3654
   -10.4236 -10.3633 -10.0347  -5.6526  -5.6521  -5.6518  -5.6509  -5.6503
    -1.3683  -0.8136  -0.5638  -0.5552  -0.5061  -0.4282  -0.1230   0.0998
     0.1519   0.4460   4.5337   5.4554   5.4684   7.9260

     occupation numbers 
     1.0000   1.0000   1.0000   1.0000   1.0000   1.0000   1.0000   1.0000
     1.0000   1.0000   1.0000   1.0000   1.0000   1.0000   1.0000   1.0000
     1.0000   1.0000   1.0000   1.0000   1.0000   1.0000   1.0000   0.9922
     0.9095   0.0000   0.0000   0.0000   0.0000   0.0000

          k = 0.0000 0.2100 0.2100 (  9661 PWs)   bands (ev):

  -124.7857 -78.9379 -78.9379 -78.9378 -26.7289 -12.5864 -12.4989 -12.3883
   -10.4239 -10.2280 -10.2187  -5.6521  -5.6514  -5.6514  -5.6512  -5.6508
    -1.3504  -0.6675  -0.6671  -0.6654  -0.3897  -0.2844  -0.0883   0.0716
     0.1339   0.3109   4.9274   5.4346   5.5060   8.1785

     occupation numbers 
     1.0000   1.0000   1.0000   1.0000   1.0000   1.0000   1.0000   1.0000
     1.0000   1.0000   1.0000   1.0000   1.0000   1.0000   1.0000   1.0000
     1.0000   1.0000   1.0000   1.0000   1.0000   1.0000   1.0000   0.9987
     0.9566   0.0246   0.0000   0.0000   0.0000   0.0000

          k = 0.0000 0.2100 0.3150 (  9639 PWs)   bands (ev):

  -124.7856 -78.9377 -78.9374 -78.9371 -26.7286 -12.6122 -12.5373 -12.3950
   -10.4232 -10.2230 -10.0887  -5.6521  -5.6518  -5.6514  -5.6513  -5.6504
    -1.4300  -0.8484  -0.6055  -0.5790  -0.4611  -0.3472  -0.0982   0.0735
     0.0802   0.3496   4.8209   5.3395   5.3832   8.2665

     occupation numbers 
     1.0000   1.0000   1.0000   1.0000   1.0000   1.0000   1.0000   1.0000
     1.0000   1.0000   1.0000   1.0000   1.0000   1.0000   1.0000   1.0000
     1.0000   1.0000   1.0000   1.0000   1.0000   1.0000   1.0000   0.9985
     0.9977   0.0028   0.0000   0.0000   0.0000   0.0000

          k = 0.0000 0.2100-0.4200 (  9604 PWs)   bands (ev):

  -124.7855 -78.9371 -78.9368 -78.9361 -26.7285 -12.6305 -12.5453 -12.3963
   -10.4229 -10.2227 -10.0343  -5.6521  -5.6520  -5.6513  -5.6513  -5.6502
    -1.4559  -0.9313  -0.5426  -0.5352  -0.5053  -0.4131  -0.0940   0.0611
     0.0738   0.3683   4.7743   5.3091   5.3355   8.2882

     occupation numbers 
     1.0000   1.0000   1.0000   1.0000   1.0000   1.0000   1.0000   1.0000
     1.0000   1.0000   1.0000   1.0000   1.0000   1.0000   1.0000   1.0000
     1.0000   1.0000   1.0000   1.0000   1.0000   1.0000   1.0000   0.9994
     0.9985   0.0008   0.0000   0.0000   0.0000   0.0000

          k = 0.0000 0.3150 0.3150 (  9618 PWs)   bands (ev):

  -124.7856 -78.9378 -78.9371 -78.9363 -26.7283 -12.6160 -12.5928 -12.4065
   -10.4224 -10.0905 -10.0861  -5.6519  -5.6518  -5.6518  -5.6509  -5.6502
    -1.5099  -0.9940  -0.5596  -0.5015  -0.4699  -0.3607  -0.2337  -0.0092
     0.1826   0.2977   4.9747   5.2235   5.2602   8.7803

     occupation numbers 
     1.0000   1.0000   1.0000   1.0000   1.0000   1.0000   1.0000   1.0000
     1.0000   1.0000   1.0000   1.0000   1.0000   1.0000   1.0000   1.0000
     1.0000   1.0000   1.0000   1.0000   1.0000   1.0000   1.0000   1.0000
     0.7578   0.0452   0.0000   0.0000   0.0000   0.0000

          k = 0.0000 0.3150-0.4200 (  9622 PWs)   bands (ev):

  -124.7856 -78.9378 -78.9373 -78.9363 -26.7282 -12.6295 -12.6041 -12.4091
   -10.4221 -10.0881 -10.0339  -5.6520  -5.6519  -5.6518  -5.6509  -5.6501
    -1.5401  -1.0590  -0.5109  -0.5057  -0.4349  -0.3977  -0.2747  -0.0489
     0.2172   0.2777   5.0319   5.1895   5.2118   8.7716

     occupation numbers 
     1.0000   1.0000   1.0000   1.0000   1.0000   1.0000   1.0000   1.0000
     1.0000   1.0000   1.0000   1.0000   1.0000   1.0000   1.0000   1.0000
     1.0000   1.0000   1.0000   1.0000   1.0000   1.0000   1.0000   1.0000
     0.4920   0.1007   0.0000   0.0000   0.0000   0.0000

          k = 0.0000-0.4200-0.4200 (  9580 PWs)   bands (ev):

  -124.7855 -78.9367 -78.9367 -78.9356 -26.7281 -12.6290 -12.6290 -12.4120
   -10.4218 -10.0337 -10.0337  -5.6520  -5.6520  -5.6518  -5.6506  -5.6500
    -1.5728  -1.1154  -0.4827  -0.4827  -0.3913  -0.3913  -0.3577  -0.1086
     0.2345   0.2707   5.1459   5.1459   5.1628   9.0622

     occupation numbers 
     1.0000   1.0000   1.0000   1.0000   1.0000   1.0000   1.0000   1.0000
     1.0000   1.0000   1.0000   1.0000   1.0000   1.0000   1.0000   1.0000
     1.0000   1.0000   1.0000   1.0000   1.0000   1.0000   1.0000   1.0000
     0.3518   0.1286   0.0000   0.0000   0.0000   0.0000

          k = 0.1050 0.1050 0.1050 (  9615 PWs)   bands (ev):

  -124.7856 -78.9372 -78.9372 -78.9364 -26.7293 -12.5645 -12.3932 -12.3932
   -10.3697 -10.3620 -10.3620  -5.6516  -5.6516  -5.6511  -5.6510  -5.6510
    -1.1610  -0.7662  -0.7662  -0.4407  -0.2665  -0.2665  -0.1097   0.1941
     0.1941   0.2282   5.2490   5.7189   5.7189   7.7453

     occupation numbers 
     1.0000   1.0000   1.0000   1.0000   1.0000   1.0000   1.0000   1.0000
     1.0000   1.0000   1.0000   1.0000   1.0000   1.0000   1.0000   1.0000
     1.0000   1.0000   1.0000   1.0000   1.0000   1.0000   1.0000   0.6771
     0.6771   0.4018   0.0000   0.0000   0.0000   0.0000

          k = 0.1050 0.1050 0.2100 (  9638 PWs)   bands (ev):

  -124.7856 -78.9376 -78.9374 -78.9372 -26.7290 -12.5797 -12.4579 -12.3925
   -10.3667 -10.3613 -10.2235  -5.6520  -5.6515  -5.6512  -5.6512  -5.6508
    -1.2787  -0.7293  -0.7133  -0.5523  -0.3640  -0.2749  -0.0818   0.1125
     0.1723   0.2764   4.9469   5.5316   5.6602   7.8911

     occupation numbers 
     1.0000   1.0000   1.0000   1.0000   1.0000   1.0000   1.0000   1.0000
     1.0000   1.0000   1.0000   1.0000   1.0000   1.0000   1.0000   1.0000
     1.0000   1.0000   1.0000   1.0000   1.0000   1.0000   1.0000   0.9844
     0.8192   0.1055   0.0000   0.0000   0.0000   0.0000

          k = 0.1050 0.1050 0.3150 (  9642 PWs)   bands (ev):

  -124.7857 -78.9377 -78.9375 -78.9371 -26.7288 -12.6124 -12.4971 -12.3918
   -10.3660 -10.3607 -10.0889  -5.6523  -5.6517  -5.6516  -5.6511  -5.6504
    -1.3603  -0.7679  -0.6798  -0.6351  -0.4535  -0.2751  -0.0730   0.0376
     0.1501   0.3673   4.7095   5.3578   5.5953   7.9950

     occupation numbers 
     1.0000   1.0000   1.0000   1.0000   1.0000   1.0000   1.0000   1.0000
     1.0000   1.0000   1.0000   1.0000   1.0000   1.0000   1.0000   1.0000
     1.0000   1.0000   1.0000   1.0000   1.0000   1.0000   1.0000   0.9999
     0.9154   0.0008   0.0000   0.0000   0.0000   0.0000

          k = 0.1050 0.1050-0.4200 (  9612 PWs)   bands (ev):

  -124.7856 -78.9373 -78.9368 -78.9364 -26.7286 -12.6312 -12.5061 -12.3916
   -10.3657 -10.3604 -10.0345  -5.6523  -5.6518  -5.6518  -5.6511  -5.6502
    -1.3844  -0.8603  -0.6495  -0.6047  -0.4970  -0.2815  -0.0728   0.0080
     0.1413   0.4100   4.6225   5.2897   5.5675   8.0344

     occupation numbers 
     1.0000   1.0000   1.0000   1.0000   1.0000   1.0000   1.0000   1.0000
     1.0000   1.0000   1.0000   1.0000   1.0000   1.0000   1.0000   1.0000
     1.0000   1.0000   1.0000   1.0000   1.0000   1.0000   1.0000   1.0000
     0.9404   0.0000   0.0000   0.0000   0.0000   0.0000

          k = 0.1050 0.2100 0.2100 (  9628 PWs)   bands (ev):

  -124.7856 -78.9375 -78.9372 -78.9369 -26.7288 -12.5871 -12.4986 -12.4233
   -10.3635 -10.2277 -10.2185  -5.6520  -5.6515  -5.6514  -5.6510  -5.6507
    -1.3560  -0.7427  -0.7027  -0.6658  -0.3766  -0.3169  -0.0334   0.0752
     0.1167   0.2874   4.8473   5.4693   5.5649   8.1621

     occupation numbers 
     1.0000   1.0000   1.0000   1.0000   1.0000   1.0000   1.0000   1.0000
     1.0000   1.0000   1.0000   1.0000   1.0000   1.0000   1.0000   1.0000
     1.0000   1.0000   1.0000   1.0000   1.0000   1.0000   1.0000   0.9983
     0.9807   0.0695   0.0000   0.0000   0.0000   0.0000

          k = 0.1050 0.2100 0.3150 (  9647 PWs)   bands (ev):

  -124.7857 -78.9379 -78.9377 -78.9372 -26.7285 -12.6120 -12.5385 -12.4293
   -10.3628 -10.2227 -10.0885  -5.6520  -5.6517  -5.6514  -5.6512  -5.6504
    -1.4185  -0.8909  -0.7210  -0.6626  -0.4078  -0.2752  -0.0737   0.0614
     0.0926   0.3048   4.8200   5.2853   5.5329   8.3005

     occupation numbers 
     1.0000   1.0000   1.0000   1.0000   1.0000   1.0000   1.0000   1.0000
     1.0000   1.0000   1.0000   1.0000   1.0000   1.0000   1.0000   1.0000
     1.0000   1.0000   1.0000   1.0000   1.0000   1.0000   1.0000   0.9994
     0.9949   0.0328   0.0000   0.0000   0.0000   0.0000

          k = 0.1050 0.2100-0.4200 (  9632 PWs)   bands (ev):

  -124.7856 -78.9377 -78.9375 -78.9366 -26.7284 -12.6301 -12.5469 -12.4302
   -10.3625 -10.2224 -10.0341  -5.6519  -5.6518  -5.6514  -5.6513  -5.6502
    -1.4382  -0.9751  -0.7323  -0.6453  -0.4206  -0.2043  -0.1527   0.0721
     0.0802   0.3132   4.8491   5.1630   5.5295   8.3228

     occupation numbers 
     1.0000   1.0000   1.0000   1.0000   1.0000   1.0000   1.0000   1.0000
     1.0000   1.0000   1.0000   1.0000   1.0000   1.0000   1.0000   1.0000
     1.0000   1.0000   1.0000   1.0000   1.0000   1.0000   1.0000   0.9986
     0.9977   0.0219   0.0000   0.0000   0.0000   0.0000

          k = 0.1050 0.3150 0.3150 (  9626 PWs)   bands (ev):

  -124.7856 -78.9376 -78.9373 -78.9368 -26.7282 -12.6156 -12.5924 -12.4422
   -10.3621 -10.0903 -10.0859  -5.6518  -5.6517  -5.6515  -5.6509  -5.6502
    -1.4790  -1.0337  -0.7107  -0.7030  -0.3397  -0.3127  -0.1134  -0.0072
     0.1839   0.2311   4.9518   5.2830   5.3930   8.6208

     occupation numbers 
     1.0000   1.0000   1.0000   1.0000   1.0000   1.0000   1.0000   1.0000
     1.0000   1.0000   1.0000   1.0000   1.0000   1.0000   1.0000   1.0000
     1.0000   1.0000   1.0000   1.0000   1.0000   1.0000   1.0000   1.0000
     0.7491   0.3786   0.0000   0.0000   0.0000   0.0000

          k = 0.1050 0.3150-0.4200 (  9642 PWs)   bands (ev):

  -124.7857 -78.9379 -78.9377 -78.9370 -26.7281 -12.6291 -12.6038 -12.4447
   -10.3618 -10.0880 -10.0337  -5.6518  -5.6517  -5.6516  -5.6508  -5.6501
    -1.5033  -1.0986  -0.7295  -0.6912  -0.3572  -0.2343  -0.1718  -0.0376
     0.1906   0.2279   5.0993   5.1425   5.3870   8.6424

     occupation numbers 
     1.0000   1.0000   1.0000   1.0000   1.0000   1.0000   1.0000   1.0000
     1.0000   1.0000   1.0000   1.0000   1.0000   1.0000   1.0000   1.0000
     1.0000   1.0000   1.0000   1.0000   1.0000   1.0000   1.0000   1.0000
     0.7032   0.4043   0.0000   0.0000   0.0000   0.0000

          k = 0.1050-0.4200-0.4200 (  9632 PWs)   bands (ev):

  -124.7856 -78.9375 -78.9375 -78.9374 -26.7280 -12.6286 -12.6286 -12.4476
   -10.3615 -10.0335 -10.0335  -5.6518  -5.6518  -5.6516  -5.6506  -5.6500
    -1.5315  -1.1534  -0.7141  -0.7141  -0.3568  -0.1581  -0.1581  -0.1569
     0.1442   0.2713   5.2125   5.2125   5.2514   8.9485

     occupation numbers 
     1.0000   1.0000   1.0000   1.0000   1.0000   1.0000   1.0000   1.0000
     1.0000   1.0000   1.0000   1.0000   1.0000   1.0000   1.0000   1.0000
     1.0000   1.0000   1.0000   1.0000   1.0000   1.0000   1.0000   1.0000
     0.9328   0.1260   0.0000   0.0000   0.0000   0.0000

          k = 0.2100 0.2100 0.2100 (  9651 PWs)   bands (ev):

  -124.7857 -78.9380 -78.9380 -78.9372 -26.7285 -12.5917 -12.4978 -12.4978
   -10.2322 -10.2179 -10.2179  -5.6517  -5.6517  -5.6514  -5.6507  -5.6507
    -1.3780  -0.8036  -0.7904  -0.7904  -0.3437  -0.3437   0.0419   0.0865
     0.0865   0.2319   4.7823   5.5503   5.5503   8.3060

     occupation numbers 
     1.0000   1.0000   1.0000   1.0000   1.0000   1.0000   1.0000   1.0000
     1.0000   1.0000   1.0000   1.0000   1.0000   1.0000   1.0000   1.0000
     1.0000   1.0000   1.0000   1.0000   1.0000   1.0000   0.9999   0.9965
     0.9965   0.3724   0.0000   0.0000   0.0000   0.0000

          k = 0.2100 0.2100 0.3150 (  9650 PWs)   bands (ev):

  -124.7857 -78.9379 -78.9376 -78.9376 -26.7282 -12.6116 -12.5492 -12.4969
   -10.2272 -10.2174 -10.0880  -5.6516  -5.6515  -5.6514  -5.6509  -5.6503
    -1.4009  -0.9942  -0.8712  -0.7881  -0.3474  -0.2903   0.0277   0.0761
     0.1084   0.1908   4.8660   5.3620   5.6254   8.4062

     occupation numbers 
     1.0000   1.0000   1.0000   1.0000   1.0000   1.0000   1.0000   1.0000
     1.0000   1.0000   1.0000   1.0000   1.0000   1.0000   1.0000   1.0000
     1.0000   1.0000   1.0000   1.0000   1.0000   1.0000   1.0000   0.9982
     0.9875   0.7013   0.0000   0.0000   0.0000   0.0000

          k = 0.2100 0.2100-0.4200 (  9626 PWs)   bands (ev):

  -124.7856 -78.9375 -78.9372 -78.9371 -26.7281 -12.6291 -12.5593 -12.4966
   -10.2269 -10.2172 -10.0337  -5.6514  -5.6513  -5.6513  -5.6512  -5.6501
    -1.4051  -1.0862  -0.9027  -0.7761  -0.3462  -0.2553  -0.0163   0.0829
     0.1197   0.1784   5.0490   5.1319   5.6542   8.4070

     occupation numbers 
     1.0000   1.0000   1.0000   1.0000   1.0000   1.0000   1.0000   1.0000
     1.0000   1.0000   1.0000   1.0000   1.0000   1.0000   1.0000   1.0000
     1.0000   1.0000   1.0000   1.0000   1.0000   1.0000   1.0000   0.9972
     0.9776   0.7839   0.0000   0.0000   0.0000   0.0000

          k = 0.2100 0.3150 0.3150 (  9642 PWs)   bands (ev):

  -124.7857 -78.9379 -78.9378 -78.9372 -26.7280 -12.6151 -12.5915 -12.5213
   -10.2219 -10.0898 -10.0855  -5.6514  -5.6514  -5.6511  -5.6507  -5.6502
    -1.4005  -1.1341  -0.9143  -0.8967  -0.3309  -0.2927   0.0353   0.0648
     0.0972   0.1878   5.0221   5.4439   5.5862   8.4484

     occupation numbers 
     1.0000   1.0000   1.0000   1.0000   1.0000   1.0000   1.0000   1.0000
     1.0000   1.0000   1.0000   1.0000   1.0000   1.0000   1.0000   1.0000
     1.0000   1.0000   1.0000   1.0000   1.0000   1.0000   0.9999   0.9992
     0.9933   0.7229   0.0000   0.0000   0.0000   0.0000

          k = 0.2100 0.3150-0.4200 (  9644 PWs)   bands (ev):

  -124.7857 -78.9380 -78.9378 -78.9373 -26.7278 -12.6281 -12.6034 -12.5237
   -10.2216 -10.0875 -10.0333  -5.6513  -5.6513  -5.6509  -5.6508  -5.6500
    -1.4021  -1.2063  -0.9509  -0.8937  -0.3392  -0.2730  -0.0209   0.0763
     0.0781   0.2254   5.2370   5.2853   5.6091   8.4195

     occupation numbers 
     1.0000   1.0000   1.0000   1.0000   1.0000   1.0000   1.0000   1.0000
     1.0000   1.0000   1.0000   1.0000   1.0000   1.0000   1.0000   1.0000
     1.0000   1.0000   1.0000   1.0000   1.0000   1.0000   1.0000   0.9982
     0.9980   0.4241   0.0000   0.0000   0.0000   0.0000

          k = 0.2100-0.4200-0.4200 (  9644 PWs)   bands (ev):

  -124.7857 -78.9379 -78.9379 -78.9373 -26.7277 -12.6277 -12.6277 -12.5269
   -10.2214 -10.0332 -10.0332  -5.6513  -5.6513  -5.6508  -5.6506  -5.6499
    -1.4126  -1.2595  -0.9406  -0.9406  -0.3546  -0.2543  -0.0823   0.0716
     0.0716   0.2728   5.3982   5.3982   5.4628   8.3297

     occupation numbers 
     1.0000   1.0000   1.0000   1.0000   1.0000   1.0000   1.0000   1.0000
     1.0000   1.0000   1.0000   1.0000   1.0000   1.0000   1.0000   1.0000
     1.0000   1.0000   1.0000   1.0000   1.0000   1.0000   1.0000   0.9987
     0.9987   0.1196   0.0000   0.0000   0.0000   0.0000

          k = 0.3150 0.3150 0.3150 (  9675 PWs)   bands (ev):

  -124.7858 -78.9383 -78.9383 -78.9383 -26.7277 -12.6167 -12.5906 -12.5906
   -10.0919 -10.0851 -10.0851  -5.6510  -5.6510  -5.6510  -5.6502  -5.6502
    -1.3344  -1.2378  -1.0317  -1.0317  -0.3259  -0.3259  -0.1439   0.1738
     0.1738   0.2042   5.2249   5.6370   5.6370   8.3042

     occupation numbers 
     1.0000   1.0000   1.0000   1.0000   1.0000   1.0000   1.0000   1.0000
     1.0000   1.0000   1.0000   1.0000   1.0000   1.0000   1.0000   1.0000
     1.0000   1.0000   1.0000   1.0000   1.0000   1.0000   1.0000   0.8114
     0.8114   0.5989   0.0000   0.0000   0.0000   0.0000

          k = 0.3150 0.3150-0.4200 (  9638 PWs)   bands (ev):

  -124.7856 -78.9377 -78.9377 -78.9375 -26.7276 -12.6272 -12.6076 -12.5902
   -10.0894 -10.0849 -10.0329  -5.6509  -5.6507  -5.6507  -5.6503  -5.6499
    -1.3289  -1.2828  -1.0794  -1.0383  -0.3384  -0.3240  -0.2361   0.1848
     0.2077   0.2366   5.4422   5.5184   5.7303   8.2658

     occupation numbers 
     1.0000   1.0000   1.0000   1.0000   1.0000   1.0000   1.0000   1.0000
     1.0000   1.0000   1.0000   1.0000   1.0000   1.0000   1.0000   1.0000
     1.0000   1.0000   1.0000   1.0000   1.0000   1.0000   1.0000   0.7431
     0.5706   0.3363   0.0000   0.0000   0.0000   0.0000

          k = 0.3150-0.4200-0.4200 (  9660 PWs)   bands (ev):

  -124.7857 -78.9383 -78.9379 -78.9379 -26.7275 -12.6268 -12.6268 -12.5985
   -10.0870 -10.0328 -10.0328  -5.6507  -5.6507  -5.6505  -5.6501  -5.6498
    -1.3838  -1.2459  -1.0903  -1.0903  -0.3524  -0.3491  -0.3273   0.2228
     0.2228   0.2743   5.6365   5.6365   5.6731   8.0688

     occupation numbers 
     1.0000   1.0000   1.0000   1.0000   1.0000   1.0000   1.0000   1.0000
     1.0000   1.0000   1.0000   1.0000   1.0000   1.0000   1.0000   1.0000
     1.0000   1.0000   1.0000   1.0000   1.0000   1.0000   1.0000   0.4460
     0.4460   0.1135   0.0000   0.0000   0.0000   0.0000

          k =-0.4200-0.4200-0.4200 (  9568 PWs)   bands (ev):

  -124.7854 -78.9361 -78.9361 -78.9361 -26.7274 -12.6263 -12.6263 -12.6263
   -10.0326 -10.0326 -10.0326  -5.6504  -5.6504  -5.6504  -5.6497  -5.6497
    -1.4398  -1.1424  -1.1424  -1.1424  -0.4885  -0.3515  -0.3515   0.2750
     0.2750   0.2750   5.7607   5.7607   5.7607   7.9783

     occupation numbers 
     1.0000   1.0000   1.0000   1.0000   1.0000   1.0000   1.0000   1.0000
     1.0000   1.0000   1.0000   1.0000   1.0000   1.0000   1.0000   1.0000
     1.0000   1.0000   1.0000   1.0000   1.0000   1.0000   1.0000   0.1110
     0.1110   0.1110   0.0000   0.0000   0.0000   0.0000

     the Fermi energy is     0.2162 ev

!    total energy              =   -1276.07683576 Ry
     total all-electron energy =    -20435.222842 Ry
     estimated scf accuracy    <          1.6E-11 Ry
     smearing contrib. (-TS)   =      -0.00288045 Ry
     internal energy E=F+TS    =   -1276.07395531 Ry

     The total energy is F=E-TS. E is the sum of the following terms:
     one-electron contribution =    -551.52842183 Ry
     hartree contribution      =     288.39893428 Ry
     xc contribution           =     -78.99309071 Ry
     ewald contribution        =    -250.64956411 Ry
     one-center paw contrib.   =    -683.30181294 Ry
      -> PAW hartree energy AE =      37.81455600 Ry
      -> PAW hartree energy PS =     -37.60198880 Ry
      -> PAW xc energy AE      =     -66.23996003 Ry
      -> PAW xc energy PS      =      10.60645109 Ry
      -> total E_H with PAW    =     288.61150148 Ry
      -> total E_XC with PAW   =    -134.62659965 Ry

     convergence has been achieved in  12 iterations

     Forces acting on atoms (cartesian axes, Ry/au):

     atom    1 type  1   force =     0.00000000    0.00000000    0.00000000
     atom    2 type  2   force =     0.00000000    0.00000000    0.00000000
     atom    3 type  3   force =     0.00000000    0.00000000    0.00000000
     atom    4 type  3   force =     0.00000000    0.00000000    0.00000000
     atom    5 type  3   force =     0.00000000    0.00000000    0.00000000
     The non-local contrib.  to forces
     atom    1 type  1   force =     0.00000000    0.00000000    0.00000000
     atom    2 type  2   force =     0.00000000    0.00000000    0.00000000
     atom    3 type  3   force =     0.00000000    0.00000000    0.00000000
     atom    4 type  3   force =     0.00000000    0.00000000    0.00000000
     atom    5 type  3   force =     0.00000000    0.00000000    0.00000000
     The ionic contribution  to forces
     atom    1 type  1   force =     0.00000000    0.00000000    0.00000000
     atom    2 type  2   force =    -0.00000000   -0.00000000   -0.00000000
     atom    3 type  3   force =    -0.00000000   -0.00000000   -0.00000000
     atom    4 type  3   force =    -0.00000000   -0.00000000   -0.00000000
     atom    5 type  3   force =    -0.00000000   -0.00000000   -0.00000000
     The local contribution  to forces
     atom    1 type  1   force =    -0.00000000   -0.00000000    0.00000000
     atom    2 type  2   force =     0.00000000    0.00000000    0.00000000
     atom    3 type  3   force =    -0.00000000   -0.00000000   -0.00000000
     atom    4 type  3   force =    -0.00000000   -0.00000000   -0.00000000
     atom    5 type  3   force =    -0.00000000   -0.00000000   -0.00000000
     The core correction contribution to forces
     atom    1 type  1   force =    -0.00000000   -0.00000000   -0.00000000
     atom    2 type  2   force =     0.00000000    0.00000000    0.00000000
     atom    3 type  3   force =     0.00000000   -0.00000000    0.00000000
     atom    4 type  3   force =    -0.00000000    0.00000000    0.00000000
     atom    5 type  3   force =    -0.00000000   -0.00000000    0.00000000
     The Hubbard contrib.    to forces
     atom    1 type  1   force =     0.00000000    0.00000000    0.00000000
     atom    2 type  2   force =     0.00000000    0.00000000    0.00000000
     atom    3 type  3   force =     0.00000000    0.00000000    0.00000000
     atom    4 type  3   force =     0.00000000    0.00000000    0.00000000
     atom    5 type  3   force =     0.00000000    0.00000000    0.00000000
     The SCF correction term to forces
     atom    1 type  1   force =    -0.00000000   -0.00000000    0.00000000
     atom    2 type  2   force =     0.00000000   -0.00000000    0.00000000
     atom    3 type  3   force =     0.00000000   -0.00000000    0.00000000
     atom    4 type  3   force =     0.00000000    0.00000000    0.00000000
     atom    5 type  3   force =     0.00000000    0.00000000    0.00000000

     Total force =     0.000000     Total SCF correction =     0.000000


     Computing stress (Cartesian axis) and pressure

          total   stress  (Ry/bohr**3)                   (kbar)     P=       -0.15
  -0.00000104   0.00000000   0.00000000           -0.15        0.00        0.00
   0.00000000  -0.00000104   0.00000000            0.00       -0.15        0.00
   0.00000000   0.00000000  -0.00000104            0.00        0.00       -0.15

     kinetic stress (kbar)  10541.74      0.00      0.00
                                0.00  10541.74      0.00
                                0.00      0.00  10541.74

     local   stress (kbar)  -8212.02     -0.00     -0.00
                               -0.00  -8212.02     -0.00
                               -0.00     -0.00  -8212.02

     nonloc. stress (kbar)  -1162.03      0.00      0.00
                                0.00  -1162.03      0.00
                                0.00      0.00  -1162.03

     hartree stress (kbar)  10507.59      0.00     -0.00
                                0.00  10507.59      0.00
                               -0.00      0.00  10507.59

     exc-cor stress (kbar)  -1067.24      0.00     -0.00
                                0.00  -1067.24      0.00
                               -0.00      0.00  -1067.24

     corecor stress (kbar)  -1475.97      0.00     -0.00
                                0.00  -1475.97      0.00
                               -0.00      0.00  -1475.97

     ewald   stress (kbar)  -9132.22     -0.00     -0.00
                               -0.00  -9132.22     -0.00
                               -0.00     -0.00  -9132.22

     hubbard stress (kbar)      0.00      0.00      0.00
                                0.00      0.00      0.00
                                0.00      0.00      0.00

     DFT-D   stress (kbar)      0.00      0.00      0.00
                                0.00      0.00      0.00
                                0.00      0.00      0.00

     XDM     stress (kbar)      0.00      0.00      0.00
                                0.00      0.00      0.00
                                0.00      0.00      0.00

     dft-nl  stress (kbar)      0.00      0.00      0.00
                                0.00      0.00      0.00
                                0.00      0.00      0.00

     TS-vdW  stress (kbar)      0.00      0.00      0.00
                                0.00      0.00      0.00
                                0.00      0.00      0.00

     MDB     stress (kbar)      0.00      0.00      0.00
                                0.00      0.00      0.00
                                0.00      0.00      0.00

     3D-RISM stress (kbar)      0.00      0.00      0.00
                                0.00      0.00      0.00
                                0.00      0.00      0.00

     Energy error            =      5.5E-05 Ry
     Gradient error          =      0.0E+00 Ry/Bohr
     Cell gradient error     =      1.5E-01 kbar

     bfgs converged in   6 scf cycles and   5 bfgs steps
     (criteria: energy <  1.0E-04 Ry, force <  1.0E-03 Ry/Bohr, cell <  5.0E-01 kbar)

     End of BFGS Geometry Optimization

     Final enthalpy           =   -1276.0768357582 Ry

     File ./tmp/kznbr3.bfgs deleted, as requested
Begin final coordinates
     new unit-cell volume =   1345.85065 a.u.^3 (   199.43449 Ang^3 )
     density =      2.86581 g/cm^3

CELL_PARAMETERS (angstrom)
   5.842518399   0.000000000   0.000000000
   0.000000000   5.842518399   0.000000000
   0.000000000   0.000000000   5.842518399

ATOMIC_POSITIONS (crystal)
K                0.0000000000        0.0000000000        0.0000000000
Zn               0.5000000000        0.5000000000        0.5000000000
Br               0.5000000000        0.0000000000        0.0000000000
Br               0.0000000000        0.5000000000        0.0000000000
Br               0.0000000000        0.0000000000        0.5000000000
End final coordinates



     Writing config-only to output data dir ./tmp/kznbr3.save/ :
     XML data file

     Final scf calculation at the relaxed structure.
     The G-vectors are recalculated for the final unit cell
     Results may differ from those at the preceding step.

     Parallelization info
     --------------------
     sticks:   dense  smooth     PW     G-vecs:    dense   smooth      PW
     Min        3110    1562    434               184078    65096    9546
     Max        3111    1563    435               184079    65099    9547
     Sum        6221    3125    869               368157   130195   19093

     Using Slab Decomposition



     bravais-lattice index     =            0
     lattice parameter (alat)  =       9.2735  a.u.
     unit-cell volume          =    1345.8506 (a.u.)^3
     number of atoms/cell      =            5
     number of atomic types    =            3
     number of electrons       =        50.00
     number of Kohn-Sham states=           30
     kinetic-energy cutoff     =      80.0000  Ry
     charge density cutoff     =     640.0000  Ry
     scf convergence threshold =      1.0E-10
     mixing beta               =       0.4000
     number of iterations used =            8  plain     mixing
     press convergence thresh. =      5.0E-01
     Exchange-correlation= PBE
                           (   1   4   3   4   0   0   0)

     celldm(1)=   9.273493  celldm(2)=   0.000000  celldm(3)=   0.000000
     celldm(4)=   0.000000  celldm(5)=   0.000000  celldm(6)=   0.000000

     crystal axes: (cart. coord. in units of alat)
               a(1) = (   1.190572   0.000000   0.000000 )  
               a(2) = (   0.000000   1.190572   0.000000 )  
               a(3) = (   0.000000   0.000000   1.190572 )  

     reciprocal axes: (cart. coord. in units 2 pi/alat)
               b(1) = (  0.839932  0.000000  0.000000 )  
               b(2) = (  0.000000  0.839932  0.000000 )  
               b(3) = (  0.000000  0.000000  0.839932 )  


     PseudoPot. # 1 for K  read from file:
     /home/administrator/Downloads/BURAI/BURAI1.3/pseudopot/K.pbe-spn-kjpaw_psl.1.0.0.UPF
     MD5 check sum: 14ff5a24ff9f8afecca2cb30191d3c3d
     Pseudo is Projector augmented-wave + core cor, Zval =  9.0
     Generated using "atomic" code by A. Dal Corso  v.5.1.2
     Shape of augmentation charge: PSQ
     Using radial grid of 1165 points,  6 beta functions with: 
                l(1) =   0
                l(2) =   0
                l(3) =   1
                l(4) =   1
                l(5) =   2
                l(6) =   2
     Q(r) pseudized with 0 coefficients 


     PseudoPot. # 2 for Zn read from file:
     /home/administrator/Downloads/BURAI/BURAI1.3/pseudopot/Zn.pbe-spn-kjpaw_psl.1.0.0.UPF
     MD5 check sum: 9ae49ce97c5e3111e3f06ee7e23c2246
     Pseudo is Projector augmented-wave + core cor, Zval = 20.0
     Generated using "atomic" code by A. Dal Corso  v.5.1.2
     Shape of augmentation charge: PSQ
     Using radial grid of 1201 points,  6 beta functions with: 
                l(1) =   0
                l(2) =   0
                l(3) =   1
                l(4) =   1
                l(5) =   2
                l(6) =   2
     Q(r) pseudized with 0 coefficients 


     PseudoPot. # 3 for Br read from file:
     /home/administrator/Downloads/BURAI/BURAI1.3/pseudopot/Br.pbe-n-kjpaw_psl.1.0.0.UPF
     MD5 check sum: 4e719ecb11afb5eb9a83625d9f5c08f4
     Pseudo is Projector augmented-wave + core cor, Zval =  7.0
     Generated using "atomic" code by A. Dal Corso  v.5.1.2
     Shape of augmentation charge: PSQ
     Using radial grid of 1213 points,  4 beta functions with: 
                l(1) =   0
                l(2) =   0
                l(3) =   1
                l(4) =   1
     Q(r) pseudized with 0 coefficients 


     atomic species   valence    mass     pseudopotential
     K                 9.00    39.09830     K ( 1.00)
     Zn               20.00    65.38000     Zn( 1.00)
     Br                7.00    79.90400     Br( 1.00)

     48 Sym. Ops., with inversion, found


                                    s                        frac. trans.

      isym =  1     identity                                     

 cryst.   s( 1) = (     1          0          0      )
                  (     0          1          0      )
                  (     0          0          1      )

 cart.    s( 1) = (  1.0000000  0.0000000  0.0000000 )
                  (  0.0000000  1.0000000  0.0000000 )
                  (  0.0000000  0.0000000  1.0000000 )


      isym =  2     180 deg rotation - cart. axis [0,0,1]        

 cryst.   s( 2) = (    -1          0          0      )
                  (     0         -1          0      )
                  (     0          0          1      )

 cart.    s( 2) = ( -1.0000000  0.0000000  0.0000000 )
                  (  0.0000000 -1.0000000  0.0000000 )
                  (  0.0000000  0.0000000  1.0000000 )


      isym =  3     180 deg rotation - cart. axis [0,1,0]        

 cryst.   s( 3) = (    -1          0          0      )
                  (     0          1          0      )
                  (     0          0         -1      )

 cart.    s( 3) = ( -1.0000000  0.0000000  0.0000000 )
                  (  0.0000000  1.0000000  0.0000000 )
                  (  0.0000000  0.0000000 -1.0000000 )


      isym =  4     180 deg rotation - cart. axis [1,0,0]        

 cryst.   s( 4) = (     1          0          0      )
                  (     0         -1          0      )
                  (     0          0         -1      )

 cart.    s( 4) = (  1.0000000  0.0000000  0.0000000 )
                  (  0.0000000 -1.0000000  0.0000000 )
                  (  0.0000000  0.0000000 -1.0000000 )


      isym =  5     180 deg rotation - cart. axis [1,1,0]        

 cryst.   s( 5) = (     0          1          0      )
                  (     1          0          0      )
                  (     0          0         -1      )

 cart.    s( 5) = (  0.0000000  1.0000000  0.0000000 )
                  (  1.0000000  0.0000000  0.0000000 )
                  (  0.0000000  0.0000000 -1.0000000 )


      isym =  6     180 deg rotation - cart. axis [1,-1,0]       

 cryst.   s( 6) = (     0         -1          0      )
                  (    -1          0          0      )
                  (     0          0         -1      )

 cart.    s( 6) = (  0.0000000 -1.0000000  0.0000000 )
                  ( -1.0000000  0.0000000  0.0000000 )
                  (  0.0000000  0.0000000 -1.0000000 )


      isym =  7      90 deg rotation - cart. axis [0,0,-1]       

 cryst.   s( 7) = (     0         -1          0      )
                  (     1          0          0      )
                  (     0          0          1      )

 cart.    s( 7) = (  0.0000000  1.0000000  0.0000000 )
                  ( -1.0000000  0.0000000  0.0000000 )
                  (  0.0000000  0.0000000  1.0000000 )


      isym =  8      90 deg rotation - cart. axis [0,0,1]        

 cryst.   s( 8) = (     0          1          0      )
                  (    -1          0          0      )
                  (     0          0          1      )

 cart.    s( 8) = (  0.0000000 -1.0000000  0.0000000 )
                  (  1.0000000  0.0000000  0.0000000 )
                  (  0.0000000  0.0000000  1.0000000 )


      isym =  9     180 deg rotation - cart. axis [1,0,1]        

 cryst.   s( 9) = (     0          0          1      )
                  (     0         -1          0      )
                  (     1          0          0      )

 cart.    s( 9) = (  0.0000000  0.0000000  1.0000000 )
                  (  0.0000000 -1.0000000  0.0000000 )
                  (  1.0000000  0.0000000  0.0000000 )


      isym = 10     180 deg rotation - cart. axis [-1,0,1]       

 cryst.   s(10) = (     0          0         -1      )
                  (     0         -1          0      )
                  (    -1          0          0      )

 cart.    s(10) = (  0.0000000  0.0000000 -1.0000000 )
                  (  0.0000000 -1.0000000  0.0000000 )
                  ( -1.0000000  0.0000000  0.0000000 )


      isym = 11      90 deg rotation - cart. axis [0,1,0]        

 cryst.   s(11) = (     0          0         -1      )
                  (     0          1          0      )
                  (     1          0          0      )

 cart.    s(11) = (  0.0000000  0.0000000  1.0000000 )
                  (  0.0000000  1.0000000  0.0000000 )
                  ( -1.0000000  0.0000000  0.0000000 )


      isym = 12      90 deg rotation - cart. axis [0,-1,0]       

 cryst.   s(12) = (     0          0          1      )
                  (     0          1          0      )
                  (    -1          0          0      )

 cart.    s(12) = (  0.0000000  0.0000000 -1.0000000 )
                  (  0.0000000  1.0000000  0.0000000 )
                  (  1.0000000  0.0000000  0.0000000 )


      isym = 13     180 deg rotation - cart. axis [0,1,1]        

 cryst.   s(13) = (    -1          0          0      )
                  (     0          0          1      )
                  (     0          1          0      )

 cart.    s(13) = ( -1.0000000  0.0000000  0.0000000 )
                  (  0.0000000  0.0000000  1.0000000 )
                  (  0.0000000  1.0000000  0.0000000 )


      isym = 14     180 deg rotation - cart. axis [0,1,-1]       

 cryst.   s(14) = (    -1          0          0      )
                  (     0          0         -1      )
                  (     0         -1          0      )

 cart.    s(14) = ( -1.0000000  0.0000000  0.0000000 )
                  (  0.0000000  0.0000000 -1.0000000 )
                  (  0.0000000 -1.0000000  0.0000000 )


      isym = 15      90 deg rotation - cart. axis [-1,0,0]       

 cryst.   s(15) = (     1          0          0      )
                  (     0          0         -1      )
                  (     0          1          0      )

 cart.    s(15) = (  1.0000000  0.0000000  0.0000000 )
                  (  0.0000000  0.0000000  1.0000000 )
                  (  0.0000000 -1.0000000  0.0000000 )


      isym = 16      90 deg rotation - cart. axis [1,0,0]        

 cryst.   s(16) = (     1          0          0      )
                  (     0          0          1      )
                  (     0         -1          0      )

 cart.    s(16) = (  1.0000000  0.0000000  0.0000000 )
                  (  0.0000000  0.0000000 -1.0000000 )
                  (  0.0000000  1.0000000  0.0000000 )


      isym = 17     120 deg rotation - cart. axis [-1,-1,-1]     

 cryst.   s(17) = (     0          0          1      )
                  (     1          0          0      )
                  (     0          1          0      )

 cart.    s(17) = (  0.0000000  1.0000000  0.0000000 )
                  (  0.0000000  0.0000000  1.0000000 )
                  (  1.0000000  0.0000000  0.0000000 )


      isym = 18     120 deg rotation - cart. axis [-1,1,1]       

 cryst.   s(18) = (     0          0         -1      )
                  (    -1          0          0      )
                  (     0          1          0      )

 cart.    s(18) = (  0.0000000 -1.0000000  0.0000000 )
                  (  0.0000000  0.0000000  1.0000000 )
                  ( -1.0000000  0.0000000  0.0000000 )


      isym = 19     120 deg rotation - cart. axis [1,1,-1]       

 cryst.   s(19) = (     0          0         -1      )
                  (     1          0          0      )
                  (     0         -1          0      )

 cart.    s(19) = (  0.0000000  1.0000000  0.0000000 )
                  (  0.0000000  0.0000000 -1.0000000 )
                  ( -1.0000000  0.0000000  0.0000000 )


      isym = 20     120 deg rotation - cart. axis [1,-1,1]       

 cryst.   s(20) = (     0          0          1      )
                  (    -1          0          0      )
                  (     0         -1          0      )

 cart.    s(20) = (  0.0000000 -1.0000000  0.0000000 )
                  (  0.0000000  0.0000000 -1.0000000 )
                  (  1.0000000  0.0000000  0.0000000 )


      isym = 21     120 deg rotation - cart. axis [1,1,1]        

 cryst.   s(21) = (     0          1          0      )
                  (     0          0          1      )
                  (     1          0          0      )

 cart.    s(21) = (  0.0000000  0.0000000  1.0000000 )
                  (  1.0000000  0.0000000  0.0000000 )
                  (  0.0000000  1.0000000  0.0000000 )


      isym = 22     120 deg rotation - cart. axis [-1,1,-1]      

 cryst.   s(22) = (     0         -1          0      )
                  (     0          0         -1      )
                  (     1          0          0      )

 cart.    s(22) = (  0.0000000  0.0000000  1.0000000 )
                  ( -1.0000000  0.0000000  0.0000000 )
                  (  0.0000000 -1.0000000  0.0000000 )


      isym = 23     120 deg rotation - cart. axis [1,-1,-1]      

 cryst.   s(23) = (     0         -1          0      )
                  (     0          0          1      )
                  (    -1          0          0      )

 cart.    s(23) = (  0.0000000  0.0000000 -1.0000000 )
                  ( -1.0000000  0.0000000  0.0000000 )
                  (  0.0000000  1.0000000  0.0000000 )


      isym = 24     120 deg rotation - cart. axis [-1,-1,1]      

 cryst.   s(24) = (     0          1          0      )
                  (     0          0         -1      )
                  (    -1          0          0      )

 cart.    s(24) = (  0.0000000  0.0000000 -1.0000000 )
                  (  1.0000000  0.0000000  0.0000000 )
                  (  0.0000000 -1.0000000  0.0000000 )


      isym = 25     inversion                                    

 cryst.   s(25) = (    -1          0          0      )
                  (     0         -1          0      )
                  (     0          0         -1      )

 cart.    s(25) = ( -1.0000000  0.0000000  0.0000000 )
                  (  0.0000000 -1.0000000  0.0000000 )
                  (  0.0000000  0.0000000 -1.0000000 )


      isym = 26     inv. 180 deg rotation - cart. axis [0,0,1]   

 cryst.   s(26) = (     1          0          0      )
                  (     0          1          0      )
                  (     0          0         -1      )

 cart.    s(26) = (  1.0000000  0.0000000  0.0000000 )
                  (  0.0000000  1.0000000  0.0000000 )
                  (  0.0000000  0.0000000 -1.0000000 )


      isym = 27     inv. 180 deg rotation - cart. axis [0,1,0]   

 cryst.   s(27) = (     1          0          0      )
                  (     0         -1          0      )
                  (     0          0          1      )

 cart.    s(27) = (  1.0000000  0.0000000  0.0000000 )
                  (  0.0000000 -1.0000000  0.0000000 )
                  (  0.0000000  0.0000000  1.0000000 )


      isym = 28     inv. 180 deg rotation - cart. axis [1,0,0]   

 cryst.   s(28) = (    -1          0          0      )
                  (     0          1          0      )
                  (     0          0          1      )

 cart.    s(28) = ( -1.0000000  0.0000000  0.0000000 )
                  (  0.0000000  1.0000000  0.0000000 )
                  (  0.0000000  0.0000000  1.0000000 )


      isym = 29     inv. 180 deg rotation - cart. axis [1,1,0]   

 cryst.   s(29) = (     0         -1          0      )
                  (    -1          0          0      )
                  (     0          0          1      )

 cart.    s(29) = (  0.0000000 -1.0000000  0.0000000 )
                  ( -1.0000000  0.0000000  0.0000000 )
                  (  0.0000000  0.0000000  1.0000000 )


      isym = 30     inv. 180 deg rotation - cart. axis [1,-1,0]  

 cryst.   s(30) = (     0          1          0      )
                  (     1          0          0      )
                  (     0          0          1      )

 cart.    s(30) = (  0.0000000  1.0000000  0.0000000 )
                  (  1.0000000  0.0000000  0.0000000 )
                  (  0.0000000  0.0000000  1.0000000 )


      isym = 31     inv.  90 deg rotation - cart. axis [0,0,-1]  

 cryst.   s(31) = (     0          1          0      )
                  (    -1          0          0      )
                  (     0          0         -1      )

 cart.    s(31) = (  0.0000000 -1.0000000  0.0000000 )
                  (  1.0000000  0.0000000  0.0000000 )
                  (  0.0000000  0.0000000 -1.0000000 )


      isym = 32     inv.  90 deg rotation - cart. axis [0,0,1]   

 cryst.   s(32) = (     0         -1          0      )
                  (     1          0          0      )
                  (     0          0         -1      )

 cart.    s(32) = (  0.0000000  1.0000000  0.0000000 )
                  ( -1.0000000  0.0000000  0.0000000 )
                  (  0.0000000  0.0000000 -1.0000000 )


      isym = 33     inv. 180 deg rotation - cart. axis [1,0,1]   

 cryst.   s(33) = (     0          0         -1      )
                  (     0          1          0      )
                  (    -1          0          0      )

 cart.    s(33) = (  0.0000000  0.0000000 -1.0000000 )
                  (  0.0000000  1.0000000  0.0000000 )
                  ( -1.0000000  0.0000000  0.0000000 )


      isym = 34     inv. 180 deg rotation - cart. axis [-1,0,1]  

 cryst.   s(34) = (     0          0          1      )
                  (     0          1          0      )
                  (     1          0          0      )

 cart.    s(34) = (  0.0000000  0.0000000  1.0000000 )
                  (  0.0000000  1.0000000  0.0000000 )
                  (  1.0000000  0.0000000  0.0000000 )


      isym = 35     inv.  90 deg rotation - cart. axis [0,1,0]   

 cryst.   s(35) = (     0          0          1      )
                  (     0         -1          0      )
                  (    -1          0          0      )

 cart.    s(35) = (  0.0000000  0.0000000 -1.0000000 )
                  (  0.0000000 -1.0000000  0.0000000 )
                  (  1.0000000  0.0000000  0.0000000 )


      isym = 36     inv.  90 deg rotation - cart. axis [0,-1,0]  

 cryst.   s(36) = (     0          0         -1      )
                  (     0         -1          0      )
                  (     1          0          0      )

 cart.    s(36) = (  0.0000000  0.0000000  1.0000000 )
                  (  0.0000000 -1.0000000  0.0000000 )
                  ( -1.0000000  0.0000000  0.0000000 )


      isym = 37     inv. 180 deg rotation - cart. axis [0,1,1]   

 cryst.   s(37) = (     1          0          0      )
                  (     0          0         -1      )
                  (     0         -1          0      )

 cart.    s(37) = (  1.0000000  0.0000000  0.0000000 )
                  (  0.0000000  0.0000000 -1.0000000 )
                  (  0.0000000 -1.0000000  0.0000000 )


      isym = 38     inv. 180 deg rotation - cart. axis [0,1,-1]  

 cryst.   s(38) = (     1          0          0      )
                  (     0          0          1      )
                  (     0          1          0      )

 cart.    s(38) = (  1.0000000  0.0000000  0.0000000 )
                  (  0.0000000  0.0000000  1.0000000 )
                  (  0.0000000  1.0000000  0.0000000 )


      isym = 39     inv.  90 deg rotation - cart. axis [-1,0,0]  

 cryst.   s(39) = (    -1          0          0      )
                  (     0          0          1      )
                  (     0         -1          0      )

 cart.    s(39) = ( -1.0000000  0.0000000  0.0000000 )
                  (  0.0000000  0.0000000 -1.0000000 )
                  (  0.0000000  1.0000000  0.0000000 )


      isym = 40     inv.  90 deg rotation - cart. axis [1,0,0]   

 cryst.   s(40) = (    -1          0          0      )
                  (     0          0         -1      )
                  (     0          1          0      )

 cart.    s(40) = ( -1.0000000  0.0000000  0.0000000 )
                  (  0.0000000  0.0000000  1.0000000 )
                  (  0.0000000 -1.0000000  0.0000000 )


      isym = 41     inv. 120 deg rotation - cart. axis [-1,-1,-1]

 cryst.   s(41) = (     0          0         -1      )
                  (    -1          0          0      )
                  (     0         -1          0      )

 cart.    s(41) = (  0.0000000 -1.0000000  0.0000000 )
                  (  0.0000000  0.0000000 -1.0000000 )
                  ( -1.0000000  0.0000000  0.0000000 )


      isym = 42     inv. 120 deg rotation - cart. axis [-1,1,1]  

 cryst.   s(42) = (     0          0          1      )
                  (     1          0          0      )
                  (     0         -1          0      )

 cart.    s(42) = (  0.0000000  1.0000000  0.0000000 )
                  (  0.0000000  0.0000000 -1.0000000 )
                  (  1.0000000  0.0000000  0.0000000 )


      isym = 43     inv. 120 deg rotation - cart. axis [1,1,-1]  

 cryst.   s(43) = (     0          0          1      )
                  (    -1          0          0      )
                  (     0          1          0      )

 cart.    s(43) = (  0.0000000 -1.0000000  0.0000000 )
                  (  0.0000000  0.0000000  1.0000000 )
                  (  1.0000000  0.0000000  0.0000000 )


      isym = 44     inv. 120 deg rotation - cart. axis [1,-1,1]  

 cryst.   s(44) = (     0          0         -1      )
                  (     1          0          0      )
                  (     0          1          0      )

 cart.    s(44) = (  0.0000000  1.0000000  0.0000000 )
                  (  0.0000000  0.0000000  1.0000000 )
                  ( -1.0000000  0.0000000  0.0000000 )


      isym = 45     inv. 120 deg rotation - cart. axis [1,1,1]   

 cryst.   s(45) = (     0         -1          0      )
                  (     0          0         -1      )
                  (    -1          0          0      )

 cart.    s(45) = (  0.0000000  0.0000000 -1.0000000 )
                  ( -1.0000000  0.0000000  0.0000000 )
                  (  0.0000000 -1.0000000  0.0000000 )


      isym = 46     inv. 120 deg rotation - cart. axis [-1,1,-1] 

 cryst.   s(46) = (     0          1          0      )
                  (     0          0          1      )
                  (    -1          0          0      )

 cart.    s(46) = (  0.0000000  0.0000000 -1.0000000 )
                  (  1.0000000  0.0000000  0.0000000 )
                  (  0.0000000  1.0000000  0.0000000 )


      isym = 47     inv. 120 deg rotation - cart. axis [1,-1,-1] 

 cryst.   s(47) = (     0          1          0      )
                  (     0          0         -1      )
                  (     1          0          0      )

 cart.    s(47) = (  0.0000000  0.0000000  1.0000000 )
                  (  1.0000000  0.0000000  0.0000000 )
                  (  0.0000000 -1.0000000  0.0000000 )


      isym = 48     inv. 120 deg rotation - cart. axis [-1,-1,1] 

 cryst.   s(48) = (     0         -1          0      )
                  (     0          0          1      )
                  (     1          0          0      )

 cart.    s(48) = (  0.0000000  0.0000000  1.0000000 )
                  ( -1.0000000  0.0000000  0.0000000 )
                  (  0.0000000  1.0000000  0.0000000 )


   Cartesian axes

     site n.     atom                  positions (alat units)
         1        K      tau(   1) = (   0.0000000   0.0000000   0.0000000  )
         2        Zn     tau(   2) = (   0.5952859   0.5952859   0.5952859  )
         3        Br     tau(   3) = (   0.5952859   0.0000000   0.0000000  )
         4        Br     tau(   4) = (   0.0000000   0.5952859   0.0000000  )
         5        Br     tau(   5) = (   0.0000000   0.0000000   0.5952859  )

   Crystallographic axes

     site n.     atom                  positions (cryst. coord.)
         1        K      tau(   1) = (  0.0000000  0.0000000  0.0000000  )
         2        Zn     tau(   2) = (  0.5000000  0.5000000  0.5000000  )
         3        Br     tau(   3) = (  0.5000000  0.0000000  0.0000000  )
         4        Br     tau(   4) = (  0.0000000  0.5000000  0.0000000  )
         5        Br     tau(   5) = (  0.0000000  0.0000000  0.5000000  )

     number of k points=    35  Gaussian smearing, width (Ry)=  0.0050
                       cart. coord. in units 2pi/alat
        k(    1) = (   0.0000000   0.0000000   0.0000000), wk =   0.0039062
        k(    2) = (   0.0000000   0.0000000   0.1049916), wk =   0.0234375
        k(    3) = (   0.0000000   0.0000000   0.2099831), wk =   0.0234375
        k(    4) = (   0.0000000   0.0000000   0.3149747), wk =   0.0234375
        k(    5) = (   0.0000000   0.0000000  -0.4199662), wk =   0.0117188
        k(    6) = (   0.0000000   0.1049916   0.1049916), wk =   0.0468750
        k(    7) = (   0.0000000   0.1049916   0.2099831), wk =   0.0937500
        k(    8) = (   0.0000000   0.1049916   0.3149747), wk =   0.0937500
        k(    9) = (   0.0000000   0.1049916  -0.4199662), wk =   0.0468750
        k(   10) = (   0.0000000   0.2099831   0.2099831), wk =   0.0468750
        k(   11) = (   0.0000000   0.2099831   0.3149747), wk =   0.0937500
        k(   12) = (   0.0000000   0.2099831  -0.4199662), wk =   0.0468750
        k(   13) = (   0.0000000   0.3149747   0.3149747), wk =   0.0468750
        k(   14) = (   0.0000000   0.3149747  -0.4199662), wk =   0.0468750
        k(   15) = (   0.0000000  -0.4199662  -0.4199662), wk =   0.0117188
        k(   16) = (   0.1049916   0.1049916   0.1049916), wk =   0.0312500
        k(   17) = (   0.1049916   0.1049916   0.2099831), wk =   0.0937500
        k(   18) = (   0.1049916   0.1049916   0.3149747), wk =   0.0937500
        k(   19) = (   0.1049916   0.1049916  -0.4199662), wk =   0.0468750
        k(   20) = (   0.1049916   0.2099831   0.2099831), wk =   0.0937500
        k(   21) = (   0.1049916   0.2099831   0.3149747), wk =   0.1875000
        k(   22) = (   0.1049916   0.2099831  -0.4199662), wk =   0.0937500
        k(   23) = (   0.1049916   0.3149747   0.3149747), wk =   0.0937500
        k(   24) = (   0.1049916   0.3149747  -0.4199662), wk =   0.0937500
        k(   25) = (   0.1049916  -0.4199662  -0.4199662), wk =   0.0234375
        k(   26) = (   0.2099831   0.2099831   0.2099831), wk =   0.0312500
        k(   27) = (   0.2099831   0.2099831   0.3149747), wk =   0.0937500
        k(   28) = (   0.2099831   0.2099831  -0.4199662), wk =   0.0468750
        k(   29) = (   0.2099831   0.3149747   0.3149747), wk =   0.0937500
        k(   30) = (   0.2099831   0.3149747  -0.4199662), wk =   0.0937500
        k(   31) = (   0.2099831  -0.4199662  -0.4199662), wk =   0.0234375
        k(   32) = (   0.3149747   0.3149747   0.3149747), wk =   0.0312500
        k(   33) = (   0.3149747   0.3149747  -0.4199662), wk =   0.0468750
        k(   34) = (   0.3149747  -0.4199662  -0.4199662), wk =   0.0234375
        k(   35) = (  -0.4199662  -0.4199662  -0.4199662), wk =   0.0039062

                       cryst. coord.
        k(    1) = (   0.0000000   0.0000000   0.0000000), wk =   0.0039062
        k(    2) = (   0.0000000   0.0000000   0.1250000), wk =   0.0234375
        k(    3) = (   0.0000000   0.0000000   0.2500000), wk =   0.0234375
        k(    4) = (   0.0000000   0.0000000   0.3750000), wk =   0.0234375
        k(    5) = (   0.0000000   0.0000000  -0.5000000), wk =   0.0117188
        k(    6) = (   0.0000000   0.1250000   0.1250000), wk =   0.0468750
        k(    7) = (   0.0000000   0.1250000   0.2500000), wk =   0.0937500
        k(    8) = (   0.0000000   0.1250000   0.3750000), wk =   0.0937500
        k(    9) = (   0.0000000   0.1250000  -0.5000000), wk =   0.0468750
        k(   10) = (   0.0000000   0.2500000   0.2500000), wk =   0.0468750
        k(   11) = (   0.0000000   0.2500000   0.3750000), wk =   0.0937500
        k(   12) = (   0.0000000   0.2500000  -0.5000000), wk =   0.0468750
        k(   13) = (   0.0000000   0.3750000   0.3750000), wk =   0.0468750
        k(   14) = (   0.0000000   0.3750000  -0.5000000), wk =   0.0468750
        k(   15) = (   0.0000000  -0.5000000  -0.5000000), wk =   0.0117188
        k(   16) = (   0.1250000   0.1250000   0.1250000), wk =   0.0312500
        k(   17) = (   0.1250000   0.1250000   0.2500000), wk =   0.0937500
        k(   18) = (   0.1250000   0.1250000   0.3750000), wk =   0.0937500
        k(   19) = (   0.1250000   0.1250000  -0.5000000), wk =   0.0468750
        k(   20) = (   0.1250000   0.2500000   0.2500000), wk =   0.0937500
        k(   21) = (   0.1250000   0.2500000   0.3750000), wk =   0.1875000
        k(   22) = (   0.1250000   0.2500000  -0.5000000), wk =   0.0937500
        k(   23) = (   0.1250000   0.3750000   0.3750000), wk =   0.0937500
        k(   24) = (   0.1250000   0.3750000  -0.5000000), wk =   0.0937500
        k(   25) = (   0.1250000  -0.5000000  -0.5000000), wk =   0.0234375
        k(   26) = (   0.2500000   0.2500000   0.2500000), wk =   0.0312500
        k(   27) = (   0.2500000   0.2500000   0.3750000), wk =   0.0937500
        k(   28) = (   0.2500000   0.2500000  -0.5000000), wk =   0.0468750
        k(   29) = (   0.2500000   0.3750000   0.3750000), wk =   0.0937500
        k(   30) = (   0.2500000   0.3750000  -0.5000000), wk =   0.0937500
        k(   31) = (   0.2500000  -0.5000000  -0.5000000), wk =   0.0234375
        k(   32) = (   0.3750000   0.3750000   0.3750000), wk =   0.0312500
        k(   33) = (   0.3750000   0.3750000  -0.5000000), wk =   0.0468750
        k(   34) = (   0.3750000  -0.5000000  -0.5000000), wk =   0.0234375
        k(   35) = (  -0.5000000  -0.5000000  -0.5000000), wk =   0.0039062

     Dense  grid:   368157 G-vectors     FFT dimensions: (  90,  90,  90)

     Smooth grid:   130195 G-vectors     FFT dimensions: (  64,  64,  64)

     Dynamical RAM for                 wfc:       3.72 MB

     Dynamical RAM for     wfc (w. buffer):      37.22 MB

     Dynamical RAM for           str. fact:       8.43 MB

     Dynamical RAM for           local pot:       2.50 MB

     Dynamical RAM for          nlocal pot:       7.44 MB

     Dynamical RAM for                qrad:      12.18 MB

     Dynamical RAM for          rho,v,vnew:      16.77 MB

     Dynamical RAM for               rhoin:       5.59 MB

     Dynamical RAM for            rho*nmix:      44.94 MB

     Dynamical RAM for           G-vectors:      11.03 MB

     Dynamical RAM for          h,s,v(r/c):       0.16 MB

     Dynamical RAM for          <psi|beta>:       0.03 MB

     Dynamical RAM for                 psi:       7.44 MB

     Dynamical RAM for                hpsi:       7.44 MB

     Dynamical RAM for                spsi:       7.44 MB

     Dynamical RAM for      wfcinit/wfcrot:       7.46 MB

     Dynamical RAM for           addusdens:     134.82 MB

     Dynamical RAM for          addusforce:     136.94 MB

     Dynamical RAM for         addusstress:     142.19 MB

     Estimated static dynamical RAM per process >     126.29 MB

     Estimated max dynamical RAM per process >     313.43 MB

     Estimated total dynamical RAM >       2.19 GB

     Initial potential from superposition of free atoms

     starting charge      49.9810, renormalised to      50.0000
     Starting wfcs are   30 randomized atomic wfcs
     Checking if some PAW data can be deallocated... 
       PAW data deallocated on    6 nodes for type:  1
       PAW data deallocated on    6 nodes for type:  2
       PAW data deallocated on    4 nodes for type:  3

     total cpu time spent up to now is     1647.3 secs

     Self-consistent Calculation

     iteration #  1     ecut=    80.00 Ry     beta= 0.40
     Davidson diagonalization with overlap

---- Real-time Memory Report at c_bands before calling an iterative solver
           258 MiB given to the printing process from OS
             0 MiB allocation reported by mallinfo(arena+hblkhd)
         46543 MiB available memory on the node where the printing process lives
------------------
     c_bands:  3 eigenvalues not converged
     c_bands:  2 eigenvalues not converged
     c_bands:  1 eigenvalues not converged
     c_bands:  1 eigenvalues not converged
     c_bands:  2 eigenvalues not converged
     c_bands:  1 eigenvalues not converged
     c_bands:  2 eigenvalues not converged
     c_bands:  1 eigenvalues not converged
     c_bands:  1 eigenvalues not converged
     ethr =  1.00E-06,  avg # of iterations = 19.7

     total cpu time spent up to now is     1738.9 secs

     total energy              =   -1275.86804306 Ry
     estimated scf accuracy    <       0.90528031 Ry

     iteration #  2     ecut=    80.00 Ry     beta= 0.40
     Davidson diagonalization with overlap

---- Real-time Memory Report at c_bands before calling an iterative solver
           347 MiB given to the printing process from OS
             0 MiB allocation reported by mallinfo(arena+hblkhd)
         45892 MiB available memory on the node where the printing process lives
------------------
     ethr =  1.81E-03,  avg # of iterations =  2.1

     total cpu time spent up to now is     1760.9 secs

     total energy              =   -1276.05128524 Ry
     estimated scf accuracy    <       0.36857339 Ry

     iteration #  3     ecut=    80.00 Ry     beta= 0.40
     Davidson diagonalization with overlap

---- Real-time Memory Report at c_bands before calling an iterative solver
           349 MiB given to the printing process from OS
             0 MiB allocation reported by mallinfo(arena+hblkhd)
         45683 MiB available memory on the node where the printing process lives
------------------
     ethr =  7.37E-04,  avg # of iterations =  2.0

     total cpu time spent up to now is     1781.8 secs

     total energy              =   -1276.09194711 Ry
     estimated scf accuracy    <       0.02585462 Ry

     iteration #  4     ecut=    80.00 Ry     beta= 0.40
     Davidson diagonalization with overlap

---- Real-time Memory Report at c_bands before calling an iterative solver
           351 MiB given to the printing process from OS
             0 MiB allocation reported by mallinfo(arena+hblkhd)
         45641 MiB available memory on the node where the printing process lives
------------------
     ethr =  5.17E-05,  avg # of iterations =  2.4

     total cpu time spent up to now is     1803.0 secs

     total energy              =   -1276.09039808 Ry
     estimated scf accuracy    <       0.01949368 Ry

     iteration #  5     ecut=    80.00 Ry     beta= 0.40
     Davidson diagonalization with overlap

---- Real-time Memory Report at c_bands before calling an iterative solver
           353 MiB given to the printing process from OS
             0 MiB allocation reported by mallinfo(arena+hblkhd)
         45668 MiB available memory on the node where the printing process lives
------------------
     ethr =  3.90E-05,  avg # of iterations =  2.0

     total cpu time spent up to now is     1823.7 secs

     total energy              =   -1276.09099431 Ry
     estimated scf accuracy    <       0.05691080 Ry

     iteration #  6     ecut=    80.00 Ry     beta= 0.40
     Davidson diagonalization with overlap

---- Real-time Memory Report at c_bands before calling an iterative solver
           355 MiB given to the printing process from OS
             0 MiB allocation reported by mallinfo(arena+hblkhd)
         45586 MiB available memory on the node where the printing process lives
------------------
     ethr =  3.90E-05,  avg # of iterations =  1.5

     total cpu time spent up to now is     1842.0 secs

     total energy              =   -1276.09697478 Ry
     estimated scf accuracy    <       0.00222411 Ry

     iteration #  7     ecut=    80.00 Ry     beta= 0.40
     Davidson diagonalization with overlap

---- Real-time Memory Report at c_bands before calling an iterative solver
           357 MiB given to the printing process from OS
             0 MiB allocation reported by mallinfo(arena+hblkhd)
         45315 MiB available memory on the node where the printing process lives
------------------
     ethr =  4.45E-06,  avg # of iterations =  2.9

     total cpu time spent up to now is     1863.6 secs

     total energy              =   -1276.09716190 Ry
     estimated scf accuracy    <       0.00002772 Ry

     iteration #  8     ecut=    80.00 Ry     beta= 0.40
     Davidson diagonalization with overlap

---- Real-time Memory Report at c_bands before calling an iterative solver
           359 MiB given to the printing process from OS
             0 MiB allocation reported by mallinfo(arena+hblkhd)
         45785 MiB available memory on the node where the printing process lives
------------------
     ethr =  5.54E-08,  avg # of iterations =  3.5

     total cpu time spent up to now is     1889.8 secs

     total energy              =   -1276.09714380 Ry
     estimated scf accuracy    <       0.00008125 Ry

     iteration #  9     ecut=    80.00 Ry     beta= 0.40
     Davidson diagonalization with overlap

---- Real-time Memory Report at c_bands before calling an iterative solver
           361 MiB given to the printing process from OS
             0 MiB allocation reported by mallinfo(arena+hblkhd)
         45607 MiB available memory on the node where the printing process lives
------------------
     ethr =  5.54E-08,  avg # of iterations =  2.0

     total cpu time spent up to now is     1911.3 secs

     total energy              =   -1276.09715653 Ry
     estimated scf accuracy    <       0.00017295 Ry

     iteration # 10     ecut=    80.00 Ry     beta= 0.40
     Davidson diagonalization with overlap

---- Real-time Memory Report at c_bands before calling an iterative solver
           363 MiB given to the printing process from OS
             0 MiB allocation reported by mallinfo(arena+hblkhd)
         45393 MiB available memory on the node where the printing process lives
------------------
     ethr =  5.54E-08,  avg # of iterations =  1.7

     total cpu time spent up to now is     1930.7 secs

     total energy              =   -1276.09716631 Ry
     estimated scf accuracy    <       0.00000240 Ry

     iteration # 11     ecut=    80.00 Ry     beta= 0.40
     Davidson diagonalization with overlap

---- Real-time Memory Report at c_bands before calling an iterative solver
           363 MiB given to the printing process from OS
             0 MiB allocation reported by mallinfo(arena+hblkhd)
         45792 MiB available memory on the node where the printing process lives
------------------
     ethr =  4.80E-09,  avg # of iterations =  1.3

     total cpu time spent up to now is     1948.6 secs

     total energy              =   -1276.09716655 Ry
     estimated scf accuracy    <       0.00000005 Ry

     iteration # 12     ecut=    80.00 Ry     beta= 0.40
     Davidson diagonalization with overlap

---- Real-time Memory Report at c_bands before calling an iterative solver
           363 MiB given to the printing process from OS
             0 MiB allocation reported by mallinfo(arena+hblkhd)
         45520 MiB available memory on the node where the printing process lives
------------------
     ethr =  1.07E-10,  avg # of iterations =  4.0

     total cpu time spent up to now is     1975.6 secs

     total energy              =   -1276.09716655 Ry
     estimated scf accuracy    <       0.00000004 Ry

     iteration # 13     ecut=    80.00 Ry     beta= 0.40
     Davidson diagonalization with overlap

---- Real-time Memory Report at c_bands before calling an iterative solver
           363 MiB given to the printing process from OS
             0 MiB allocation reported by mallinfo(arena+hblkhd)
         45842 MiB available memory on the node where the printing process lives
------------------
     ethr =  8.07E-11,  avg # of iterations =  1.0

     total cpu time spent up to now is     1992.6 secs

     total energy              =   -1276.09716656 Ry
     estimated scf accuracy    <          1.1E-09 Ry

     iteration # 14     ecut=    80.00 Ry     beta= 0.40
     Davidson diagonalization with overlap

---- Real-time Memory Report at c_bands before calling an iterative solver
           363 MiB given to the printing process from OS
             0 MiB allocation reported by mallinfo(arena+hblkhd)
         45526 MiB available memory on the node where the printing process lives
------------------
     ethr =  2.27E-12,  avg # of iterations =  2.1

     total cpu time spent up to now is     2013.7 secs

     End of self-consistent calculation

          k = 0.0000 0.0000 0.0000 ( 16279 PWs)   bands (ev):

  -124.7437 -78.9059 -78.9059 -78.9059 -26.7398 -12.5625 -12.3558 -12.3558
   -10.4357 -10.4357 -10.4357  -5.6107  -5.6107  -5.6099  -5.6099  -5.6099
    -0.8411  -0.8411  -0.8411  -0.6275  -0.1781  -0.1781  -0.1781   0.2648
     0.2648   0.2648   5.9663   5.9663   5.9663   7.3110

     occupation numbers 
     1.0000   1.0000   1.0000   1.0000   1.0000   1.0000   1.0000   1.0000
     1.0000   1.0000   1.0000   1.0000   1.0000   1.0000   1.0000   1.0000
     1.0000   1.0000   1.0000   1.0000   1.0000   1.0000   1.0000   0.1121
     0.1121   0.1121   0.0000   0.0000   0.0000   0.0000

          k = 0.0000 0.0000 0.1050 ( 16283 PWs)   bands (ev):

  -124.7437 -78.9060 -78.9059 -78.9059 -26.7397 -12.5673 -12.3872 -12.3555
   -10.4354 -10.4354 -10.3748  -5.6109  -5.6106  -5.6101  -5.6101  -5.6099
    -1.0061  -0.8189  -0.8189  -0.4914  -0.1970  -0.1970  -0.1920   0.2162
     0.2474   0.2474   5.6034   5.8867   5.8867   7.5317

     occupation numbers 
     1.0000   1.0000   1.0000   1.0000   1.0000   1.0000   1.0000   1.0000
     1.0000   1.0000   1.0000   1.0000   1.0000   1.0000   1.0000   1.0000
     1.0000   1.0000   1.0000   1.0000   1.0000   1.0000   1.0000   0.4184
     0.1964   0.1964   0.0000   0.0000   0.0000   0.0000

          k = 0.0000 0.0000 0.2100 ( 16235 PWs)   bands (ev):

  -124.7437 -78.9058 -78.9058 -78.9058 -26.7394 -12.5871 -12.4476 -12.3549
   -10.4346 -10.4346 -10.2338  -5.6114  -5.6105  -5.6105  -5.6100  -5.6098
    -1.1933  -0.7546  -0.7546  -0.4980  -0.2588  -0.2588  -0.2250   0.2120
     0.2120   0.2409   5.0359   5.7278   5.7278   7.6259

     occupation numbers 
     1.0000   1.0000   1.0000   1.0000   1.0000   1.0000   1.0000   1.0000
     1.0000   1.0000   1.0000   1.0000   1.0000   1.0000   1.0000   1.0000
     1.0000   1.0000   1.0000   1.0000   1.0000   1.0000   1.0000   0.4531
     0.4531   0.2363   0.0000   0.0000   0.0000   0.0000

          k = 0.0000 0.0000 0.3150 ( 16284 PWs)   bands (ev):

  -124.7437 -78.9059 -78.9059 -78.9059 -26.7391 -12.6231 -12.4837 -12.3542
   -10.4339 -10.4339 -10.0991  -5.6118  -5.6110  -5.6110  -5.6099  -5.6096
    -1.3044  -0.6811  -0.6580  -0.6580  -0.3607  -0.3607  -0.2573   0.1856
     0.1856   0.3894   4.6106   5.5962   5.5962   7.7358

     occupation numbers 
     1.0000   1.0000   1.0000   1.0000   1.0000   1.0000   1.0000   1.0000
     1.0000   1.0000   1.0000   1.0000   1.0000   1.0000   1.0000   1.0000
     1.0000   1.0000   1.0000   1.0000   1.0000   1.0000   1.0000   0.6663
     0.6663   0.0001   0.0000   0.0000   0.0000   0.0000

          k = 0.0000 0.0000-0.4200 ( 16240 PWs)   bands (ev):

  -124.7437 -78.9058 -78.9058 -78.9058 -26.7390 -12.6422 -12.4926 -12.3540
   -10.4336 -10.4336 -10.0446  -5.6120  -5.6112  -5.6112  -5.6098  -5.6093
    -1.3372  -0.7760  -0.5811  -0.5811  -0.4420  -0.4420  -0.2704   0.1772
     0.1772   0.4637   4.4530   5.5469   5.5469   7.7880

     occupation numbers 
     1.0000   1.0000   1.0000   1.0000   1.0000   1.0000   1.0000   1.0000
     1.0000   1.0000   1.0000   1.0000   1.0000   1.0000   1.0000   1.0000
     1.0000   1.0000   1.0000   1.0000   1.0000   1.0000   1.0000   0.7275
     0.7275   0.0000   0.0000   0.0000   0.0000   0.0000

          k = 0.0000 0.1050 0.1050 ( 16256 PWs)   bands (ev):

  -124.7437 -78.9059 -78.9059 -78.9059 -26.7396 -12.5712 -12.4038 -12.3708
   -10.4351 -10.3770 -10.3720  -5.6109  -5.6105  -5.6101  -5.6100  -5.6100
    -1.1026  -0.7971  -0.7872  -0.4534  -0.2649  -0.2125  -0.1525   0.1933
     0.2206   0.2275   5.4306   5.7601   5.8141   7.6837

     occupation numbers 
     1.0000   1.0000   1.0000   1.0000   1.0000   1.0000   1.0000   1.0000
     1.0000   1.0000   1.0000   1.0000   1.0000   1.0000   1.0000   1.0000
     1.0000   1.0000   1.0000   1.0000   1.0000   1.0000   1.0000   0.6070
     0.3833   0.3300   0.0000   0.0000   0.0000   0.0000

          k = 0.0000 0.1050 0.2100 ( 16252 PWs)   bands (ev):

  -124.7437 -78.9059 -78.9059 -78.9058 -26.7393 -12.5885 -12.4611 -12.3756
   -10.4343 -10.3739 -10.2335  -5.6113  -5.6105  -5.6105  -5.6100  -5.6100
    -1.2498  -0.7342  -0.7272  -0.5327  -0.3423  -0.2653  -0.1357   0.1360
     0.1855   0.2663   5.0192   5.6200   5.6643   7.7848

     occupation numbers 
     1.0000   1.0000   1.0000   1.0000   1.0000   1.0000   1.0000   1.0000
     1.0000   1.0000   1.0000   1.0000   1.0000   1.0000   1.0000   1.0000
     1.0000   1.0000   1.0000   1.0000   1.0000   1.0000   1.0000   0.9282
     0.6677   0.1063   0.0000   0.0000   0.0000   0.0000

          k = 0.0000 0.1050 0.3150 ( 16261 PWs)   bands (ev):

  -124.7437 -78.9059 -78.9059 -78.9059 -26.7390 -12.6228 -12.4979 -12.3758
   -10.4336 -10.3732 -10.0989  -5.6117  -5.6110  -5.6108  -5.6100  -5.6095
    -1.3454  -0.7298  -0.6439  -0.6396  -0.4355  -0.3580  -0.1304   0.1024
     0.1531   0.3779   4.6775   5.5153   5.5370   7.8763

     occupation numbers 
     1.0000   1.0000   1.0000   1.0000   1.0000   1.0000   1.0000   1.0000
     1.0000   1.0000   1.0000   1.0000   1.0000   1.0000   1.0000   1.0000
     1.0000   1.0000   1.0000   1.0000   1.0000   1.0000   1.0000   0.9846
     0.8658   0.0002   0.0000   0.0000   0.0000   0.0000

          k = 0.0000 0.1050-0.4200 ( 16282 PWs)   bands (ev):

  -124.7437 -78.9059 -78.9059 -78.9059 -26.7389 -12.6417 -12.5067 -12.3757
   -10.4333 -10.3730 -10.0445  -5.6118  -5.6112  -5.6110  -5.6100  -5.6093
    -1.3742  -0.8231  -0.5721  -0.5636  -0.5135  -0.4358  -0.1311   0.0905
     0.1425   0.4334   4.5495   5.4749   5.4887   7.9190

     occupation numbers 
     1.0000   1.0000   1.0000   1.0000   1.0000   1.0000   1.0000   1.0000
     1.0000   1.0000   1.0000   1.0000   1.0000   1.0000   1.0000   1.0000
     1.0000   1.0000   1.0000   1.0000   1.0000   1.0000   1.0000   0.9920
     0.9077   0.0000   0.0000   0.0000   0.0000   0.0000

          k = 0.0000 0.2100 0.2100 ( 16246 PWs)   bands (ev):

  -124.7437 -78.9059 -78.9058 -78.9058 -26.7390 -12.5965 -12.5091 -12.3986
   -10.4336 -10.2377 -10.2284  -5.6113  -5.6105  -5.6105  -5.6103  -5.6099
    -1.3565  -0.6763  -0.6753  -0.6731  -0.3977  -0.2925  -0.0970   0.0627
     0.1245   0.2992   4.9439   5.4527   5.5264   8.2724

     occupation numbers 
     1.0000   1.0000   1.0000   1.0000   1.0000   1.0000   1.0000   1.0000
     1.0000   1.0000   1.0000   1.0000   1.0000   1.0000   1.0000   1.0000
     1.0000   1.0000   1.0000   1.0000   1.0000   1.0000   1.0000   0.9986
     0.9555   0.0268   0.0000   0.0000   0.0000   0.0000

          k = 0.0000 0.2100 0.3150 ( 16265 PWs)   bands (ev):

  -124.7437 -78.9059 -78.9059 -78.9059 -26.7388 -12.6224 -12.5475 -12.4052
   -10.4328 -10.2327 -10.0984  -5.6113  -5.6110  -5.6105  -5.6104  -5.6095
    -1.4362  -0.8577  -0.6133  -0.5870  -0.4689  -0.3552  -0.1073   0.0649
     0.0708   0.3368   4.8371   5.3576   5.4034   8.2598

     occupation numbers 
     1.0000   1.0000   1.0000   1.0000   1.0000   1.0000   1.0000   1.0000
     1.0000   1.0000   1.0000   1.0000   1.0000   1.0000   1.0000   1.0000
     1.0000   1.0000   1.0000   1.0000   1.0000   1.0000   1.0000   0.9984
     0.9976   0.0033   0.0000   0.0000   0.0000   0.0000

          k = 0.0000 0.2100-0.4200 ( 16274 PWs)   bands (ev):

  -124.7437 -78.9059 -78.9059 -78.9059 -26.7387 -12.6407 -12.5554 -12.4065
   -10.4325 -10.2324 -10.0441  -5.6113  -5.6112  -5.6105  -5.6105  -5.6093
    -1.4624  -0.9406  -0.5509  -0.5425  -0.5136  -0.4208  -0.1031   0.0517
     0.0653   0.3545   4.7903   5.3273   5.3558   8.2812

     occupation numbers 
     1.0000   1.0000   1.0000   1.0000   1.0000   1.0000   1.0000   1.0000
     1.0000   1.0000   1.0000   1.0000   1.0000   1.0000   1.0000   1.0000
     1.0000   1.0000   1.0000   1.0000   1.0000   1.0000   1.0000   0.9993
     0.9983   0.0010   0.0000   0.0000   0.0000   0.0000

          k = 0.0000 0.3150 0.3150 ( 16268 PWs)   bands (ev):

  -124.7437 -78.9060 -78.9059 -78.9058 -26.7385 -12.6261 -12.6030 -12.4168
   -10.4321 -10.1002 -10.0959  -5.6112  -5.6110  -5.6110  -5.6101  -5.6093
    -1.5162  -1.0034  -0.5672  -0.5095  -0.4774  -0.3687  -0.2429  -0.0187
     0.1741   0.2842   4.9914   5.2406   5.2804   8.7643

     occupation numbers 
     1.0000   1.0000   1.0000   1.0000   1.0000   1.0000   1.0000   1.0000
     1.0000   1.0000   1.0000   1.0000   1.0000   1.0000   1.0000   1.0000
     1.0000   1.0000   1.0000   1.0000   1.0000   1.0000   1.0000   1.0000
     0.7487   0.0527   0.0000   0.0000   0.0000   0.0000

          k = 0.0000 0.3150-0.4200 ( 16284 PWs)   bands (ev):

  -124.7437 -78.9060 -78.9059 -78.9059 -26.7384 -12.6396 -12.6143 -12.4193
   -10.4318 -10.0979 -10.0436  -5.6112  -5.6111  -5.6110  -5.6100  -5.6092
    -1.5462  -1.0684  -0.5187  -0.5128  -0.4431  -0.4056  -0.2839  -0.0584
     0.2083   0.2645   5.0485   5.2067   5.2320   8.7648

     occupation numbers 
     1.0000   1.0000   1.0000   1.0000   1.0000   1.0000   1.0000   1.0000
     1.0000   1.0000   1.0000   1.0000   1.0000   1.0000   1.0000   1.0000
     1.0000   1.0000   1.0000   1.0000   1.0000   1.0000   1.0000   1.0000
     0.4836   0.1134   0.0000   0.0000   0.0000   0.0000

          k = 0.0000-0.4200-0.4200 ( 16276 PWs)   bands (ev):

  -124.7437 -78.9060 -78.9059 -78.9059 -26.7383 -12.6392 -12.6392 -12.4222
   -10.4315 -10.0435 -10.0435  -5.6112  -5.6112  -5.6110  -5.6097  -5.6091
    -1.5793  -1.1248  -0.4897  -0.4897  -0.3993  -0.3993  -0.3676  -0.1183
     0.2198   0.2621   5.1627   5.1627   5.1830   9.0554

     occupation numbers 
     1.0000   1.0000   1.0000   1.0000   1.0000   1.0000   1.0000   1.0000
     1.0000   1.0000   1.0000   1.0000   1.0000   1.0000   1.0000   1.0000
     1.0000   1.0000   1.0000   1.0000   1.0000   1.0000   1.0000   1.0000
     0.3896   0.1231   0.0000   0.0000   0.0000   0.0000

          k = 0.1050 0.1050 0.1050 ( 16257 PWs)   bands (ev):

  -124.7437 -78.9059 -78.9059 -78.9059 -26.7394 -12.5746 -12.4035 -12.4035
   -10.3794 -10.3717 -10.3717  -5.6108  -5.6108  -5.6101  -5.6101  -5.6101
    -1.1682  -0.7738  -0.7738  -0.4507  -0.2747  -0.2747  -0.1181   0.1848
     0.1848   0.2174   5.2658   5.7391   5.7391   7.7418

     occupation numbers 
     1.0000   1.0000   1.0000   1.0000   1.0000   1.0000   1.0000   1.0000
     1.0000   1.0000   1.0000   1.0000   1.0000   1.0000   1.0000   1.0000
     1.0000   1.0000   1.0000   1.0000   1.0000   1.0000   1.0000   0.6725
     0.6725   0.4085   0.0000   0.0000   0.0000   0.0000

          k = 0.1050 0.1050 0.2100 ( 16256 PWs)   bands (ev):

  -124.7437 -78.9059 -78.9059 -78.9058 -26.7392 -12.5898 -12.4682 -12.4028
   -10.3764 -10.3710 -10.2332  -5.6112  -5.6106  -5.6103  -5.6103  -5.6099
    -1.2853  -0.7369  -0.7210  -0.5618  -0.3722  -0.2831  -0.0901   0.1033
     0.1631   0.2648   4.9633   5.5508   5.6805   7.8859

     occupation numbers 
     1.0000   1.0000   1.0000   1.0000   1.0000   1.0000   1.0000   1.0000
     1.0000   1.0000   1.0000   1.0000   1.0000   1.0000   1.0000   1.0000
     1.0000   1.0000   1.0000   1.0000   1.0000   1.0000   1.0000   0.9839
     0.8157   0.1120   0.0000   0.0000   0.0000   0.0000

          k = 0.1050 0.1050 0.3150 ( 16261 PWs)   bands (ev):

  -124.7437 -78.9059 -78.9059 -78.9059 -26.7389 -12.6225 -12.5073 -12.4021
   -10.3756 -10.3703 -10.0987  -5.6115  -5.6109  -5.6107  -5.6102  -5.6095
    -1.3666  -0.7771  -0.6873  -0.6432  -0.4617  -0.2832  -0.0813   0.0283
     0.1408   0.3548   4.7255   5.3769   5.6156   7.9886

     occupation numbers 
     1.0000   1.0000   1.0000   1.0000   1.0000   1.0000   1.0000   1.0000
     1.0000   1.0000   1.0000   1.0000   1.0000   1.0000   1.0000   1.0000
     1.0000   1.0000   1.0000   1.0000   1.0000   1.0000   1.0000   0.9999
     0.9133   0.0010   0.0000   0.0000   0.0000   0.0000

          k = 0.1050 0.1050-0.4200 ( 16284 PWs)   bands (ev):

  -124.7437 -78.9060 -78.9059 -78.9059 -26.7388 -12.6413 -12.5163 -12.4018
   -10.3753 -10.3700 -10.0443  -5.6116  -5.6110  -5.6110  -5.6102  -5.6093
    -1.3909  -0.8697  -0.6567  -0.6128  -0.5055  -0.2895  -0.0810  -0.0014
     0.1320   0.3964   4.6383   5.3088   5.5878   8.0275

     occupation numbers 
     1.0000   1.0000   1.0000   1.0000   1.0000   1.0000   1.0000   1.0000
     1.0000   1.0000   1.0000   1.0000   1.0000   1.0000   1.0000   1.0000
     1.0000   1.0000   1.0000   1.0000   1.0000   1.0000   1.0000   1.0000
     0.9389   0.0000   0.0000   0.0000   0.0000   0.0000

          k = 0.1050 0.2100 0.2100 ( 16281 PWs)   bands (ev):

  -124.7437 -78.9060 -78.9059 -78.9059 -26.7389 -12.5972 -12.5088 -12.4335
   -10.3732 -10.2374 -10.2282  -5.6112  -5.6107  -5.6106  -5.6102  -5.6098
    -1.3626  -0.7506  -0.7102  -0.6748  -0.3850  -0.3254  -0.0419   0.0663
     0.1074   0.2750   4.8641   5.4876   5.5849   8.1730

     occupation numbers 
     1.0000   1.0000   1.0000   1.0000   1.0000   1.0000   1.0000   1.0000
     1.0000   1.0000   1.0000   1.0000   1.0000   1.0000   1.0000   1.0000
     1.0000   1.0000   1.0000   1.0000   1.0000   1.0000   1.0000   0.9982
     0.9801   0.0768   0.0000   0.0000   0.0000   0.0000

          k = 0.1050 0.2100 0.3150 ( 16279 PWs)   bands (ev):

  -124.7437 -78.9060 -78.9059 -78.9059 -26.7387 -12.6221 -12.5487 -12.4395
   -10.3724 -10.2324 -10.0982  -5.6112  -5.6108  -5.6106  -5.6104  -5.6095
    -1.4246  -0.9000  -0.7282  -0.6703  -0.4164  -0.2838  -0.0826   0.0525
     0.0837   0.2924   4.8367   5.3035   5.5528   8.2951

     occupation numbers 
     1.0000   1.0000   1.0000   1.0000   1.0000   1.0000   1.0000   1.0000
     1.0000   1.0000   1.0000   1.0000   1.0000   1.0000   1.0000   1.0000
     1.0000   1.0000   1.0000   1.0000   1.0000   1.0000   1.0000   0.9993
     0.9946   0.0367   0.0000   0.0000   0.0000   0.0000

          k = 0.1050 0.2100-0.4200 ( 16262 PWs)   bands (ev):

  -124.7437 -78.9059 -78.9059 -78.9059 -26.7385 -12.6403 -12.5570 -12.4404
   -10.3722 -10.2321 -10.0439  -5.6111  -5.6110  -5.6106  -5.6105  -5.6092
    -1.4444  -0.9843  -0.7393  -0.6531  -0.4294  -0.2124  -0.1621   0.0629
     0.0717   0.3004   4.8652   5.1816   5.5494   8.3166

     occupation numbers 
     1.0000   1.0000   1.0000   1.0000   1.0000   1.0000   1.0000   1.0000
     1.0000   1.0000   1.0000   1.0000   1.0000   1.0000   1.0000   1.0000
     1.0000   1.0000   1.0000   1.0000   1.0000   1.0000   1.0000   0.9986
     0.9974   0.0253   0.0000   0.0000   0.0000   0.0000

          k = 0.1050 0.3150 0.3150 ( 16256 PWs)   bands (ev):

  -124.7437 -78.9059 -78.9059 -78.9058 -26.7384 -12.6258 -12.6026 -12.4524
   -10.3717 -10.1000 -10.0957  -5.6110  -5.6108  -5.6107  -5.6100  -5.6093
    -1.4852  -1.0430  -0.7179  -0.7101  -0.3490  -0.3213  -0.1218  -0.0164
     0.1754   0.2182   4.9690   5.3004   5.4127   8.6169

     occupation numbers 
     1.0000   1.0000   1.0000   1.0000   1.0000   1.0000   1.0000   1.0000
     1.0000   1.0000   1.0000   1.0000   1.0000   1.0000   1.0000   1.0000
     1.0000   1.0000   1.0000   1.0000   1.0000   1.0000   1.0000   1.0000
     0.7398   0.4024   0.0000   0.0000   0.0000   0.0000

          k = 0.1050 0.3150-0.4200 ( 16254 PWs)   bands (ev):

  -124.7437 -78.9059 -78.9058 -78.9058 -26.7383 -12.6392 -12.6140 -12.4549
   -10.3714 -10.0977 -10.0435  -5.6109  -5.6109  -5.6107  -5.6099  -5.6091
    -1.5092  -1.1080  -0.7365  -0.6984  -0.3667  -0.2434  -0.1799  -0.0466
     0.1787   0.2188   5.1160   5.1607   5.4063   8.6382

     occupation numbers 
     1.0000   1.0000   1.0000   1.0000   1.0000   1.0000   1.0000   1.0000
     1.0000   1.0000   1.0000   1.0000   1.0000   1.0000   1.0000   1.0000
     1.0000   1.0000   1.0000   1.0000   1.0000   1.0000   1.0000   1.0000
     0.7174   0.3979   0.0000   0.0000   0.0000   0.0000

          k = 0.1050-0.4200-0.4200 ( 16288 PWs)   bands (ev):

  -124.7437 -78.9060 -78.9060 -78.9059 -26.7382 -12.6388 -12.6388 -12.4579
   -10.3712 -10.0433 -10.0433  -5.6110  -5.6110  -5.6107  -5.6098  -5.6091
    -1.5375  -1.1628  -0.7210  -0.7210  -0.3667  -0.1667  -0.1661  -0.1661
     0.1315   0.2627   5.2295   5.2295   5.2713   8.7076

     occupation numbers 
     1.0000   1.0000   1.0000   1.0000   1.0000   1.0000   1.0000   1.0000
     1.0000   1.0000   1.0000   1.0000   1.0000   1.0000   1.0000   1.0000
     1.0000   1.0000   1.0000   1.0000   1.0000   1.0000   1.0000   1.0000
     0.9400   0.1205   0.0000   0.0000   0.0000   0.0000

          k = 0.2100 0.2100 0.2100 ( 16257 PWs)   bands (ev):

  -124.7437 -78.9059 -78.9059 -78.9059 -26.7386 -12.6019 -12.5080 -12.5080
   -10.2419 -10.2277 -10.2277  -5.6108  -5.6108  -5.6105  -5.6098  -5.6098
    -1.3843  -0.8129  -0.7975  -0.7975  -0.3526  -0.3526   0.0334   0.0776
     0.0776   0.2198   4.7994   5.5694   5.5694   8.3042

     occupation numbers 
     1.0000   1.0000   1.0000   1.0000   1.0000   1.0000   1.0000   1.0000
     1.0000   1.0000   1.0000   1.0000   1.0000   1.0000   1.0000   1.0000
     1.0000   1.0000   1.0000   1.0000   1.0000   1.0000   0.9998   0.9963
     0.9963   0.3897   0.0000   0.0000   0.0000   0.0000

          k = 0.2100 0.2100 0.3150 ( 16276 PWs)   bands (ev):

  -124.7437 -78.9060 -78.9059 -78.9059 -26.7384 -12.6217 -12.5594 -12.5072
   -10.2369 -10.2271 -10.0977  -5.6107  -5.6107  -5.6105  -5.6100  -5.6094
    -1.4071  -1.0032  -0.8781  -0.7953  -0.3565  -0.2997   0.0189   0.0673
     0.0997   0.1791   4.8831   5.3801   5.6452   8.4021

     occupation numbers 
     1.0000   1.0000   1.0000   1.0000   1.0000   1.0000   1.0000   1.0000
     1.0000   1.0000   1.0000   1.0000   1.0000   1.0000   1.0000   1.0000
     1.0000   1.0000   1.0000   1.0000   1.0000   1.0000   1.0000   0.9981
     0.9866   0.7141   0.0000   0.0000   0.0000   0.0000

          k = 0.2100 0.2100-0.4200 ( 16268 PWs)   bands (ev):

  -124.7437 -78.9059 -78.9059 -78.9059 -26.7383 -12.6393 -12.5695 -12.5068
   -10.2366 -10.2269 -10.0435  -5.6106  -5.6105  -5.6104  -5.6104  -5.6092
    -1.4114  -1.0954  -0.9094  -0.7834  -0.3554  -0.2650  -0.0252   0.0740
     0.1112   0.1666   5.0655   5.1502   5.6743   8.4029

     occupation numbers 
     1.0000   1.0000   1.0000   1.0000   1.0000   1.0000   1.0000   1.0000
     1.0000   1.0000   1.0000   1.0000   1.0000   1.0000   1.0000   1.0000
     1.0000   1.0000   1.0000   1.0000   1.0000   1.0000   1.0000   0.9970
     0.9760   0.7956   0.0000   0.0000   0.0000   0.0000

          k = 0.2100 0.3150 0.3150 ( 16237 PWs)   bands (ev):

  -124.7437 -78.9059 -78.9058 -78.9058 -26.7381 -12.6252 -12.6017 -12.5315
   -10.2316 -10.0996 -10.0953  -5.6105  -5.6104  -5.6102  -5.6098  -5.6092
    -1.4067  -1.1432  -0.9211  -0.9034  -0.3406  -0.3022   0.0242   0.0564
     0.0879   0.1792   5.0394   5.4620   5.6057   8.4461

     occupation numbers 
     1.0000   1.0000   1.0000   1.0000   1.0000   1.0000   1.0000   1.0000
     1.0000   1.0000   1.0000   1.0000   1.0000   1.0000   1.0000   1.0000
     1.0000   1.0000   1.0000   1.0000   1.0000   1.0000   0.9999   0.9991
     0.9931   0.7133   0.0000   0.0000   0.0000   0.0000

          k = 0.2100 0.3150-0.4200 ( 16246 PWs)   bands (ev):

  -124.7437 -78.9059 -78.9059 -78.9058 -26.7380 -12.6383 -12.6135 -12.5339
   -10.2314 -10.0972 -10.0431  -5.6105  -5.6104  -5.6099  -5.6099  -5.6090
    -1.4081  -1.2155  -0.9575  -0.9005  -0.3490  -0.2826  -0.0320   0.0677
     0.0695   0.2169   5.2551   5.3025   5.6287   8.4185

     occupation numbers 
     1.0000   1.0000   1.0000   1.0000   1.0000   1.0000   1.0000   1.0000
     1.0000   1.0000   1.0000   1.0000   1.0000   1.0000   1.0000   1.0000
     1.0000   1.0000   1.0000   1.0000   1.0000   1.0000   1.0000   0.9980
     0.9978   0.4133   0.0000   0.0000   0.0000   0.0000

          k = 0.2100-0.4200-0.4200 ( 16204 PWs)   bands (ev):

  -124.7437 -78.9058 -78.9058 -78.9056 -26.7379 -12.6378 -12.6378 -12.5371
   -10.2311 -10.0429 -10.0429  -5.6103  -5.6103  -5.6098  -5.6096  -5.6089
    -1.4186  -1.2689  -0.9472  -0.9472  -0.3645  -0.2641  -0.0935   0.0632
     0.0632   0.2642   5.4159   5.4159   5.4824   8.3285

     occupation numbers 
     1.0000   1.0000   1.0000   1.0000   1.0000   1.0000   1.0000   1.0000
     1.0000   1.0000   1.0000   1.0000   1.0000   1.0000   1.0000   1.0000
     1.0000   1.0000   1.0000   1.0000   1.0000   1.0000   1.0000   0.9985
     0.9985   0.1144   0.0000   0.0000   0.0000   0.0000

          k = 0.3150 0.3150 0.3150 ( 16254 PWs)   bands (ev):

  -124.7437 -78.9059 -78.9059 -78.9058 -26.7379 -12.6268 -12.6008 -12.6008
   -10.1016 -10.0948 -10.0948  -5.6101  -5.6101  -5.6100  -5.6092  -5.6092
    -1.3413  -1.2461  -1.0382  -1.0382  -0.3357  -0.3357  -0.1539   0.1652
     0.1652   0.1956   5.2425   5.6562   5.6562   8.3044

     occupation numbers 
     1.0000   1.0000   1.0000   1.0000   1.0000   1.0000   1.0000   1.0000
     1.0000   1.0000   1.0000   1.0000   1.0000   1.0000   1.0000   1.0000
     1.0000   1.0000   1.0000   1.0000   1.0000   1.0000   1.0000   0.8035
     0.8035   0.5882   0.0000   0.0000   0.0000   0.0000

          k = 0.3150 0.3150-0.4200 ( 16252 PWs)   bands (ev):

  -124.7437 -78.9059 -78.9059 -78.9057 -26.7377 -12.6373 -12.6177 -12.6004
   -10.0992 -10.0946 -10.0427  -5.6100  -5.6099  -5.6098  -5.6093  -5.6090
    -1.3382  -1.2891  -1.0859  -1.0447  -0.3483  -0.3338  -0.2468   0.1763
     0.1991   0.2279   5.4607   5.5366   5.7502   8.2636

     occupation numbers 
     1.0000   1.0000   1.0000   1.0000   1.0000   1.0000   1.0000   1.0000
     1.0000   1.0000   1.0000   1.0000   1.0000   1.0000   1.0000   1.0000
     1.0000   1.0000   1.0000   1.0000   1.0000   1.0000   1.0000   0.7340
     0.5593   0.3266   0.0000   0.0000   0.0000   0.0000

          k = 0.3150-0.4200-0.4200 ( 16304 PWs)   bands (ev):

  -124.7437 -78.9060 -78.9060 -78.9059 -26.7376 -12.6369 -12.6369 -12.6087
   -10.0967 -10.0425 -10.0425  -5.6099  -5.6099  -5.6097  -5.6092  -5.6089
    -1.3931  -1.2521  -1.0967  -1.0967  -0.3623  -0.3588  -0.3371   0.2142
     0.2142   0.2657   5.6554   5.6554   5.6928   8.0678

     occupation numbers 
     1.0000   1.0000   1.0000   1.0000   1.0000   1.0000   1.0000   1.0000
     1.0000   1.0000   1.0000   1.0000   1.0000   1.0000   1.0000   1.0000
     1.0000   1.0000   1.0000   1.0000   1.0000   1.0000   1.0000   0.4351
     0.4351   0.1085   0.0000   0.0000   0.0000   0.0000

          k =-0.4200-0.4200-0.4200 ( 16368 PWs)   bands (ev):

  -124.7437 -78.9061 -78.9061 -78.9061 -26.7375 -12.6365 -12.6365 -12.6365
   -10.0424 -10.0424 -10.0424  -5.6097  -5.6097  -5.6097  -5.6090  -5.6090
    -1.4491  -1.1488  -1.1488  -1.1488  -0.5011  -0.3614  -0.3614   0.2663
     0.2663   0.2663   5.7805   5.7805   5.7805   7.9772

     occupation numbers 
     1.0000   1.0000   1.0000   1.0000   1.0000   1.0000   1.0000   1.0000
     1.0000   1.0000   1.0000   1.0000   1.0000   1.0000   1.0000   1.0000
     1.0000   1.0000   1.0000   1.0000   1.0000   1.0000   1.0000   0.1061
     0.1061   0.1061   0.0000   0.0000   0.0000   0.0000

     the Fermi energy is     0.2063 ev

!    total energy              =   -1276.09716656 Ry
     total all-electron energy =    -20435.243173 Ry
     estimated scf accuracy    <          4.1E-12 Ry
     smearing contrib. (-TS)   =      -0.00291297 Ry
     internal energy E=F+TS    =   -1276.09425359 Ry

     The total energy is F=E-TS. E is the sum of the following terms:
     one-electron contribution =    -551.59831466 Ry
     hartree contribution      =     288.45341941 Ry
     xc contribution           =     -78.99284300 Ry
     ewald contribution        =    -250.64956411 Ry
     one-center paw contrib.   =    -683.30695124 Ry
      -> PAW hartree energy AE =      37.76144780 Ry
      -> PAW hartree energy PS =     -37.54887627 Ry
      -> PAW xc energy AE      =     -66.23310338 Ry
      -> PAW xc energy PS      =      10.59974832 Ry
      -> total E_H with PAW    =     288.66599095 Ry
      -> total E_XC with PAW   =    -134.62619805 Ry

     convergence has been achieved in  14 iterations

     Forces acting on atoms (cartesian axes, Ry/au):

     atom    1 type  1   force =     0.00000000    0.00000000    0.00000000
     atom    2 type  2   force =     0.00000000    0.00000000    0.00000000
     atom    3 type  3   force =     0.00000000    0.00000000    0.00000000
     atom    4 type  3   force =     0.00000000    0.00000000    0.00000000
     atom    5 type  3   force =     0.00000000    0.00000000    0.00000000
     The non-local contrib.  to forces
     atom    1 type  1   force =     0.00000000    0.00000000    0.00000000
     atom    2 type  2   force =     0.00000000    0.00000000    0.00000000
     atom    3 type  3   force =     0.00000000    0.00000000    0.00000000
     atom    4 type  3   force =     0.00000000    0.00000000    0.00000000
     atom    5 type  3   force =     0.00000000    0.00000000    0.00000000
     The ionic contribution  to forces
     atom    1 type  1   force =     0.00000000    0.00000000    0.00000000
     atom    2 type  2   force =    -0.00000000   -0.00000000   -0.00000000
     atom    3 type  3   force =    -0.00000000   -0.00000000   -0.00000000
     atom    4 type  3   force =    -0.00000000   -0.00000000   -0.00000000
     atom    5 type  3   force =    -0.00000000   -0.00000000   -0.00000000
     The local contribution  to forces
     atom    1 type  1   force =     0.00000000    0.00000000   -0.00000000
     atom    2 type  2   force =     0.00000000    0.00000000    0.00000000
     atom    3 type  3   force =    -0.00000000    0.00000000    0.00000000
     atom    4 type  3   force =     0.00000000   -0.00000000    0.00000000
     atom    5 type  3   force =     0.00000000    0.00000000   -0.00000000
     The core correction contribution to forces
     atom    1 type  1   force =    -0.00000000   -0.00000000   -0.00000000
     atom    2 type  2   force =     0.00000000    0.00000000    0.00000000
     atom    3 type  3   force =    -0.00000000    0.00000000    0.00000000
     atom    4 type  3   force =     0.00000000   -0.00000000    0.00000000
     atom    5 type  3   force =     0.00000000    0.00000000   -0.00000000
     The Hubbard contrib.    to forces
     atom    1 type  1   force =     0.00000000    0.00000000    0.00000000
     atom    2 type  2   force =     0.00000000    0.00000000    0.00000000
     atom    3 type  3   force =     0.00000000    0.00000000    0.00000000
     atom    4 type  3   force =     0.00000000    0.00000000    0.00000000
     atom    5 type  3   force =     0.00000000    0.00000000    0.00000000
     The SCF correction term to forces
     atom    1 type  1   force =     0.00000000    0.00000000   -0.00000000
     atom    2 type  2   force =    -0.00000000    0.00000000    0.00000000
     atom    3 type  3   force =    -0.00000000   -0.00000000   -0.00000000
     atom    4 type  3   force =    -0.00000000   -0.00000000   -0.00000000
     atom    5 type  3   force =     0.00000000    0.00000000    0.00000000

     Total force =     0.000000     Total SCF correction =     0.000000


     Computing stress (Cartesian axis) and pressure

          total   stress  (Ry/bohr**3)                   (kbar)     P=       10.51
   0.00007142   0.00000000   0.00000000           10.51        0.00        0.00
   0.00000000   0.00007142   0.00000000            0.00       10.51        0.00
   0.00000000   0.00000000   0.00007142            0.00        0.00       10.51

     kinetic stress (kbar)  10552.32      0.00      0.00
                                0.00  10552.32      0.00
                                0.00      0.00  10552.32

     local   stress (kbar)  -8216.50     -0.00      0.00
                               -0.00  -8216.50     -0.00
                                0.00     -0.00  -8216.50

     nonloc. stress (kbar)  -1159.45      0.00      0.00
                                0.00  -1159.45      0.00
                                0.00      0.00  -1159.45

     hartree stress (kbar)  10509.58      0.00     -0.00
                                0.00  10509.58      0.00
                               -0.00      0.00  10509.58

     exc-cor stress (kbar)  -1067.24      0.00     -0.00
                                0.00  -1067.24      0.00
                               -0.00      0.00  -1067.24

     corecor stress (kbar)  -1475.99      0.00     -0.00
                                0.00  -1475.99     -0.00
                               -0.00     -0.00  -1475.99

     ewald   stress (kbar)  -9132.22      0.00     -0.00
                                0.00  -9132.22     -0.00
                               -0.00     -0.00  -9132.22

     hubbard stress (kbar)      0.00      0.00      0.00
                                0.00      0.00      0.00
                                0.00      0.00      0.00

     DFT-D   stress (kbar)      0.00      0.00      0.00
                                0.00      0.00      0.00
                                0.00      0.00      0.00

     XDM     stress (kbar)      0.00      0.00      0.00
                                0.00      0.00      0.00
                                0.00      0.00      0.00

     dft-nl  stress (kbar)      0.00      0.00      0.00
                                0.00      0.00      0.00
                                0.00      0.00      0.00

     TS-vdW  stress (kbar)      0.00      0.00      0.00
                                0.00      0.00      0.00
                                0.00      0.00      0.00

     MDB     stress (kbar)      0.00      0.00      0.00
                                0.00      0.00      0.00
                                0.00      0.00      0.00

     3D-RISM stress (kbar)      0.00      0.00      0.00
                                0.00      0.00      0.00
                                0.00      0.00      0.00


     Writing all to output data dir ./tmp/kznbr3.save/ :
     XML data file, charge density, pseudopotentials, collected wavefunctions

     init_run     :     16.82s CPU     16.48s WALL (       2 calls)
     electrons    :   2014.59s CPU   1918.22s WALL (       7 calls)
     update_pot   :      2.46s CPU      2.28s WALL (       5 calls)
     forces       :     15.81s CPU     14.71s WALL (       7 calls)
     stress       :     78.48s CPU     72.98s WALL (       7 calls)

     Called by init_run:
     wfcinit      :      9.71s CPU      8.79s WALL (       2 calls)
     wfcinit:atom :      0.28s CPU      0.16s WALL (      18 calls)
     wfcinit:wfcr :      8.21s CPU      7.86s WALL (      18 calls)
     potinit      :      1.51s CPU      1.64s WALL (       2 calls)
     hinit0       :      2.23s CPU      2.28s WALL (       2 calls)

     Called by electrons:
     c_bands      :   1633.31s CPU   1566.01s WALL (      97 calls)
     sum_band     :    261.51s CPU    221.75s WALL (      97 calls)
     v_of_rho     :     25.49s CPU     26.17s WALL (     104 calls)
     v_h          :      1.45s CPU      1.52s WALL (     104 calls)
     v_xc         :     26.76s CPU     27.51s WALL (     118 calls)
     newd         :     79.12s CPU     91.63s WALL (     104 calls)
     PAW_pot      :     13.55s CPU     13.48s WALL (     109 calls)
     mix_rho      :      3.64s CPU      3.31s WALL (      97 calls)

     Called by c_bands:
     init_us_2    :     21.17s CPU     16.27s WALL (    1935 calls)
     cegterg      :   1330.15s CPU   1272.58s WALL (     873 calls)

     Called by sum_band:
     sum_band:wei :      1.36s CPU      1.07s WALL (      97 calls)
     sum_band:loo :    148.72s CPU    109.11s WALL (      97 calls)
     sum_band:buf :      1.41s CPU      0.97s WALL (     873 calls)
     sum_band:ini :      9.50s CPU      6.76s WALL (     873 calls)
     sum_band:cal :      9.44s CPU      5.25s WALL (     918 calls)
     sum_band:bec :      0.07s CPU      0.05s WALL (     918 calls)
     addusdens    :     96.00s CPU     98.53s WALL (      97 calls)
                                        0.00s GPU  (      97 calls)
     addusd:skk   :      0.12s CPU      0.31s WALL (     291 calls)
                                        0.00s GPU  (     291 calls)

     Called by *egterg:
     cdiaghg      :    115.21s CPU    119.95s WALL (    3281 calls)
     cegterg:over :    158.94s CPU    127.83s WALL (    2453 calls)
     cegterg:upda :     40.39s CPU     36.26s WALL (    2453 calls)
     cegterg:last :     57.32s CPU     39.71s WALL (    1815 calls)
     h_psi        :    744.39s CPU    787.65s WALL (    3344 calls)
     s_psi        :     36.50s CPU     28.09s WALL (    3344 calls)
     g_psi        :      3.90s CPU      2.14s WALL (    2453 calls)

     Called by h_psi:
     h_psi:calbec :     97.66s CPU    127.56s WALL (    3344 calls)
     vloc_psi     :    583.27s CPU    595.09s WALL (    3344 calls)
     add_vuspsi   :     60.76s CPU     63.10s WALL (    3344 calls)

     General routines
     calbec       :    111.72s CPU    135.66s WALL (    4577 calls)
     fft          :     18.65s CPU     19.21s WALL (    1518 calls)
     ffts         :      1.25s CPU      1.11s WALL (     201 calls)
     fftw         :    589.73s CPU    580.89s WALL (  157084 calls)
     interpolate  :      2.36s CPU      2.49s WALL (     104 calls)

     Parallel routines

     PAW routines
     PAW_pot      :     13.55s CPU     13.48s WALL (     109 calls)
     PAW_symme    :      0.21s CPU      0.18s WALL (     206 calls)

     PWSCF        :  35m34.76s CPU  33m51.70s WALL


   This run was terminated on:  13: 7:37  30Apr2025            

=------------------------------------------------------------------------------=
   JOB DONE.
=------------------------------------------------------------------------------=
