
     Program PWSCF v.7.3.1 starts on 30Apr2025 at 13:21:45 

     This program is part of the open-source Quantum ESPRESSO suite
     for quantum simulation of materials; please cite
         "P. Giannozzi et al., J. Phys.:Condens. Matter 21 395502 (2009);
         "P. Giannozzi et al., J. Phys.:Condens. Matter 29 465901 (2017);
         "P. Giannozzi et al., J. Chem. Phys. 152 154105 (2020);
          URL http://www.quantum-espresso.org", 
     in publications or presentations arising from this work. More details at
     http://www.quantum-espresso.org/quote

     Parallel version (MPI), running on     8 processors

     MPI processes distributed on     1 nodes
     48003 MiB available memory on the printing compute node when the environment starts

     Waiting for input...
     Reading input from standard input

     Current dimensions of program PWSCF are:
     Max number of different atomic species (ntypx) = 10
     Max number of k-points (npk) = 120000
     Max angular momentum in pseudopotentials (lmaxx) =  4
     file K.pbe-spn-kjpaw_psl.1.0.0.UPF: wavefunction(s)  3S renormalized
     file Zn.pbe-spn-kjpaw_psl.1.0.0.UPF: wavefunction(s)  3P 3D renormalized
     file Br.pbe-n-kjpaw_psl.1.0.0.UPF: wavefunction(s)  4S 4P renormalized

     IMPORTANT: XC functional enforced from input :
     Exchange-correlation= PBE
                           (   1   4   3   4   0   0   0)
     Any further DFT definition will be discarded
     Please, verify this is what you really want

     Message from routine setup:
     using ibrav=0 with symmetry is DISCOURAGED, use correct ibrav instead

     K-points division:     npool     =       4
     R & G space division:  proc/nbgrp/npool/nimage =       2
     Subspace diagonalization in iterative solution of the eigenvalue problem:
     a serial algorithm will be used


     Parallelization info
     --------------------
     sticks:   dense  smooth     PW     G-vecs:    dense   smooth      PW
     Min        3110    1562    434               184078    65096    9546
     Max        3111    1563    435               184079    65099    9547
     Sum        6221    3125    869               368157   130195   19093

     Using Slab Decomposition



     bravais-lattice index     =            0
     lattice parameter (alat)  =      11.0408  a.u.
     unit-cell volume          =    1345.8506 (a.u.)^3
     number of atoms/cell      =            5
     number of atomic types    =            3
     number of electrons       =        50.00
     number of Kohn-Sham states=           30
     kinetic-energy cutoff     =      80.0000  Ry
     charge density cutoff     =     640.0000  Ry
     scf convergence threshold =      1.0E-08
     mixing beta               =       0.4000
     number of iterations used =            8  plain     mixing
     Exchange-correlation= PBE
                           (   1   4   3   4   0   0   0)

     celldm(1)=  11.040760  celldm(2)=   0.000000  celldm(3)=   0.000000
     celldm(4)=   0.000000  celldm(5)=   0.000000  celldm(6)=   0.000000

     crystal axes: (cart. coord. in units of alat)
               a(1) = (   1.000000   0.000000   0.000000 )  
               a(2) = (   0.000000   1.000000   0.000000 )  
               a(3) = (   0.000000   0.000000   1.000000 )  

     reciprocal axes: (cart. coord. in units 2 pi/alat)
               b(1) = (  1.000000  0.000000  0.000000 )  
               b(2) = (  0.000000  1.000000  0.000000 )  
               b(3) = (  0.000000  0.000000  1.000000 )  


     PseudoPot. # 1 for K  read from file:
     /home/administrator/Downloads/BURAI/BURAI1.3/pseudopot/K.pbe-spn-kjpaw_psl.1.0.0.UPF
     MD5 check sum: 14ff5a24ff9f8afecca2cb30191d3c3d
     Pseudo is Projector augmented-wave + core cor, Zval =  9.0
     Generated using "atomic" code by A. Dal Corso  v.5.1.2
     Shape of augmentation charge: PSQ
     Using radial grid of 1165 points,  6 beta functions with: 
                l(1) =   0
                l(2) =   0
                l(3) =   1
                l(4) =   1
                l(5) =   2
                l(6) =   2
     Q(r) pseudized with 0 coefficients 


     PseudoPot. # 2 for Zn read from file:
     /home/administrator/Downloads/BURAI/BURAI1.3/pseudopot/Zn.pbe-spn-kjpaw_psl.1.0.0.UPF
     MD5 check sum: 9ae49ce97c5e3111e3f06ee7e23c2246
     Pseudo is Projector augmented-wave + core cor, Zval = 20.0
     Generated using "atomic" code by A. Dal Corso  v.5.1.2
     Shape of augmentation charge: PSQ
     Using radial grid of 1201 points,  6 beta functions with: 
                l(1) =   0
                l(2) =   0
                l(3) =   1
                l(4) =   1
                l(5) =   2
                l(6) =   2
     Q(r) pseudized with 0 coefficients 


     PseudoPot. # 3 for Br read from file:
     /home/administrator/Downloads/BURAI/BURAI1.3/pseudopot/Br.pbe-n-kjpaw_psl.1.0.0.UPF
     MD5 check sum: 4e719ecb11afb5eb9a83625d9f5c08f4
     Pseudo is Projector augmented-wave + core cor, Zval =  7.0
     Generated using "atomic" code by A. Dal Corso  v.5.1.2
     Shape of augmentation charge: PSQ
     Using radial grid of 1213 points,  4 beta functions with: 
                l(1) =   0
                l(2) =   0
                l(3) =   1
                l(4) =   1
     Q(r) pseudized with 0 coefficients 


     atomic species   valence    mass     pseudopotential
     K                 9.00    39.09830     K ( 1.00)
     Zn               20.00    65.38000     Zn( 1.00)
     Br                7.00    79.90400     Br( 1.00)

     48 Sym. Ops., with inversion, found


                                    s                        frac. trans.

      isym =  1     identity                                     

 cryst.   s( 1) = (     1          0          0      )
                  (     0          1          0      )
                  (     0          0          1      )

 cart.    s( 1) = (  1.0000000  0.0000000  0.0000000 )
                  (  0.0000000  1.0000000  0.0000000 )
                  (  0.0000000  0.0000000  1.0000000 )


      isym =  2     180 deg rotation - cart. axis [0,0,1]        

 cryst.   s( 2) = (    -1          0          0      )
                  (     0         -1          0      )
                  (     0          0          1      )

 cart.    s( 2) = ( -1.0000000  0.0000000  0.0000000 )
                  (  0.0000000 -1.0000000  0.0000000 )
                  (  0.0000000  0.0000000  1.0000000 )


      isym =  3     180 deg rotation - cart. axis [0,1,0]        

 cryst.   s( 3) = (    -1          0          0      )
                  (     0          1          0      )
                  (     0          0         -1      )

 cart.    s( 3) = ( -1.0000000  0.0000000  0.0000000 )
                  (  0.0000000  1.0000000  0.0000000 )
                  (  0.0000000  0.0000000 -1.0000000 )


      isym =  4     180 deg rotation - cart. axis [1,0,0]        

 cryst.   s( 4) = (     1          0          0      )
                  (     0         -1          0      )
                  (     0          0         -1      )

 cart.    s( 4) = (  1.0000000  0.0000000  0.0000000 )
                  (  0.0000000 -1.0000000  0.0000000 )
                  (  0.0000000  0.0000000 -1.0000000 )


      isym =  5     180 deg rotation - cart. axis [1,1,0]        

 cryst.   s( 5) = (     0          1          0      )
                  (     1          0          0      )
                  (     0          0         -1      )

 cart.    s( 5) = (  0.0000000  1.0000000  0.0000000 )
                  (  1.0000000  0.0000000  0.0000000 )
                  (  0.0000000  0.0000000 -1.0000000 )


      isym =  6     180 deg rotation - cart. axis [1,-1,0]       

 cryst.   s( 6) = (     0         -1          0      )
                  (    -1          0          0      )
                  (     0          0         -1      )

 cart.    s( 6) = (  0.0000000 -1.0000000  0.0000000 )
                  ( -1.0000000  0.0000000  0.0000000 )
                  (  0.0000000  0.0000000 -1.0000000 )


      isym =  7      90 deg rotation - cart. axis [0,0,-1]       

 cryst.   s( 7) = (     0         -1          0      )
                  (     1          0          0      )
                  (     0          0          1      )

 cart.    s( 7) = (  0.0000000  1.0000000  0.0000000 )
                  ( -1.0000000  0.0000000  0.0000000 )
                  (  0.0000000  0.0000000  1.0000000 )


      isym =  8      90 deg rotation - cart. axis [0,0,1]        

 cryst.   s( 8) = (     0          1          0      )
                  (    -1          0          0      )
                  (     0          0          1      )

 cart.    s( 8) = (  0.0000000 -1.0000000  0.0000000 )
                  (  1.0000000  0.0000000  0.0000000 )
                  (  0.0000000  0.0000000  1.0000000 )


      isym =  9     180 deg rotation - cart. axis [1,0,1]        

 cryst.   s( 9) = (     0          0          1      )
                  (     0         -1          0      )
                  (     1          0          0      )

 cart.    s( 9) = (  0.0000000  0.0000000  1.0000000 )
                  (  0.0000000 -1.0000000  0.0000000 )
                  (  1.0000000  0.0000000  0.0000000 )


      isym = 10     180 deg rotation - cart. axis [-1,0,1]       

 cryst.   s(10) = (     0          0         -1      )
                  (     0         -1          0      )
                  (    -1          0          0      )

 cart.    s(10) = (  0.0000000  0.0000000 -1.0000000 )
                  (  0.0000000 -1.0000000  0.0000000 )
                  ( -1.0000000  0.0000000  0.0000000 )


      isym = 11      90 deg rotation - cart. axis [0,1,0]        

 cryst.   s(11) = (     0          0         -1      )
                  (     0          1          0      )
                  (     1          0          0      )

 cart.    s(11) = (  0.0000000  0.0000000  1.0000000 )
                  (  0.0000000  1.0000000  0.0000000 )
                  ( -1.0000000  0.0000000  0.0000000 )


      isym = 12      90 deg rotation - cart. axis [0,-1,0]       

 cryst.   s(12) = (     0          0          1      )
                  (     0          1          0      )
                  (    -1          0          0      )

 cart.    s(12) = (  0.0000000  0.0000000 -1.0000000 )
                  (  0.0000000  1.0000000  0.0000000 )
                  (  1.0000000  0.0000000  0.0000000 )


      isym = 13     180 deg rotation - cart. axis [0,1,1]        

 cryst.   s(13) = (    -1          0          0      )
                  (     0          0          1      )
                  (     0          1          0      )

 cart.    s(13) = ( -1.0000000  0.0000000  0.0000000 )
                  (  0.0000000  0.0000000  1.0000000 )
                  (  0.0000000  1.0000000  0.0000000 )


      isym = 14     180 deg rotation - cart. axis [0,1,-1]       

 cryst.   s(14) = (    -1          0          0      )
                  (     0          0         -1      )
                  (     0         -1          0      )

 cart.    s(14) = ( -1.0000000  0.0000000  0.0000000 )
                  (  0.0000000  0.0000000 -1.0000000 )
                  (  0.0000000 -1.0000000  0.0000000 )


      isym = 15      90 deg rotation - cart. axis [-1,0,0]       

 cryst.   s(15) = (     1          0          0      )
                  (     0          0         -1      )
                  (     0          1          0      )

 cart.    s(15) = (  1.0000000  0.0000000  0.0000000 )
                  (  0.0000000  0.0000000  1.0000000 )
                  (  0.0000000 -1.0000000  0.0000000 )


      isym = 16      90 deg rotation - cart. axis [1,0,0]        

 cryst.   s(16) = (     1          0          0      )
                  (     0          0          1      )
                  (     0         -1          0      )

 cart.    s(16) = (  1.0000000  0.0000000  0.0000000 )
                  (  0.0000000  0.0000000 -1.0000000 )
                  (  0.0000000  1.0000000  0.0000000 )


      isym = 17     120 deg rotation - cart. axis [-1,-1,-1]     

 cryst.   s(17) = (     0          0          1      )
                  (     1          0          0      )
                  (     0          1          0      )

 cart.    s(17) = (  0.0000000  1.0000000  0.0000000 )
                  (  0.0000000  0.0000000  1.0000000 )
                  (  1.0000000  0.0000000  0.0000000 )


      isym = 18     120 deg rotation - cart. axis [-1,1,1]       

 cryst.   s(18) = (     0          0         -1      )
                  (    -1          0          0      )
                  (     0          1          0      )

 cart.    s(18) = (  0.0000000 -1.0000000  0.0000000 )
                  (  0.0000000  0.0000000  1.0000000 )
                  ( -1.0000000  0.0000000  0.0000000 )


      isym = 19     120 deg rotation - cart. axis [1,1,-1]       

 cryst.   s(19) = (     0          0         -1      )
                  (     1          0          0      )
                  (     0         -1          0      )

 cart.    s(19) = (  0.0000000  1.0000000  0.0000000 )
                  (  0.0000000  0.0000000 -1.0000000 )
                  ( -1.0000000  0.0000000  0.0000000 )


      isym = 20     120 deg rotation - cart. axis [1,-1,1]       

 cryst.   s(20) = (     0          0          1      )
                  (    -1          0          0      )
                  (     0         -1          0      )

 cart.    s(20) = (  0.0000000 -1.0000000  0.0000000 )
                  (  0.0000000  0.0000000 -1.0000000 )
                  (  1.0000000  0.0000000  0.0000000 )


      isym = 21     120 deg rotation - cart. axis [1,1,1]        

 cryst.   s(21) = (     0          1          0      )
                  (     0          0          1      )
                  (     1          0          0      )

 cart.    s(21) = (  0.0000000  0.0000000  1.0000000 )
                  (  1.0000000  0.0000000  0.0000000 )
                  (  0.0000000  1.0000000  0.0000000 )


      isym = 22     120 deg rotation - cart. axis [-1,1,-1]      

 cryst.   s(22) = (     0         -1          0      )
                  (     0          0         -1      )
                  (     1          0          0      )

 cart.    s(22) = (  0.0000000  0.0000000  1.0000000 )
                  ( -1.0000000  0.0000000  0.0000000 )
                  (  0.0000000 -1.0000000  0.0000000 )


      isym = 23     120 deg rotation - cart. axis [1,-1,-1]      

 cryst.   s(23) = (     0         -1          0      )
                  (     0          0          1      )
                  (    -1          0          0      )

 cart.    s(23) = (  0.0000000  0.0000000 -1.0000000 )
                  ( -1.0000000  0.0000000  0.0000000 )
                  (  0.0000000  1.0000000  0.0000000 )


      isym = 24     120 deg rotation - cart. axis [-1,-1,1]      

 cryst.   s(24) = (     0          1          0      )
                  (     0          0         -1      )
                  (    -1          0          0      )

 cart.    s(24) = (  0.0000000  0.0000000 -1.0000000 )
                  (  1.0000000  0.0000000  0.0000000 )
                  (  0.0000000 -1.0000000  0.0000000 )


      isym = 25     inversion                                    

 cryst.   s(25) = (    -1          0          0      )
                  (     0         -1          0      )
                  (     0          0         -1      )

 cart.    s(25) = ( -1.0000000  0.0000000  0.0000000 )
                  (  0.0000000 -1.0000000  0.0000000 )
                  (  0.0000000  0.0000000 -1.0000000 )


      isym = 26     inv. 180 deg rotation - cart. axis [0,0,1]   

 cryst.   s(26) = (     1          0          0      )
                  (     0          1          0      )
                  (     0          0         -1      )

 cart.    s(26) = (  1.0000000  0.0000000  0.0000000 )
                  (  0.0000000  1.0000000  0.0000000 )
                  (  0.0000000  0.0000000 -1.0000000 )


      isym = 27     inv. 180 deg rotation - cart. axis [0,1,0]   

 cryst.   s(27) = (     1          0          0      )
                  (     0         -1          0      )
                  (     0          0          1      )

 cart.    s(27) = (  1.0000000  0.0000000  0.0000000 )
                  (  0.0000000 -1.0000000  0.0000000 )
                  (  0.0000000  0.0000000  1.0000000 )


      isym = 28     inv. 180 deg rotation - cart. axis [1,0,0]   

 cryst.   s(28) = (    -1          0          0      )
                  (     0          1          0      )
                  (     0          0          1      )

 cart.    s(28) = ( -1.0000000  0.0000000  0.0000000 )
                  (  0.0000000  1.0000000  0.0000000 )
                  (  0.0000000  0.0000000  1.0000000 )


      isym = 29     inv. 180 deg rotation - cart. axis [1,1,0]   

 cryst.   s(29) = (     0         -1          0      )
                  (    -1          0          0      )
                  (     0          0          1      )

 cart.    s(29) = (  0.0000000 -1.0000000  0.0000000 )
                  ( -1.0000000  0.0000000  0.0000000 )
                  (  0.0000000  0.0000000  1.0000000 )


      isym = 30     inv. 180 deg rotation - cart. axis [1,-1,0]  

 cryst.   s(30) = (     0          1          0      )
                  (     1          0          0      )
                  (     0          0          1      )

 cart.    s(30) = (  0.0000000  1.0000000  0.0000000 )
                  (  1.0000000  0.0000000  0.0000000 )
                  (  0.0000000  0.0000000  1.0000000 )


      isym = 31     inv.  90 deg rotation - cart. axis [0,0,-1]  

 cryst.   s(31) = (     0          1          0      )
                  (    -1          0          0      )
                  (     0          0         -1      )

 cart.    s(31) = (  0.0000000 -1.0000000  0.0000000 )
                  (  1.0000000  0.0000000  0.0000000 )
                  (  0.0000000  0.0000000 -1.0000000 )


      isym = 32     inv.  90 deg rotation - cart. axis [0,0,1]   

 cryst.   s(32) = (     0         -1          0      )
                  (     1          0          0      )
                  (     0          0         -1      )

 cart.    s(32) = (  0.0000000  1.0000000  0.0000000 )
                  ( -1.0000000  0.0000000  0.0000000 )
                  (  0.0000000  0.0000000 -1.0000000 )


      isym = 33     inv. 180 deg rotation - cart. axis [1,0,1]   

 cryst.   s(33) = (     0          0         -1      )
                  (     0          1          0      )
                  (    -1          0          0      )

 cart.    s(33) = (  0.0000000  0.0000000 -1.0000000 )
                  (  0.0000000  1.0000000  0.0000000 )
                  ( -1.0000000  0.0000000  0.0000000 )


      isym = 34     inv. 180 deg rotation - cart. axis [-1,0,1]  

 cryst.   s(34) = (     0          0          1      )
                  (     0          1          0      )
                  (     1          0          0      )

 cart.    s(34) = (  0.0000000  0.0000000  1.0000000 )
                  (  0.0000000  1.0000000  0.0000000 )
                  (  1.0000000  0.0000000  0.0000000 )


      isym = 35     inv.  90 deg rotation - cart. axis [0,1,0]   

 cryst.   s(35) = (     0          0          1      )
                  (     0         -1          0      )
                  (    -1          0          0      )

 cart.    s(35) = (  0.0000000  0.0000000 -1.0000000 )
                  (  0.0000000 -1.0000000  0.0000000 )
                  (  1.0000000  0.0000000  0.0000000 )


      isym = 36     inv.  90 deg rotation - cart. axis [0,-1,0]  

 cryst.   s(36) = (     0          0         -1      )
                  (     0         -1          0      )
                  (     1          0          0      )

 cart.    s(36) = (  0.0000000  0.0000000  1.0000000 )
                  (  0.0000000 -1.0000000  0.0000000 )
                  ( -1.0000000  0.0000000  0.0000000 )


      isym = 37     inv. 180 deg rotation - cart. axis [0,1,1]   

 cryst.   s(37) = (     1          0          0      )
                  (     0          0         -1      )
                  (     0         -1          0      )

 cart.    s(37) = (  1.0000000  0.0000000  0.0000000 )
                  (  0.0000000  0.0000000 -1.0000000 )
                  (  0.0000000 -1.0000000  0.0000000 )


      isym = 38     inv. 180 deg rotation - cart. axis [0,1,-1]  

 cryst.   s(38) = (     1          0          0      )
                  (     0          0          1      )
                  (     0          1          0      )

 cart.    s(38) = (  1.0000000  0.0000000  0.0000000 )
                  (  0.0000000  0.0000000  1.0000000 )
                  (  0.0000000  1.0000000  0.0000000 )


      isym = 39     inv.  90 deg rotation - cart. axis [-1,0,0]  

 cryst.   s(39) = (    -1          0          0      )
                  (     0          0          1      )
                  (     0         -1          0      )

 cart.    s(39) = ( -1.0000000  0.0000000  0.0000000 )
                  (  0.0000000  0.0000000 -1.0000000 )
                  (  0.0000000  1.0000000  0.0000000 )


      isym = 40     inv.  90 deg rotation - cart. axis [1,0,0]   

 cryst.   s(40) = (    -1          0          0      )
                  (     0          0         -1      )
                  (     0          1          0      )

 cart.    s(40) = ( -1.0000000  0.0000000  0.0000000 )
                  (  0.0000000  0.0000000  1.0000000 )
                  (  0.0000000 -1.0000000  0.0000000 )


      isym = 41     inv. 120 deg rotation - cart. axis [-1,-1,-1]

 cryst.   s(41) = (     0          0         -1      )
                  (    -1          0          0      )
                  (     0         -1          0      )

 cart.    s(41) = (  0.0000000 -1.0000000  0.0000000 )
                  (  0.0000000  0.0000000 -1.0000000 )
                  ( -1.0000000  0.0000000  0.0000000 )


      isym = 42     inv. 120 deg rotation - cart. axis [-1,1,1]  

 cryst.   s(42) = (     0          0          1      )
                  (     1          0          0      )
                  (     0         -1          0      )

 cart.    s(42) = (  0.0000000  1.0000000  0.0000000 )
                  (  0.0000000  0.0000000 -1.0000000 )
                  (  1.0000000  0.0000000  0.0000000 )


      isym = 43     inv. 120 deg rotation - cart. axis [1,1,-1]  

 cryst.   s(43) = (     0          0          1      )
                  (    -1          0          0      )
                  (     0          1          0      )

 cart.    s(43) = (  0.0000000 -1.0000000  0.0000000 )
                  (  0.0000000  0.0000000  1.0000000 )
                  (  1.0000000  0.0000000  0.0000000 )


      isym = 44     inv. 120 deg rotation - cart. axis [1,-1,1]  

 cryst.   s(44) = (     0          0         -1      )
                  (     1          0          0      )
                  (     0          1          0      )

 cart.    s(44) = (  0.0000000  1.0000000  0.0000000 )
                  (  0.0000000  0.0000000  1.0000000 )
                  ( -1.0000000  0.0000000  0.0000000 )


      isym = 45     inv. 120 deg rotation - cart. axis [1,1,1]   

 cryst.   s(45) = (     0         -1          0      )
                  (     0          0         -1      )
                  (    -1          0          0      )

 cart.    s(45) = (  0.0000000  0.0000000 -1.0000000 )
                  ( -1.0000000  0.0000000  0.0000000 )
                  (  0.0000000 -1.0000000  0.0000000 )


      isym = 46     inv. 120 deg rotation - cart. axis [-1,1,-1] 

 cryst.   s(46) = (     0          1          0      )
                  (     0          0          1      )
                  (    -1          0          0      )

 cart.    s(46) = (  0.0000000  0.0000000 -1.0000000 )
                  (  1.0000000  0.0000000  0.0000000 )
                  (  0.0000000  1.0000000  0.0000000 )


      isym = 47     inv. 120 deg rotation - cart. axis [1,-1,-1] 

 cryst.   s(47) = (     0          1          0      )
                  (     0          0         -1      )
                  (     1          0          0      )

 cart.    s(47) = (  0.0000000  0.0000000  1.0000000 )
                  (  1.0000000  0.0000000  0.0000000 )
                  (  0.0000000 -1.0000000  0.0000000 )


      isym = 48     inv. 120 deg rotation - cart. axis [-1,-1,1] 

 cryst.   s(48) = (     0         -1          0      )
                  (     0          0          1      )
                  (     1          0          0      )

 cart.    s(48) = (  0.0000000  0.0000000  1.0000000 )
                  ( -1.0000000  0.0000000  0.0000000 )
                  (  0.0000000  1.0000000  0.0000000 )


   Cartesian axes

     site n.     atom                  positions (alat units)
         1        K      tau(   1) = (   0.0000000   0.0000000   0.0000000  )
         2        Zn     tau(   2) = (   0.5000000   0.5000000   0.5000000  )
         3        Br     tau(   3) = (   0.5000000   0.0000000   0.0000000  )
         4        Br     tau(   4) = (   0.0000000   0.5000000   0.0000000  )
         5        Br     tau(   5) = (   0.0000000   0.0000000   0.5000000  )

   Crystallographic axes

     site n.     atom                  positions (cryst. coord.)
         1        K      tau(   1) = (  0.0000000  0.0000000  0.0000000  )
         2        Zn     tau(   2) = (  0.5000000  0.5000000  0.5000000  )
         3        Br     tau(   3) = (  0.5000000  0.0000000  0.0000000  )
         4        Br     tau(   4) = (  0.0000000  0.5000000  0.0000000  )
         5        Br     tau(   5) = (  0.0000000  0.0000000  0.5000000  )

     number of k points=    35  Gaussian smearing, width (Ry)=  0.0050
                       cart. coord. in units 2pi/alat
        k(    1) = (   0.0000000   0.0000000   0.0000000), wk =   0.0039062
        k(    2) = (   0.0000000   0.0000000   0.1250000), wk =   0.0234375
        k(    3) = (   0.0000000   0.0000000   0.2500000), wk =   0.0234375
        k(    4) = (   0.0000000   0.0000000   0.3750000), wk =   0.0234375
        k(    5) = (   0.0000000   0.0000000  -0.5000000), wk =   0.0117188
        k(    6) = (   0.0000000   0.1250000   0.1250000), wk =   0.0468750
        k(    7) = (   0.0000000   0.1250000   0.2500000), wk =   0.0937500
        k(    8) = (   0.0000000   0.1250000   0.3750000), wk =   0.0937500
        k(    9) = (   0.0000000   0.1250000  -0.5000000), wk =   0.0468750
        k(   10) = (   0.0000000   0.2500000   0.2500000), wk =   0.0468750
        k(   11) = (   0.0000000   0.2500000   0.3750000), wk =   0.0937500
        k(   12) = (   0.0000000   0.2500000  -0.5000000), wk =   0.0468750
        k(   13) = (   0.0000000   0.3750000   0.3750000), wk =   0.0468750
        k(   14) = (   0.0000000   0.3750000  -0.5000000), wk =   0.0468750
        k(   15) = (   0.0000000  -0.5000000  -0.5000000), wk =   0.0117188
        k(   16) = (   0.1250000   0.1250000   0.1250000), wk =   0.0312500
        k(   17) = (   0.1250000   0.1250000   0.2500000), wk =   0.0937500
        k(   18) = (   0.1250000   0.1250000   0.3750000), wk =   0.0937500
        k(   19) = (   0.1250000   0.1250000  -0.5000000), wk =   0.0468750
        k(   20) = (   0.1250000   0.2500000   0.2500000), wk =   0.0937500
        k(   21) = (   0.1250000   0.2500000   0.3750000), wk =   0.1875000
        k(   22) = (   0.1250000   0.2500000  -0.5000000), wk =   0.0937500
        k(   23) = (   0.1250000   0.3750000   0.3750000), wk =   0.0937500
        k(   24) = (   0.1250000   0.3750000  -0.5000000), wk =   0.0937500
        k(   25) = (   0.1250000  -0.5000000  -0.5000000), wk =   0.0234375
        k(   26) = (   0.2500000   0.2500000   0.2500000), wk =   0.0312500
        k(   27) = (   0.2500000   0.2500000   0.3750000), wk =   0.0937500
        k(   28) = (   0.2500000   0.2500000  -0.5000000), wk =   0.0468750
        k(   29) = (   0.2500000   0.3750000   0.3750000), wk =   0.0937500
        k(   30) = (   0.2500000   0.3750000  -0.5000000), wk =   0.0937500
        k(   31) = (   0.2500000  -0.5000000  -0.5000000), wk =   0.0234375
        k(   32) = (   0.3750000   0.3750000   0.3750000), wk =   0.0312500
        k(   33) = (   0.3750000   0.3750000  -0.5000000), wk =   0.0468750
        k(   34) = (   0.3750000  -0.5000000  -0.5000000), wk =   0.0234375
        k(   35) = (  -0.5000000  -0.5000000  -0.5000000), wk =   0.0039062

                       cryst. coord.
        k(    1) = (   0.0000000   0.0000000   0.0000000), wk =   0.0039062
        k(    2) = (   0.0000000   0.0000000   0.1250000), wk =   0.0234375
        k(    3) = (   0.0000000   0.0000000   0.2500000), wk =   0.0234375
        k(    4) = (   0.0000000   0.0000000   0.3750000), wk =   0.0234375
        k(    5) = (   0.0000000   0.0000000  -0.5000000), wk =   0.0117188
        k(    6) = (   0.0000000   0.1250000   0.1250000), wk =   0.0468750
        k(    7) = (   0.0000000   0.1250000   0.2500000), wk =   0.0937500
        k(    8) = (   0.0000000   0.1250000   0.3750000), wk =   0.0937500
        k(    9) = (   0.0000000   0.1250000  -0.5000000), wk =   0.0468750
        k(   10) = (   0.0000000   0.2500000   0.2500000), wk =   0.0468750
        k(   11) = (   0.0000000   0.2500000   0.3750000), wk =   0.0937500
        k(   12) = (   0.0000000   0.2500000  -0.5000000), wk =   0.0468750
        k(   13) = (   0.0000000   0.3750000   0.3750000), wk =   0.0468750
        k(   14) = (   0.0000000   0.3750000  -0.5000000), wk =   0.0468750
        k(   15) = (   0.0000000  -0.5000000  -0.5000000), wk =   0.0117188
        k(   16) = (   0.1250000   0.1250000   0.1250000), wk =   0.0312500
        k(   17) = (   0.1250000   0.1250000   0.2500000), wk =   0.0937500
        k(   18) = (   0.1250000   0.1250000   0.3750000), wk =   0.0937500
        k(   19) = (   0.1250000   0.1250000  -0.5000000), wk =   0.0468750
        k(   20) = (   0.1250000   0.2500000   0.2500000), wk =   0.0937500
        k(   21) = (   0.1250000   0.2500000   0.3750000), wk =   0.1875000
        k(   22) = (   0.1250000   0.2500000  -0.5000000), wk =   0.0937500
        k(   23) = (   0.1250000   0.3750000   0.3750000), wk =   0.0937500
        k(   24) = (   0.1250000   0.3750000  -0.5000000), wk =   0.0937500
        k(   25) = (   0.1250000  -0.5000000  -0.5000000), wk =   0.0234375
        k(   26) = (   0.2500000   0.2500000   0.2500000), wk =   0.0312500
        k(   27) = (   0.2500000   0.2500000   0.3750000), wk =   0.0937500
        k(   28) = (   0.2500000   0.2500000  -0.5000000), wk =   0.0468750
        k(   29) = (   0.2500000   0.3750000   0.3750000), wk =   0.0937500
        k(   30) = (   0.2500000   0.3750000  -0.5000000), wk =   0.0937500
        k(   31) = (   0.2500000  -0.5000000  -0.5000000), wk =   0.0234375
        k(   32) = (   0.3750000   0.3750000   0.3750000), wk =   0.0312500
        k(   33) = (   0.3750000   0.3750000  -0.5000000), wk =   0.0468750
        k(   34) = (   0.3750000  -0.5000000  -0.5000000), wk =   0.0234375
        k(   35) = (  -0.5000000  -0.5000000  -0.5000000), wk =   0.0039062

     Dense  grid:   368157 G-vectors     FFT dimensions: (  90,  90,  90)

     Smooth grid:   130195 G-vectors     FFT dimensions: (  64,  64,  64)

     Dynamical RAM for                 wfc:       3.72 MB

     Dynamical RAM for     wfc (w. buffer):      37.22 MB

     Dynamical RAM for           str. fact:       8.43 MB

     Dynamical RAM for           local pot:       0.00 MB

     Dynamical RAM for          nlocal pot:       7.44 MB

     Dynamical RAM for                qrad:       6.09 MB

     Dynamical RAM for          rho,v,vnew:      16.77 MB

     Dynamical RAM for               rhoin:       5.59 MB

     Dynamical RAM for            rho*nmix:      44.94 MB

     Dynamical RAM for           G-vectors:      11.03 MB

     Dynamical RAM for          h,s,v(r/c):       0.16 MB

     Dynamical RAM for          <psi|beta>:       0.03 MB

     Dynamical RAM for                 psi:       7.44 MB

     Dynamical RAM for                hpsi:       7.44 MB

     Dynamical RAM for                spsi:       7.44 MB

     Dynamical RAM for      wfcinit/wfcrot:       7.46 MB

     Dynamical RAM for           addusdens:     134.82 MB

     Estimated static dynamical RAM per process >     117.71 MB

     Estimated max dynamical RAM per process >     297.47 MB

     Estimated total dynamical RAM >       2.06 GB

     Initial potential from superposition of free atoms

     starting charge      49.9810, renormalised to      50.0000
     Starting wfcs are   30 randomized atomic wfcs
     Checking if some PAW data can be deallocated... 
       PAW data deallocated on    6 nodes for type:  1
       PAW data deallocated on    6 nodes for type:  2
       PAW data deallocated on    4 nodes for type:  3

     total cpu time spent up to now is        9.9 secs

     Self-consistent Calculation

     iteration #  1     ecut=    80.00 Ry     beta= 0.40
     Davidson diagonalization with overlap

---- Real-time Memory Report at c_bands before calling an iterative solver
           232 MiB given to the printing process from OS
             0 MiB allocation reported by mallinfo(arena+hblkhd)
         46478 MiB available memory on the node where the printing process lives
------------------
     ethr =  1.00E-02,  avg # of iterations =  7.2

     total cpu time spent up to now is       46.1 secs

     total energy              =   -1275.84808470 Ry
     estimated scf accuracy    <       0.91661752 Ry

     iteration #  2     ecut=    80.00 Ry     beta= 0.40
     Davidson diagonalization with overlap

---- Real-time Memory Report at c_bands before calling an iterative solver
           330 MiB given to the printing process from OS
             0 MiB allocation reported by mallinfo(arena+hblkhd)
         45312 MiB available memory on the node where the printing process lives
------------------
     ethr =  1.83E-03,  avg # of iterations =  2.4

     total cpu time spent up to now is       69.6 secs

     total energy              =   -1276.05195577 Ry
     estimated scf accuracy    <       0.37305340 Ry

     iteration #  3     ecut=    80.00 Ry     beta= 0.40
     Davidson diagonalization with overlap

---- Real-time Memory Report at c_bands before calling an iterative solver
           332 MiB given to the printing process from OS
             0 MiB allocation reported by mallinfo(arena+hblkhd)
         45306 MiB available memory on the node where the printing process lives
------------------
     ethr =  7.46E-04,  avg # of iterations =  2.1

     total cpu time spent up to now is       91.2 secs

     total energy              =   -1276.09318048 Ry
     estimated scf accuracy    <       0.02344001 Ry

     iteration #  4     ecut=    80.00 Ry     beta= 0.40
     Davidson diagonalization with overlap

---- Real-time Memory Report at c_bands before calling an iterative solver
           335 MiB given to the printing process from OS
             0 MiB allocation reported by mallinfo(arena+hblkhd)
         45346 MiB available memory on the node where the printing process lives
------------------
     ethr =  4.69E-05,  avg # of iterations =  6.6

     total cpu time spent up to now is      123.1 secs

     total energy              =   -1276.09273626 Ry
     estimated scf accuracy    <       0.01091932 Ry

     iteration #  5     ecut=    80.00 Ry     beta= 0.40
     Davidson diagonalization with overlap

---- Real-time Memory Report at c_bands before calling an iterative solver
           337 MiB given to the printing process from OS
             0 MiB allocation reported by mallinfo(arena+hblkhd)
         45376 MiB available memory on the node where the printing process lives
------------------
     ethr =  2.18E-05,  avg # of iterations =  2.2

     total cpu time spent up to now is      145.0 secs

     total energy              =   -1276.09209025 Ry
     estimated scf accuracy    <       0.05338608 Ry

     iteration #  6     ecut=    80.00 Ry     beta= 0.40
     Davidson diagonalization with overlap

---- Real-time Memory Report at c_bands before calling an iterative solver
           339 MiB given to the printing process from OS
             0 MiB allocation reported by mallinfo(arena+hblkhd)
         45726 MiB available memory on the node where the printing process lives
------------------
     ethr =  2.18E-05,  avg # of iterations =  1.8

     total cpu time spent up to now is      164.8 secs

     total energy              =   -1276.09702771 Ry
     estimated scf accuracy    <       0.00070209 Ry

     iteration #  7     ecut=    80.00 Ry     beta= 0.40
     Davidson diagonalization with overlap

---- Real-time Memory Report at c_bands before calling an iterative solver
           340 MiB given to the printing process from OS
             0 MiB allocation reported by mallinfo(arena+hblkhd)
         45554 MiB available memory on the node where the printing process lives
------------------
     ethr =  1.40E-06,  avg # of iterations =  5.7

     total cpu time spent up to now is      194.8 secs

     total energy              =   -1276.09712810 Ry
     estimated scf accuracy    <       0.00018235 Ry

     iteration #  8     ecut=    80.00 Ry     beta= 0.40
     Davidson diagonalization with overlap

---- Real-time Memory Report at c_bands before calling an iterative solver
           343 MiB given to the printing process from OS
             0 MiB allocation reported by mallinfo(arena+hblkhd)
         45680 MiB available memory on the node where the printing process lives
------------------
     ethr =  3.65E-07,  avg # of iterations =  1.8

     total cpu time spent up to now is      213.8 secs

     total energy              =   -1276.09714026 Ry
     estimated scf accuracy    <       0.00018952 Ry

     iteration #  9     ecut=    80.00 Ry     beta= 0.40
     Davidson diagonalization with overlap

---- Real-time Memory Report at c_bands before calling an iterative solver
           344 MiB given to the printing process from OS
             0 MiB allocation reported by mallinfo(arena+hblkhd)
         45606 MiB available memory on the node where the printing process lives
------------------
     ethr =  3.65E-07,  avg # of iterations =  1.0

     total cpu time spent up to now is      231.7 secs

     total energy              =   -1276.09716615 Ry
     estimated scf accuracy    <       0.00003150 Ry

     iteration # 10     ecut=    80.00 Ry     beta= 0.40
     Davidson diagonalization with overlap

---- Real-time Memory Report at c_bands before calling an iterative solver
           346 MiB given to the printing process from OS
             0 MiB allocation reported by mallinfo(arena+hblkhd)
         45433 MiB available memory on the node where the printing process lives
------------------
     ethr =  6.30E-08,  avg # of iterations =  1.0

     total cpu time spent up to now is      249.4 secs

     total energy              =   -1276.09716587 Ry
     estimated scf accuracy    <       0.00000640 Ry

     iteration # 11     ecut=    80.00 Ry     beta= 0.40
     Davidson diagonalization with overlap

---- Real-time Memory Report at c_bands before calling an iterative solver
           347 MiB given to the printing process from OS
             0 MiB allocation reported by mallinfo(arena+hblkhd)
         45476 MiB available memory on the node where the printing process lives
------------------
     ethr =  1.28E-08,  avg # of iterations =  1.0

     total cpu time spent up to now is      266.1 secs

     total energy              =   -1276.09716651 Ry
     estimated scf accuracy    <       0.00000022 Ry

     iteration # 12     ecut=    80.00 Ry     beta= 0.40
     Davidson diagonalization with overlap

---- Real-time Memory Report at c_bands before calling an iterative solver
           347 MiB given to the printing process from OS
             0 MiB allocation reported by mallinfo(arena+hblkhd)
         45364 MiB available memory on the node where the printing process lives
------------------
     ethr =  4.32E-10,  avg # of iterations =  3.9

     total cpu time spent up to now is      292.1 secs

     total energy              =   -1276.09716655 Ry
     estimated scf accuracy    <       0.00000001 Ry

     iteration # 13     ecut=    80.00 Ry     beta= 0.40
     Davidson diagonalization with overlap

---- Real-time Memory Report at c_bands before calling an iterative solver
           347 MiB given to the printing process from OS
             0 MiB allocation reported by mallinfo(arena+hblkhd)
         45423 MiB available memory on the node where the printing process lives
------------------
     ethr =  2.67E-11,  avg # of iterations =  2.7

     total cpu time spent up to now is      315.1 secs

     End of self-consistent calculation

          k = 0.0000 0.0000 0.0000 ( 16279 PWs)   bands (ev):

  -124.7438 -78.9060 -78.9060 -78.9060 -26.7398 -12.5625 -12.3558 -12.3558
   -10.4357 -10.4357 -10.4357  -5.6109  -5.6109  -5.6100  -5.6100  -5.6100
    -0.8411  -0.8411  -0.8411  -0.6275  -0.1781  -0.1781  -0.1781   0.2648
     0.2648   0.2648   5.9663   5.9663   5.9663   7.3110

     occupation numbers 
     1.0000   1.0000   1.0000   1.0000   1.0000   1.0000   1.0000   1.0000
     1.0000   1.0000   1.0000   1.0000   1.0000   1.0000   1.0000   1.0000
     1.0000   1.0000   1.0000   1.0000   1.0000   1.0000   1.0000   0.1121
     0.1121   0.1121   0.0000   0.0000   0.0000   0.0000

          k = 0.0000 0.0000 0.1250 ( 16283 PWs)   bands (ev):

  -124.7438 -78.9061 -78.9060 -78.9060 -26.7396 -12.5673 -12.3872 -12.3555
   -10.4353 -10.4353 -10.3747  -5.6110  -5.6107  -5.6102  -5.6102  -5.6100
    -1.0061  -0.8189  -0.8189  -0.4914  -0.1970  -0.1970  -0.1920   0.2162
     0.2474   0.2474   5.6034   5.8867   5.8867   7.5643

     occupation numbers 
     1.0000   1.0000   1.0000   1.0000   1.0000   1.0000   1.0000   1.0000
     1.0000   1.0000   1.0000   1.0000   1.0000   1.0000   1.0000   1.0000
     1.0000   1.0000   1.0000   1.0000   1.0000   1.0000   1.0000   0.4183
     0.1963   0.1963   0.0000   0.0000   0.0000   0.0000

          k = 0.0000 0.0000 0.2500 ( 16235 PWs)   bands (ev):

  -124.7438 -78.9060 -78.9060 -78.9059 -26.7394 -12.5871 -12.4476 -12.3549
   -10.4346 -10.4346 -10.2337  -5.6115  -5.6106  -5.6106  -5.6101  -5.6099
    -1.1934  -0.7546  -0.7546  -0.4980  -0.2588  -0.2588  -0.2250   0.2120
     0.2120   0.2409   5.0359   5.7278   5.7278   7.9811

     occupation numbers 
     1.0000   1.0000   1.0000   1.0000   1.0000   1.0000   1.0000   1.0000
     1.0000   1.0000   1.0000   1.0000   1.0000   1.0000   1.0000   1.0000
     1.0000   1.0000   1.0000   1.0000   1.0000   1.0000   1.0000   0.4530
     0.4530   0.2363   0.0000   0.0000   0.0000   0.0000

          k = 0.0000 0.0000 0.3750 ( 16284 PWs)   bands (ev):

  -124.7438 -78.9061 -78.9061 -78.9060 -26.7391 -12.6231 -12.4837 -12.3542
   -10.4339 -10.4339 -10.0990  -5.6119  -5.6111  -5.6111  -5.6100  -5.6097
    -1.3044  -0.6811  -0.6580  -0.6580  -0.3607  -0.3607  -0.2573   0.1857
     0.1857   0.3894   4.6106   5.5962   5.5962   7.7358

     occupation numbers 
     1.0000   1.0000   1.0000   1.0000   1.0000   1.0000   1.0000   1.0000
     1.0000   1.0000   1.0000   1.0000   1.0000   1.0000   1.0000   1.0000
     1.0000   1.0000   1.0000   1.0000   1.0000   1.0000   1.0000   0.6662
     0.6662   0.0001   0.0000   0.0000   0.0000   0.0000

          k = 0.0000 0.0000-0.5000 ( 16240 PWs)   bands (ev):

  -124.7438 -78.9060 -78.9060 -78.9059 -26.7390 -12.6422 -12.4925 -12.3540
   -10.4335 -10.4335 -10.0446  -5.6121  -5.6113  -5.6113  -5.6099  -5.6094
    -1.3372  -0.7759  -0.5810  -0.5810  -0.4420  -0.4420  -0.2704   0.1772
     0.1772   0.4636   4.4530   5.5469   5.5469   7.7880

     occupation numbers 
     1.0000   1.0000   1.0000   1.0000   1.0000   1.0000   1.0000   1.0000
     1.0000   1.0000   1.0000   1.0000   1.0000   1.0000   1.0000   1.0000
     1.0000   1.0000   1.0000   1.0000   1.0000   1.0000   1.0000   0.7274
     0.7274   0.0000   0.0000   0.0000   0.0000   0.0000

          k = 0.0000 0.1250 0.1250 ( 16256 PWs)   bands (ev):

  -124.7438 -78.9060 -78.9060 -78.9060 -26.7395 -12.5712 -12.4038 -12.3708
   -10.4350 -10.3770 -10.3719  -5.6111  -5.6106  -5.6102  -5.6102  -5.6101
    -1.1027  -0.7971  -0.7872  -0.4534  -0.2649  -0.2125  -0.1525   0.1933
     0.2206   0.2275   5.4306   5.7601   5.8141   7.7072

     occupation numbers 
     1.0000   1.0000   1.0000   1.0000   1.0000   1.0000   1.0000   1.0000
     1.0000   1.0000   1.0000   1.0000   1.0000   1.0000   1.0000   1.0000
     1.0000   1.0000   1.0000   1.0000   1.0000   1.0000   1.0000   0.6068
     0.3832   0.3299   0.0000   0.0000   0.0000   0.0000

          k = 0.0000 0.1250 0.2500 ( 16252 PWs)   bands (ev):

  -124.7438 -78.9060 -78.9060 -78.9060 -26.7393 -12.5885 -12.4611 -12.3756
   -10.4343 -10.3739 -10.2335  -5.6114  -5.6106  -5.6106  -5.6101  -5.6101
    -1.2498  -0.7342  -0.7272  -0.5327  -0.3423  -0.2653  -0.1357   0.1360
     0.1855   0.2663   5.0192   5.6200   5.6643   7.7847

     occupation numbers 
     1.0000   1.0000   1.0000   1.0000   1.0000   1.0000   1.0000   1.0000
     1.0000   1.0000   1.0000   1.0000   1.0000   1.0000   1.0000   1.0000
     1.0000   1.0000   1.0000   1.0000   1.0000   1.0000   1.0000   0.9282
     0.6676   0.1064   0.0000   0.0000   0.0000   0.0000

          k = 0.0000 0.1250 0.3750 ( 16261 PWs)   bands (ev):

  -124.7438 -78.9060 -78.9060 -78.9060 -26.7390 -12.6228 -12.4979 -12.3758
   -10.4335 -10.3732 -10.0988  -5.6118  -5.6111  -5.6109  -5.6101  -5.6096
    -1.3454  -0.7298  -0.6439  -0.6396  -0.4355  -0.3580  -0.1304   0.1024
     0.1531   0.3779   4.6775   5.5153   5.5370   7.8763

     occupation numbers 
     1.0000   1.0000   1.0000   1.0000   1.0000   1.0000   1.0000   1.0000
     1.0000   1.0000   1.0000   1.0000   1.0000   1.0000   1.0000   1.0000
     1.0000   1.0000   1.0000   1.0000   1.0000   1.0000   1.0000   0.9846
     0.8657   0.0002   0.0000   0.0000   0.0000   0.0000

          k = 0.0000 0.1250-0.5000 ( 16282 PWs)   bands (ev):

  -124.7438 -78.9061 -78.9061 -78.9060 -26.7389 -12.6417 -12.5067 -12.3757
   -10.4332 -10.3729 -10.0444  -5.6119  -5.6114  -5.6111  -5.6101  -5.6095
    -1.3742  -0.8231  -0.5721  -0.5636  -0.5135  -0.4358  -0.1311   0.0906
     0.1425   0.4334   4.5495   5.4749   5.4887   7.9190

     occupation numbers 
     1.0000   1.0000   1.0000   1.0000   1.0000   1.0000   1.0000   1.0000
     1.0000   1.0000   1.0000   1.0000   1.0000   1.0000   1.0000   1.0000
     1.0000   1.0000   1.0000   1.0000   1.0000   1.0000   1.0000   0.9919
     0.9077   0.0000   0.0000   0.0000   0.0000   0.0000

          k = 0.0000 0.2500 0.2500 ( 16246 PWs)   bands (ev):

  -124.7438 -78.9060 -78.9060 -78.9059 -26.7390 -12.5965 -12.5091 -12.3986
   -10.4335 -10.2377 -10.2284  -5.6114  -5.6106  -5.6106  -5.6104  -5.6100
    -1.3565  -0.6763  -0.6753  -0.6731  -0.3977  -0.2925  -0.0970   0.0627
     0.1245   0.2992   4.9438   5.4527   5.5264   8.1749

     occupation numbers 
     1.0000   1.0000   1.0000   1.0000   1.0000   1.0000   1.0000   1.0000
     1.0000   1.0000   1.0000   1.0000   1.0000   1.0000   1.0000   1.0000
     1.0000   1.0000   1.0000   1.0000   1.0000   1.0000   1.0000   0.9986
     0.9555   0.0268   0.0000   0.0000   0.0000   0.0000

          k = 0.0000 0.2500 0.3750 ( 16265 PWs)   bands (ev):

  -124.7438 -78.9060 -78.9060 -78.9060 -26.7387 -12.6224 -12.5475 -12.4052
   -10.4328 -10.2326 -10.0984  -5.6115  -5.6111  -5.6106  -5.6105  -5.6096
    -1.4362  -0.8577  -0.6133  -0.5870  -0.4689  -0.3552  -0.1073   0.0649
     0.0708   0.3368   4.8371   5.3575   5.4034   8.2599

     occupation numbers 
     1.0000   1.0000   1.0000   1.0000   1.0000   1.0000   1.0000   1.0000
     1.0000   1.0000   1.0000   1.0000   1.0000   1.0000   1.0000   1.0000
     1.0000   1.0000   1.0000   1.0000   1.0000   1.0000   1.0000   0.9984
     0.9976   0.0033   0.0000   0.0000   0.0000   0.0000

          k = 0.0000 0.2500-0.5000 ( 16274 PWs)   bands (ev):

  -124.7438 -78.9060 -78.9060 -78.9060 -26.7386 -12.6407 -12.5554 -12.4065
   -10.4325 -10.2324 -10.0440  -5.6115  -5.6113  -5.6106  -5.6106  -5.6095
    -1.4624  -0.9406  -0.5509  -0.5425  -0.5136  -0.4208  -0.1031   0.0517
     0.0653   0.3544   4.7903   5.3273   5.3557   8.2812

     occupation numbers 
     1.0000   1.0000   1.0000   1.0000   1.0000   1.0000   1.0000   1.0000
     1.0000   1.0000   1.0000   1.0000   1.0000   1.0000   1.0000   1.0000
     1.0000   1.0000   1.0000   1.0000   1.0000   1.0000   1.0000   0.9993
     0.9983   0.0010   0.0000   0.0000   0.0000   0.0000

          k = 0.0000 0.3750 0.3750 ( 16268 PWs)   bands (ev):

  -124.7438 -78.9061 -78.9060 -78.9059 -26.7385 -12.6261 -12.6030 -12.4168
   -10.4321 -10.1002 -10.0959  -5.6113  -5.6111  -5.6111  -5.6102  -5.6094
    -1.5162  -1.0034  -0.5672  -0.5095  -0.4774  -0.3687  -0.2429  -0.0186
     0.1741   0.2842   4.9914   5.2406   5.2804   8.8642

     occupation numbers 
     1.0000   1.0000   1.0000   1.0000   1.0000   1.0000   1.0000   1.0000
     1.0000   1.0000   1.0000   1.0000   1.0000   1.0000   1.0000   1.0000
     1.0000   1.0000   1.0000   1.0000   1.0000   1.0000   1.0000   1.0000
     0.7487   0.0527   0.0000   0.0000   0.0000   0.0000

          k = 0.0000 0.3750-0.5000 ( 16284 PWs)   bands (ev):

  -124.7438 -78.9061 -78.9060 -78.9060 -26.7384 -12.6396 -12.6143 -12.4193
   -10.4318 -10.0979 -10.0436  -5.6113  -5.6112  -5.6111  -5.6101  -5.6093
    -1.5462  -1.0684  -0.5187  -0.5128  -0.4431  -0.4056  -0.2839  -0.0584
     0.2083   0.2644   5.0485   5.2067   5.2320   8.7648

     occupation numbers 
     1.0000   1.0000   1.0000   1.0000   1.0000   1.0000   1.0000   1.0000
     1.0000   1.0000   1.0000   1.0000   1.0000   1.0000   1.0000   1.0000
     1.0000   1.0000   1.0000   1.0000   1.0000   1.0000   1.0000   1.0000
     0.4836   0.1135   0.0000   0.0000   0.0000   0.0000

          k = 0.0000-0.5000-0.5000 ( 16276 PWs)   bands (ev):

  -124.7438 -78.9061 -78.9060 -78.9060 -26.7382 -12.6392 -12.6392 -12.4222
   -10.4315 -10.0434 -10.0434  -5.6113  -5.6113  -5.6112  -5.6098  -5.6092
    -1.5793  -1.1248  -0.4897  -0.4897  -0.3993  -0.3993  -0.3676  -0.1183
     0.2198   0.2621   5.1627   5.1627   5.1830   9.0536

     occupation numbers 
     1.0000   1.0000   1.0000   1.0000   1.0000   1.0000   1.0000   1.0000
     1.0000   1.0000   1.0000   1.0000   1.0000   1.0000   1.0000   1.0000
     1.0000   1.0000   1.0000   1.0000   1.0000   1.0000   1.0000   1.0000
     0.3898   0.1231   0.0000   0.0000   0.0000   0.0000

          k = 0.1250 0.1250 0.1250 ( 16257 PWs)   bands (ev):

  -124.7438 -78.9060 -78.9060 -78.9060 -26.7394 -12.5746 -12.4035 -12.4035
   -10.3793 -10.3717 -10.3717  -5.6109  -5.6109  -5.6103  -5.6102  -5.6102
    -1.1682  -0.7738  -0.7738  -0.4507  -0.2747  -0.2747  -0.1181   0.1848
     0.1848   0.2174   5.2658   5.7390   5.7390   7.8708

     occupation numbers 
     1.0000   1.0000   1.0000   1.0000   1.0000   1.0000   1.0000   1.0000
     1.0000   1.0000   1.0000   1.0000   1.0000   1.0000   1.0000   1.0000
     1.0000   1.0000   1.0000   1.0000   1.0000   1.0000   1.0000   0.6724
     0.6724   0.4085   0.0000   0.0000   0.0000   0.0000

          k = 0.1250 0.1250 0.2500 ( 16256 PWs)   bands (ev):

  -124.7438 -78.9060 -78.9060 -78.9060 -26.7392 -12.5898 -12.4681 -12.4028
   -10.3763 -10.3710 -10.2332  -5.6113  -5.6108  -5.6104  -5.6104  -5.6100
    -1.2854  -0.7369  -0.7210  -0.5618  -0.3722  -0.2831  -0.0901   0.1033
     0.1631   0.2648   4.9632   5.5507   5.6805   7.8858

     occupation numbers 
     1.0000   1.0000   1.0000   1.0000   1.0000   1.0000   1.0000   1.0000
     1.0000   1.0000   1.0000   1.0000   1.0000   1.0000   1.0000   1.0000
     1.0000   1.0000   1.0000   1.0000   1.0000   1.0000   1.0000   0.9839
     0.8156   0.1120   0.0000   0.0000   0.0000   0.0000

          k = 0.1250 0.1250 0.3750 ( 16261 PWs)   bands (ev):

  -124.7438 -78.9060 -78.9060 -78.9060 -26.7389 -12.6225 -12.5073 -12.4021
   -10.3756 -10.3703 -10.0987  -5.6116  -5.6110  -5.6108  -5.6103  -5.6096
    -1.3666  -0.7771  -0.6873  -0.6432  -0.4617  -0.2832  -0.0813   0.0283
     0.1408   0.3547   4.7254   5.3769   5.6156   7.9886

     occupation numbers 
     1.0000   1.0000   1.0000   1.0000   1.0000   1.0000   1.0000   1.0000
     1.0000   1.0000   1.0000   1.0000   1.0000   1.0000   1.0000   1.0000
     1.0000   1.0000   1.0000   1.0000   1.0000   1.0000   1.0000   0.9999
     0.9133   0.0010   0.0000   0.0000   0.0000   0.0000

          k = 0.1250 0.1250-0.5000 ( 16284 PWs)   bands (ev):

  -124.7438 -78.9061 -78.9061 -78.9060 -26.7388 -12.6413 -12.5163 -12.4018
   -10.3753 -10.3700 -10.0443  -5.6117  -5.6112  -5.6111  -5.6104  -5.6094
    -1.3909  -0.8697  -0.6567  -0.6128  -0.5055  -0.2895  -0.0810  -0.0014
     0.1320   0.3964   4.6383   5.3088   5.5878   8.0275

     occupation numbers 
     1.0000   1.0000   1.0000   1.0000   1.0000   1.0000   1.0000   1.0000
     1.0000   1.0000   1.0000   1.0000   1.0000   1.0000   1.0000   1.0000
     1.0000   1.0000   1.0000   1.0000   1.0000   1.0000   1.0000   1.0000
     0.9389   0.0000   0.0000   0.0000   0.0000   0.0000

          k = 0.1250 0.2500 0.2500 ( 16281 PWs)   bands (ev):

  -124.7438 -78.9061 -78.9060 -78.9060 -26.7389 -12.5972 -12.5088 -12.4335
   -10.3731 -10.2374 -10.2282  -5.6113  -5.6108  -5.6107  -5.6103  -5.6099
    -1.3626  -0.7506  -0.7102  -0.6747  -0.3850  -0.3254  -0.0419   0.0663
     0.1074   0.2750   4.8641   5.4876   5.5848   8.1601

     occupation numbers 
     1.0000   1.0000   1.0000   1.0000   1.0000   1.0000   1.0000   1.0000
     1.0000   1.0000   1.0000   1.0000   1.0000   1.0000   1.0000   1.0000
     1.0000   1.0000   1.0000   1.0000   1.0000   1.0000   1.0000   0.9982
     0.9801   0.0768   0.0000   0.0000   0.0000   0.0000

          k = 0.1250 0.2500 0.3750 ( 16279 PWs)   bands (ev):

  -124.7438 -78.9061 -78.9060 -78.9060 -26.7386 -12.6221 -12.5486 -12.4395
   -10.3724 -10.2324 -10.0982  -5.6113  -5.6110  -5.6107  -5.6105  -5.6096
    -1.4247  -0.9000  -0.7282  -0.6703  -0.4164  -0.2838  -0.0826   0.0526
     0.0837   0.2924   4.8367   5.3035   5.5527   8.2950

     occupation numbers 
     1.0000   1.0000   1.0000   1.0000   1.0000   1.0000   1.0000   1.0000
     1.0000   1.0000   1.0000   1.0000   1.0000   1.0000   1.0000   1.0000
     1.0000   1.0000   1.0000   1.0000   1.0000   1.0000   1.0000   0.9993
     0.9946   0.0368   0.0000   0.0000   0.0000   0.0000

          k = 0.1250 0.2500-0.5000 ( 16262 PWs)   bands (ev):

  -124.7438 -78.9060 -78.9060 -78.9060 -26.7385 -12.6403 -12.5570 -12.4404
   -10.3721 -10.2321 -10.0439  -5.6112  -5.6111  -5.6107  -5.6106  -5.6094
    -1.4444  -0.9843  -0.7393  -0.6530  -0.4294  -0.2124  -0.1621   0.0630
     0.0717   0.3003   4.8652   5.1816   5.5493   8.3166

     occupation numbers 
     1.0000   1.0000   1.0000   1.0000   1.0000   1.0000   1.0000   1.0000
     1.0000   1.0000   1.0000   1.0000   1.0000   1.0000   1.0000   1.0000
     1.0000   1.0000   1.0000   1.0000   1.0000   1.0000   1.0000   0.9986
     0.9974   0.0253   0.0000   0.0000   0.0000   0.0000

          k = 0.1250 0.3750 0.3750 ( 16256 PWs)   bands (ev):

  -124.7438 -78.9060 -78.9060 -78.9060 -26.7384 -12.6258 -12.6026 -12.4524
   -10.3717 -10.1000 -10.0957  -5.6111  -5.6109  -5.6108  -5.6101  -5.6094
    -1.4852  -1.0430  -0.7179  -0.7101  -0.3490  -0.3213  -0.1218  -0.0164
     0.1754   0.2182   4.9690   5.3004   5.4127   8.6168

     occupation numbers 
     1.0000   1.0000   1.0000   1.0000   1.0000   1.0000   1.0000   1.0000
     1.0000   1.0000   1.0000   1.0000   1.0000   1.0000   1.0000   1.0000
     1.0000   1.0000   1.0000   1.0000   1.0000   1.0000   1.0000   1.0000
     0.7398   0.4026   0.0000   0.0000   0.0000   0.0000

          k = 0.1250 0.3750-0.5000 ( 16254 PWs)   bands (ev):

  -124.7438 -78.9060 -78.9060 -78.9060 -26.7382 -12.6392 -12.6140 -12.4549
   -10.3714 -10.0977 -10.0435  -5.6110  -5.6110  -5.6108  -5.6100  -5.6092
    -1.5093  -1.1079  -0.7365  -0.6984  -0.3666  -0.2434  -0.1799  -0.0466
     0.1786   0.2188   5.1160   5.1607   5.4062   8.6382

     occupation numbers 
     1.0000   1.0000   1.0000   1.0000   1.0000   1.0000   1.0000   1.0000
     1.0000   1.0000   1.0000   1.0000   1.0000   1.0000   1.0000   1.0000
     1.0000   1.0000   1.0000   1.0000   1.0000   1.0000   1.0000   1.0000
     0.7175   0.3979   0.0000   0.0000   0.0000   0.0000

          k = 0.1250-0.5000-0.5000 ( 16288 PWs)   bands (ev):

  -124.7438 -78.9061 -78.9061 -78.9060 -26.7381 -12.6388 -12.6388 -12.4579
   -10.3711 -10.0433 -10.0433  -5.6111  -5.6111  -5.6108  -5.6099  -5.6092
    -1.5375  -1.1628  -0.7210  -0.7210  -0.3666  -0.1666  -0.1661  -0.1661
     0.1315   0.2627   5.2295   5.2295   5.2713   8.7076

     occupation numbers 
     1.0000   1.0000   1.0000   1.0000   1.0000   1.0000   1.0000   1.0000
     1.0000   1.0000   1.0000   1.0000   1.0000   1.0000   1.0000   1.0000
     1.0000   1.0000   1.0000   1.0000   1.0000   1.0000   1.0000   1.0000
     0.9401   0.1205   0.0000   0.0000   0.0000   0.0000

          k = 0.2500 0.2500 0.2500 ( 16257 PWs)   bands (ev):

  -124.7438 -78.9060 -78.9060 -78.9060 -26.7386 -12.6018 -12.5080 -12.5080
   -10.2419 -10.2276 -10.2276  -5.6110  -5.6110  -5.6106  -5.6099  -5.6099
    -1.3843  -0.8128  -0.7975  -0.7975  -0.3526  -0.3526   0.0334   0.0776
     0.0776   0.2198   4.7994   5.5694   5.5694   8.3031

     occupation numbers 
     1.0000   1.0000   1.0000   1.0000   1.0000   1.0000   1.0000   1.0000
     1.0000   1.0000   1.0000   1.0000   1.0000   1.0000   1.0000   1.0000
     1.0000   1.0000   1.0000   1.0000   1.0000   1.0000   0.9998   0.9963
     0.9963   0.3898   0.0000   0.0000   0.0000   0.0000

          k = 0.2500 0.2500 0.3750 ( 16276 PWs)   bands (ev):

  -124.7438 -78.9061 -78.9060 -78.9060 -26.7384 -12.6217 -12.5594 -12.5072
   -10.2369 -10.2271 -10.0977  -5.6109  -5.6108  -5.6107  -5.6102  -5.6095
    -1.4071  -1.0032  -0.8781  -0.7953  -0.3565  -0.2997   0.0189   0.0673
     0.0997   0.1791   4.8831   5.3800   5.6452   8.4021

     occupation numbers 
     1.0000   1.0000   1.0000   1.0000   1.0000   1.0000   1.0000   1.0000
     1.0000   1.0000   1.0000   1.0000   1.0000   1.0000   1.0000   1.0000
     1.0000   1.0000   1.0000   1.0000   1.0000   1.0000   1.0000   0.9981
     0.9866   0.7143   0.0000   0.0000   0.0000   0.0000

          k = 0.2500 0.2500-0.5000 ( 16268 PWs)   bands (ev):

  -124.7438 -78.9060 -78.9060 -78.9060 -26.7382 -12.6393 -12.5695 -12.5068
   -10.2366 -10.2269 -10.0435  -5.6107  -5.6106  -5.6105  -5.6105  -5.6093
    -1.4114  -1.0954  -0.9094  -0.7833  -0.3554  -0.2649  -0.0252   0.0740
     0.1112   0.1666   5.0655   5.1502   5.6742   8.4029

     occupation numbers 
     1.0000   1.0000   1.0000   1.0000   1.0000   1.0000   1.0000   1.0000
     1.0000   1.0000   1.0000   1.0000   1.0000   1.0000   1.0000   1.0000
     1.0000   1.0000   1.0000   1.0000   1.0000   1.0000   1.0000   0.9970
     0.9760   0.7957   0.0000   0.0000   0.0000   0.0000

          k = 0.2500 0.3750 0.3750 ( 16237 PWs)   bands (ev):

  -124.7438 -78.9060 -78.9059 -78.9059 -26.7381 -12.6252 -12.6017 -12.5315
   -10.2316 -10.0995 -10.0952  -5.6106  -5.6105  -5.6103  -5.6099  -5.6093
    -1.4067  -1.1432  -0.9211  -0.9034  -0.3406  -0.3022   0.0242   0.0564
     0.0879   0.1792   5.0394   5.4620   5.6057   8.4468

     occupation numbers 
     1.0000   1.0000   1.0000   1.0000   1.0000   1.0000   1.0000   1.0000
     1.0000   1.0000   1.0000   1.0000   1.0000   1.0000   1.0000   1.0000
     1.0000   1.0000   1.0000   1.0000   1.0000   1.0000   0.9999   0.9991
     0.9931   0.7133   0.0000   0.0000   0.0000   0.0000

          k = 0.2500 0.3750-0.5000 ( 16246 PWs)   bands (ev):

  -124.7438 -78.9060 -78.9060 -78.9059 -26.7380 -12.6383 -12.6135 -12.5339
   -10.2313 -10.0972 -10.0431  -5.6106  -5.6105  -5.6100  -5.6100  -5.6092
    -1.4081  -1.2155  -0.9575  -0.9005  -0.3489  -0.2826  -0.0320   0.0677
     0.0695   0.2169   5.2551   5.3025   5.6287   8.4178

     occupation numbers 
     1.0000   1.0000   1.0000   1.0000   1.0000   1.0000   1.0000   1.0000
     1.0000   1.0000   1.0000   1.0000   1.0000   1.0000   1.0000   1.0000
     1.0000   1.0000   1.0000   1.0000   1.0000   1.0000   1.0000   0.9980
     0.9978   0.4133   0.0000   0.0000   0.0000   0.0000

          k = 0.2500-0.5000-0.5000 ( 16204 PWs)   bands (ev):

  -124.7438 -78.9059 -78.9059 -78.9058 -26.7379 -12.6378 -12.6378 -12.5371
   -10.2310 -10.0429 -10.0429  -5.6104  -5.6104  -5.6099  -5.6097  -5.6090
    -1.4186  -1.2689  -0.9472  -0.9472  -0.3645  -0.2640  -0.0935   0.0632
     0.0632   0.2642   5.4159   5.4159   5.4824   8.3286

     occupation numbers 
     1.0000   1.0000   1.0000   1.0000   1.0000   1.0000   1.0000   1.0000
     1.0000   1.0000   1.0000   1.0000   1.0000   1.0000   1.0000   1.0000
     1.0000   1.0000   1.0000   1.0000   1.0000   1.0000   1.0000   0.9985
     0.9985   0.1144   0.0000   0.0000   0.0000   0.0000

          k = 0.3750 0.3750 0.3750 ( 16254 PWs)   bands (ev):

  -124.7438 -78.9060 -78.9060 -78.9059 -26.7378 -12.6268 -12.6008 -12.6008
   -10.1016 -10.0948 -10.0948  -5.6102  -5.6102  -5.6101  -5.6093  -5.6093
    -1.3413  -1.2461  -1.0382  -1.0382  -0.3356  -0.3356  -0.1539   0.1652
     0.1652   0.1956   5.2425   5.6562   5.6562   8.3056

     occupation numbers 
     1.0000   1.0000   1.0000   1.0000   1.0000   1.0000   1.0000   1.0000
     1.0000   1.0000   1.0000   1.0000   1.0000   1.0000   1.0000   1.0000
     1.0000   1.0000   1.0000   1.0000   1.0000   1.0000   1.0000   0.8035
     0.8035   0.5882   0.0000   0.0000   0.0000   0.0000

          k = 0.3750 0.3750-0.5000 ( 16252 PWs)   bands (ev):

  -124.7438 -78.9060 -78.9060 -78.9059 -26.7377 -12.6373 -12.6177 -12.6004
   -10.0992 -10.0946 -10.0427  -5.6101  -5.6100  -5.6100  -5.6094  -5.6091
    -1.3382  -1.2891  -1.0859  -1.0447  -0.3483  -0.3338  -0.2468   0.1763
     0.1991   0.2279   5.4607   5.5366   5.7502   8.2645

     occupation numbers 
     1.0000   1.0000   1.0000   1.0000   1.0000   1.0000   1.0000   1.0000
     1.0000   1.0000   1.0000   1.0000   1.0000   1.0000   1.0000   1.0000
     1.0000   1.0000   1.0000   1.0000   1.0000   1.0000   1.0000   0.7340
     0.5593   0.3266   0.0000   0.0000   0.0000   0.0000

          k = 0.3750-0.5000-0.5000 ( 16304 PWs)   bands (ev):

  -124.7438 -78.9061 -78.9061 -78.9061 -26.7376 -12.6369 -12.6369 -12.6087
   -10.0967 -10.0425 -10.0425  -5.6100  -5.6100  -5.6098  -5.6093  -5.6091
    -1.3931  -1.2521  -1.0967  -1.0967  -0.3623  -0.3588  -0.3371   0.2142
     0.2142   0.2657   5.6554   5.6554   5.6928   8.0678

     occupation numbers 
     1.0000   1.0000   1.0000   1.0000   1.0000   1.0000   1.0000   1.0000
     1.0000   1.0000   1.0000   1.0000   1.0000   1.0000   1.0000   1.0000
     1.0000   1.0000   1.0000   1.0000   1.0000   1.0000   1.0000   0.4351
     0.4351   0.1085   0.0000   0.0000   0.0000   0.0000

          k =-0.5000-0.5000-0.5000 ( 16368 PWs)   bands (ev):

  -124.7438 -78.9063 -78.9063 -78.9063 -26.7375 -12.6365 -12.6365 -12.6365
   -10.0423 -10.0423 -10.0423  -5.6098  -5.6098  -5.6098  -5.6091  -5.6091
    -1.4491  -1.1488  -1.1488  -1.1488  -0.5011  -0.3614  -0.3614   0.2663
     0.2663   0.2663   5.7805   5.7805   5.7805   7.9772

     occupation numbers 
     1.0000   1.0000   1.0000   1.0000   1.0000   1.0000   1.0000   1.0000
     1.0000   1.0000   1.0000   1.0000   1.0000   1.0000   1.0000   1.0000
     1.0000   1.0000   1.0000   1.0000   1.0000   1.0000   1.0000   0.1061
     0.1061   0.1061   0.0000   0.0000   0.0000   0.0000

     the Fermi energy is     0.2063 ev

!    total energy              =   -1276.09716656 Ry
     total all-electron energy =    -20435.243173 Ry
     estimated scf accuracy    <          2.4E-09 Ry
     smearing contrib. (-TS)   =      -0.00291328 Ry
     internal energy E=F+TS    =   -1276.09425328 Ry

     The total energy is F=E-TS. E is the sum of the following terms:
     one-electron contribution =    -551.59896280 Ry
     hartree contribution      =     288.45406035 Ry
     xc contribution           =     -78.99283598 Ry
     ewald contribution        =    -250.64956412 Ry
     one-center paw contrib.   =    -683.30695074 Ry
      -> PAW hartree energy AE =      37.76142991 Ry
      -> PAW hartree energy PS =     -37.54885891 Ry
      -> PAW xc energy AE      =     -66.23309777 Ry
      -> PAW xc energy PS      =      10.59974447 Ry
      -> total E_H with PAW    =     288.66663135 Ry
      -> total E_XC with PAW   =    -134.62618928 Ry

     convergence has been achieved in  13 iterations

     Writing all to output data dir ./tmp/kznbr3.save/ :
     XML data file, charge density, pseudopotentials, collected wavefunctions

     init_run     :      9.64s CPU      9.45s WALL (       1 calls)
     electrons    :    326.44s CPU    305.26s WALL (       1 calls)

     Called by init_run:
     wfcinit      :      6.12s CPU      5.70s WALL (       1 calls)
     wfcinit:atom :      0.12s CPU      0.06s WALL (       9 calls)
     wfcinit:wfcr :      5.21s CPU      5.27s WALL (       9 calls)
     potinit      :      0.99s CPU      1.10s WALL (       1 calls)
     hinit0       :      1.15s CPU      1.18s WALL (       1 calls)

     Called by electrons:
     c_bands      :    253.39s CPU    238.20s WALL (      13 calls)
     sum_band     :     50.43s CPU     43.07s WALL (      13 calls)
     v_of_rho     :      5.26s CPU      5.51s WALL (      14 calls)
     v_h          :      0.37s CPU      0.41s WALL (      14 calls)
     v_xc         :      4.89s CPU      5.10s WALL (      14 calls)
     newd         :     15.27s CPU     16.55s WALL (      14 calls)
     PAW_pot      :      1.93s CPU      1.96s WALL (      14 calls)
     mix_rho      :      0.54s CPU      0.51s WALL (      13 calls)

     Called by c_bands:
     init_us_2    :      4.22s CPU      3.18s WALL (     243 calls)
     cegterg      :    197.79s CPU    183.03s WALL (     117 calls)

     Called by sum_band:
     sum_band:wei :      0.07s CPU      0.04s WALL (      13 calls)
     sum_band:loo :     28.92s CPU     22.66s WALL (      13 calls)
     sum_band:buf :      0.31s CPU      0.23s WALL (     117 calls)
     sum_band:ini :      2.01s CPU      1.47s WALL (     117 calls)
     sum_band:cal :      1.87s CPU      1.01s WALL (     117 calls)
     sum_band:bec :      0.01s CPU      0.01s WALL (     117 calls)
     addusdens    :     18.15s CPU     17.82s WALL (      13 calls)
                                        0.00s GPU  (      13 calls)
     addusd:skk   :      0.02s CPU      0.04s WALL (      39 calls)
                                        0.00s GPU  (      39 calls)

     Called by *egterg:
     cdiaghg      :     15.50s CPU     15.81s WALL (     472 calls)
     cegterg:over :     23.19s CPU     17.21s WALL (     355 calls)
     cegterg:upda :      7.35s CPU      6.37s WALL (     355 calls)
     cegterg:last :      8.18s CPU      5.31s WALL (     199 calls)
     h_psi        :    112.96s CPU    116.95s WALL (     481 calls)
     s_psi        :      6.56s CPU      4.62s WALL (     481 calls)
     g_psi        :      0.66s CPU      0.35s WALL (     355 calls)

     Called by h_psi:
     h_psi:calbec :     16.01s CPU     18.03s WALL (     481 calls)
     vloc_psi     :     87.16s CPU     90.59s WALL (     481 calls)
     add_vuspsi   :      9.20s CPU      7.94s WALL (     481 calls)

     General routines
     calbec       :     17.86s CPU     19.03s WALL (     598 calls)
     fft          :      3.61s CPU      3.76s WALL (     180 calls)
     ffts         :      0.40s CPU      0.39s WALL (      27 calls)
     fftw         :     83.29s CPU     84.07s WALL (   19568 calls)
     interpolate  :      0.67s CPU      0.70s WALL (      14 calls)

     Parallel routines

     PAW routines
     PAW_pot      :      1.93s CPU      1.96s WALL (      14 calls)
     PAW_symme    :      0.02s CPU      0.02s WALL (      27 calls)

     PWSCF        :   5m36.64s CPU   5m15.40s WALL


   This run was terminated on:  13:27: 1  30Apr2025            

=------------------------------------------------------------------------------=
   JOB DONE.
=------------------------------------------------------------------------------=
