
     Program PWSCF v.7.3.1 starts on  1May2025 at 21:19:59 

     This program is part of the open-source Quantum ESPRESSO suite
     for quantum simulation of materials; please cite
         "P. Giannozzi et al., J. Phys.:Condens. Matter 21 395502 (2009);
         "P. Giannozzi et al., J. Phys.:Condens. Matter 29 465901 (2017);
         "P. Giannozzi et al., J. Chem. Phys. 152 154105 (2020);
          URL http://www.quantum-espresso.org", 
     in publications or presentations arising from this work. More details at
     http://www.quantum-espresso.org/quote

     Parallel version (MPI), running on     8 processors

     MPI processes distributed on     1 nodes
     47167 MiB available memory on the printing compute node when the environment starts

     Waiting for input...
     Reading input from standard input

     Current dimensions of program PWSCF are:
     Max number of different atomic species (ntypx) = 10
     Max number of k-points (npk) = 120000
     Max angular momentum in pseudopotentials (lmaxx) =  4
     file Rb.pbe-spn-kjpaw_psl.1.0.0.UPF: wavefunction(s)  4S renormalized
     file Fe.pbe-spn-kjpaw_psl.1.0.0.UPF: wavefunction(s)  3P 3D renormalized
     file Br.pbe-n-kjpaw_psl.1.0.0.UPF: wavefunction(s)  4S 4P renormalized

     IMPORTANT: XC functional enforced from input :
     Exchange-correlation= PBE
                           (   1   4   3   4   0   0   0)
     Any further DFT definition will be discarded
     Please, verify this is what you really want

     Message from routine setup:
     using ibrav=0 with symmetry is DISCOURAGED, use correct ibrav instead

     K-points division:     npool     =       4
     R & G space division:  proc/nbgrp/npool/nimage =       2
     Subspace diagonalization in iterative solution of the eigenvalue problem:
     a serial algorithm will be used


     Parallelization info
     --------------------
     sticks:   dense  smooth     PW     G-vecs:    dense   smooth      PW
     Min        2318    1156    332               118742    41942    6278
     Max        2319    1157    333               118747    41945    6279
     Sum        4637    2313    665               237489    83887   12557

     Using Slab Decomposition



     bravais-lattice index     =            0
     lattice parameter (alat)  =       9.5407  a.u.
     unit-cell volume          =     868.4528 (a.u.)^3
     number of atoms/cell      =            5
     number of atomic types    =            3
     number of electrons       =        46.00
     number of Kohn-Sham states=           28
     kinetic-energy cutoff     =      80.0000  Ry
     charge density cutoff     =     640.0000  Ry
     scf convergence threshold =      1.0E-08
     mixing beta               =       0.4000
     number of iterations used =            8  plain     mixing
     energy convergence thresh.=      1.0E-04
     force convergence thresh. =      1.0E-03
     press convergence thresh. =      5.0E-01
     Exchange-correlation= PBE
                           (   1   4   3   4   0   0   0)
     nstep                     =           50


     celldm(1)=   9.540740  celldm(2)=   0.000000  celldm(3)=   0.000000
     celldm(4)=   0.000000  celldm(5)=   0.000000  celldm(6)=   0.000000

     crystal axes: (cart. coord. in units of alat)
               a(1) = (   1.000000   0.000000   0.000000 )  
               a(2) = (   0.000000   1.000000   0.000000 )  
               a(3) = (   0.000000   0.000000   1.000000 )  

     reciprocal axes: (cart. coord. in units 2 pi/alat)
               b(1) = (  1.000000  0.000000  0.000000 )  
               b(2) = (  0.000000  1.000000  0.000000 )  
               b(3) = (  0.000000  0.000000  1.000000 )  


     PseudoPot. # 1 for Rb read from file:
     /home/administrator/Downloads/BURAI/BURAI1.3/pseudopot/Rb.pbe-spn-kjpaw_psl.1.0.0.UPF
     MD5 check sum: 2771e311bc20ea25cdd5c0a9866b789c
     Pseudo is Projector augmented-wave + core cor, Zval =  9.0
     Generated using "atomic" code by A. Dal Corso  v.5.1.2
     Shape of augmentation charge: PSQ
     Using radial grid of 1219 points,  6 beta functions with: 
                l(1) =   0
                l(2) =   0
                l(3) =   1
                l(4) =   1
                l(5) =   2
                l(6) =   2
     Q(r) pseudized with 0 coefficients 


     PseudoPot. # 2 for Fe read from file:
     /home/administrator/Downloads/BURAI/BURAI1.3/pseudopot/Fe.pbe-spn-kjpaw_psl.1.0.0.UPF
     MD5 check sum: 04029f3f376fc501f927dd43ca5e13d6
     Pseudo is Projector augmented-wave + core cor, Zval = 16.0
     Generated using "atomic" code by A. Dal Corso  v.5.1.2
     Shape of augmentation charge: PSQ
     Using radial grid of 1191 points,  6 beta functions with: 
                l(1) =   0
                l(2) =   0
                l(3) =   1
                l(4) =   1
                l(5) =   2
                l(6) =   2
     Q(r) pseudized with 0 coefficients 


     PseudoPot. # 3 for Br read from file:
     /home/administrator/Downloads/BURAI/BURAI1.3/pseudopot/Br.pbe-n-kjpaw_psl.1.0.0.UPF
     MD5 check sum: 4e719ecb11afb5eb9a83625d9f5c08f4
     Pseudo is Projector augmented-wave + core cor, Zval =  7.0
     Generated using "atomic" code by A. Dal Corso  v.5.1.2
     Shape of augmentation charge: PSQ
     Using radial grid of 1213 points,  4 beta functions with: 
                l(1) =   0
                l(2) =   0
                l(3) =   1
                l(4) =   1
     Q(r) pseudized with 0 coefficients 


     atomic species   valence    mass     pseudopotential
     Rb                9.00    85.46780     Rb( 1.00)
     Fe               16.00    55.84500     Fe( 1.00)
     Br                7.00    79.90400     Br( 1.00)

     48 Sym. Ops., with inversion, found


                                    s                        frac. trans.

      isym =  1     identity                                     

 cryst.   s( 1) = (     1          0          0      )
                  (     0          1          0      )
                  (     0          0          1      )

 cart.    s( 1) = (  1.0000000  0.0000000  0.0000000 )
                  (  0.0000000  1.0000000  0.0000000 )
                  (  0.0000000  0.0000000  1.0000000 )


      isym =  2     180 deg rotation - cart. axis [0,0,1]        

 cryst.   s( 2) = (    -1          0          0      )
                  (     0         -1          0      )
                  (     0          0          1      )

 cart.    s( 2) = ( -1.0000000  0.0000000  0.0000000 )
                  (  0.0000000 -1.0000000  0.0000000 )
                  (  0.0000000  0.0000000  1.0000000 )


      isym =  3     180 deg rotation - cart. axis [0,1,0]        

 cryst.   s( 3) = (    -1          0          0      )
                  (     0          1          0      )
                  (     0          0         -1      )

 cart.    s( 3) = ( -1.0000000  0.0000000  0.0000000 )
                  (  0.0000000  1.0000000  0.0000000 )
                  (  0.0000000  0.0000000 -1.0000000 )


      isym =  4     180 deg rotation - cart. axis [1,0,0]        

 cryst.   s( 4) = (     1          0          0      )
                  (     0         -1          0      )
                  (     0          0         -1      )

 cart.    s( 4) = (  1.0000000  0.0000000  0.0000000 )
                  (  0.0000000 -1.0000000  0.0000000 )
                  (  0.0000000  0.0000000 -1.0000000 )


      isym =  5     180 deg rotation - cart. axis [1,1,0]        

 cryst.   s( 5) = (     0          1          0      )
                  (     1          0          0      )
                  (     0          0         -1      )

 cart.    s( 5) = (  0.0000000  1.0000000  0.0000000 )
                  (  1.0000000  0.0000000  0.0000000 )
                  (  0.0000000  0.0000000 -1.0000000 )


      isym =  6     180 deg rotation - cart. axis [1,-1,0]       

 cryst.   s( 6) = (     0         -1          0      )
                  (    -1          0          0      )
                  (     0          0         -1      )

 cart.    s( 6) = (  0.0000000 -1.0000000  0.0000000 )
                  ( -1.0000000  0.0000000  0.0000000 )
                  (  0.0000000  0.0000000 -1.0000000 )


      isym =  7      90 deg rotation - cart. axis [0,0,-1]       

 cryst.   s( 7) = (     0         -1          0      )
                  (     1          0          0      )
                  (     0          0          1      )

 cart.    s( 7) = (  0.0000000  1.0000000  0.0000000 )
                  ( -1.0000000  0.0000000  0.0000000 )
                  (  0.0000000  0.0000000  1.0000000 )


      isym =  8      90 deg rotation - cart. axis [0,0,1]        

 cryst.   s( 8) = (     0          1          0      )
                  (    -1          0          0      )
                  (     0          0          1      )

 cart.    s( 8) = (  0.0000000 -1.0000000  0.0000000 )
                  (  1.0000000  0.0000000  0.0000000 )
                  (  0.0000000  0.0000000  1.0000000 )


      isym =  9     180 deg rotation - cart. axis [1,0,1]        

 cryst.   s( 9) = (     0          0          1      )
                  (     0         -1          0      )
                  (     1          0          0      )

 cart.    s( 9) = (  0.0000000  0.0000000  1.0000000 )
                  (  0.0000000 -1.0000000  0.0000000 )
                  (  1.0000000  0.0000000  0.0000000 )


      isym = 10     180 deg rotation - cart. axis [-1,0,1]       

 cryst.   s(10) = (     0          0         -1      )
                  (     0         -1          0      )
                  (    -1          0          0      )

 cart.    s(10) = (  0.0000000  0.0000000 -1.0000000 )
                  (  0.0000000 -1.0000000  0.0000000 )
                  ( -1.0000000  0.0000000  0.0000000 )


      isym = 11      90 deg rotation - cart. axis [0,1,0]        

 cryst.   s(11) = (     0          0         -1      )
                  (     0          1          0      )
                  (     1          0          0      )

 cart.    s(11) = (  0.0000000  0.0000000  1.0000000 )
                  (  0.0000000  1.0000000  0.0000000 )
                  ( -1.0000000  0.0000000  0.0000000 )


      isym = 12      90 deg rotation - cart. axis [0,-1,0]       

 cryst.   s(12) = (     0          0          1      )
                  (     0          1          0      )
                  (    -1          0          0      )

 cart.    s(12) = (  0.0000000  0.0000000 -1.0000000 )
                  (  0.0000000  1.0000000  0.0000000 )
                  (  1.0000000  0.0000000  0.0000000 )


      isym = 13     180 deg rotation - cart. axis [0,1,1]        

 cryst.   s(13) = (    -1          0          0      )
                  (     0          0          1      )
                  (     0          1          0      )

 cart.    s(13) = ( -1.0000000  0.0000000  0.0000000 )
                  (  0.0000000  0.0000000  1.0000000 )
                  (  0.0000000  1.0000000  0.0000000 )


      isym = 14     180 deg rotation - cart. axis [0,1,-1]       

 cryst.   s(14) = (    -1          0          0      )
                  (     0          0         -1      )
                  (     0         -1          0      )

 cart.    s(14) = ( -1.0000000  0.0000000  0.0000000 )
                  (  0.0000000  0.0000000 -1.0000000 )
                  (  0.0000000 -1.0000000  0.0000000 )


      isym = 15      90 deg rotation - cart. axis [-1,0,0]       

 cryst.   s(15) = (     1          0          0      )
                  (     0          0         -1      )
                  (     0          1          0      )

 cart.    s(15) = (  1.0000000  0.0000000  0.0000000 )
                  (  0.0000000  0.0000000  1.0000000 )
                  (  0.0000000 -1.0000000  0.0000000 )


      isym = 16      90 deg rotation - cart. axis [1,0,0]        

 cryst.   s(16) = (     1          0          0      )
                  (     0          0          1      )
                  (     0         -1          0      )

 cart.    s(16) = (  1.0000000  0.0000000  0.0000000 )
                  (  0.0000000  0.0000000 -1.0000000 )
                  (  0.0000000  1.0000000  0.0000000 )


      isym = 17     120 deg rotation - cart. axis [-1,-1,-1]     

 cryst.   s(17) = (     0          0          1      )
                  (     1          0          0      )
                  (     0          1          0      )

 cart.    s(17) = (  0.0000000  1.0000000  0.0000000 )
                  (  0.0000000  0.0000000  1.0000000 )
                  (  1.0000000  0.0000000  0.0000000 )


      isym = 18     120 deg rotation - cart. axis [-1,1,1]       

 cryst.   s(18) = (     0          0         -1      )
                  (    -1          0          0      )
                  (     0          1          0      )

 cart.    s(18) = (  0.0000000 -1.0000000  0.0000000 )
                  (  0.0000000  0.0000000  1.0000000 )
                  ( -1.0000000  0.0000000  0.0000000 )


      isym = 19     120 deg rotation - cart. axis [1,1,-1]       

 cryst.   s(19) = (     0          0         -1      )
                  (     1          0          0      )
                  (     0         -1          0      )

 cart.    s(19) = (  0.0000000  1.0000000  0.0000000 )
                  (  0.0000000  0.0000000 -1.0000000 )
                  ( -1.0000000  0.0000000  0.0000000 )


      isym = 20     120 deg rotation - cart. axis [1,-1,1]       

 cryst.   s(20) = (     0          0          1      )
                  (    -1          0          0      )
                  (     0         -1          0      )

 cart.    s(20) = (  0.0000000 -1.0000000  0.0000000 )
                  (  0.0000000  0.0000000 -1.0000000 )
                  (  1.0000000  0.0000000  0.0000000 )


      isym = 21     120 deg rotation - cart. axis [1,1,1]        

 cryst.   s(21) = (     0          1          0      )
                  (     0          0          1      )
                  (     1          0          0      )

 cart.    s(21) = (  0.0000000  0.0000000  1.0000000 )
                  (  1.0000000  0.0000000  0.0000000 )
                  (  0.0000000  1.0000000  0.0000000 )


      isym = 22     120 deg rotation - cart. axis [-1,1,-1]      

 cryst.   s(22) = (     0         -1          0      )
                  (     0          0         -1      )
                  (     1          0          0      )

 cart.    s(22) = (  0.0000000  0.0000000  1.0000000 )
                  ( -1.0000000  0.0000000  0.0000000 )
                  (  0.0000000 -1.0000000  0.0000000 )


      isym = 23     120 deg rotation - cart. axis [1,-1,-1]      

 cryst.   s(23) = (     0         -1          0      )
                  (     0          0          1      )
                  (    -1          0          0      )

 cart.    s(23) = (  0.0000000  0.0000000 -1.0000000 )
                  ( -1.0000000  0.0000000  0.0000000 )
                  (  0.0000000  1.0000000  0.0000000 )


      isym = 24     120 deg rotation - cart. axis [-1,-1,1]      

 cryst.   s(24) = (     0          1          0      )
                  (     0          0         -1      )
                  (    -1          0          0      )

 cart.    s(24) = (  0.0000000  0.0000000 -1.0000000 )
                  (  1.0000000  0.0000000  0.0000000 )
                  (  0.0000000 -1.0000000  0.0000000 )


      isym = 25     inversion                                    

 cryst.   s(25) = (    -1          0          0      )
                  (     0         -1          0      )
                  (     0          0         -1      )

 cart.    s(25) = ( -1.0000000  0.0000000  0.0000000 )
                  (  0.0000000 -1.0000000  0.0000000 )
                  (  0.0000000  0.0000000 -1.0000000 )


      isym = 26     inv. 180 deg rotation - cart. axis [0,0,1]   

 cryst.   s(26) = (     1          0          0      )
                  (     0          1          0      )
                  (     0          0         -1      )

 cart.    s(26) = (  1.0000000  0.0000000  0.0000000 )
                  (  0.0000000  1.0000000  0.0000000 )
                  (  0.0000000  0.0000000 -1.0000000 )


      isym = 27     inv. 180 deg rotation - cart. axis [0,1,0]   

 cryst.   s(27) = (     1          0          0      )
                  (     0         -1          0      )
                  (     0          0          1      )

 cart.    s(27) = (  1.0000000  0.0000000  0.0000000 )
                  (  0.0000000 -1.0000000  0.0000000 )
                  (  0.0000000  0.0000000  1.0000000 )


      isym = 28     inv. 180 deg rotation - cart. axis [1,0,0]   

 cryst.   s(28) = (    -1          0          0      )
                  (     0          1          0      )
                  (     0          0          1      )

 cart.    s(28) = ( -1.0000000  0.0000000  0.0000000 )
                  (  0.0000000  1.0000000  0.0000000 )
                  (  0.0000000  0.0000000  1.0000000 )


      isym = 29     inv. 180 deg rotation - cart. axis [1,1,0]   

 cryst.   s(29) = (     0         -1          0      )
                  (    -1          0          0      )
                  (     0          0          1      )

 cart.    s(29) = (  0.0000000 -1.0000000  0.0000000 )
                  ( -1.0000000  0.0000000  0.0000000 )
                  (  0.0000000  0.0000000  1.0000000 )


      isym = 30     inv. 180 deg rotation - cart. axis [1,-1,0]  

 cryst.   s(30) = (     0          1          0      )
                  (     1          0          0      )
                  (     0          0          1      )

 cart.    s(30) = (  0.0000000  1.0000000  0.0000000 )
                  (  1.0000000  0.0000000  0.0000000 )
                  (  0.0000000  0.0000000  1.0000000 )


      isym = 31     inv.  90 deg rotation - cart. axis [0,0,-1]  

 cryst.   s(31) = (     0          1          0      )
                  (    -1          0          0      )
                  (     0          0         -1      )

 cart.    s(31) = (  0.0000000 -1.0000000  0.0000000 )
                  (  1.0000000  0.0000000  0.0000000 )
                  (  0.0000000  0.0000000 -1.0000000 )


      isym = 32     inv.  90 deg rotation - cart. axis [0,0,1]   

 cryst.   s(32) = (     0         -1          0      )
                  (     1          0          0      )
                  (     0          0         -1      )

 cart.    s(32) = (  0.0000000  1.0000000  0.0000000 )
                  ( -1.0000000  0.0000000  0.0000000 )
                  (  0.0000000  0.0000000 -1.0000000 )


      isym = 33     inv. 180 deg rotation - cart. axis [1,0,1]   

 cryst.   s(33) = (     0          0         -1      )
                  (     0          1          0      )
                  (    -1          0          0      )

 cart.    s(33) = (  0.0000000  0.0000000 -1.0000000 )
                  (  0.0000000  1.0000000  0.0000000 )
                  ( -1.0000000  0.0000000  0.0000000 )


      isym = 34     inv. 180 deg rotation - cart. axis [-1,0,1]  

 cryst.   s(34) = (     0          0          1      )
                  (     0          1          0      )
                  (     1          0          0      )

 cart.    s(34) = (  0.0000000  0.0000000  1.0000000 )
                  (  0.0000000  1.0000000  0.0000000 )
                  (  1.0000000  0.0000000  0.0000000 )


      isym = 35     inv.  90 deg rotation - cart. axis [0,1,0]   

 cryst.   s(35) = (     0          0          1      )
                  (     0         -1          0      )
                  (    -1          0          0      )

 cart.    s(35) = (  0.0000000  0.0000000 -1.0000000 )
                  (  0.0000000 -1.0000000  0.0000000 )
                  (  1.0000000  0.0000000  0.0000000 )


      isym = 36     inv.  90 deg rotation - cart. axis [0,-1,0]  

 cryst.   s(36) = (     0          0         -1      )
                  (     0         -1          0      )
                  (     1          0          0      )

 cart.    s(36) = (  0.0000000  0.0000000  1.0000000 )
                  (  0.0000000 -1.0000000  0.0000000 )
                  ( -1.0000000  0.0000000  0.0000000 )


      isym = 37     inv. 180 deg rotation - cart. axis [0,1,1]   

 cryst.   s(37) = (     1          0          0      )
                  (     0          0         -1      )
                  (     0         -1          0      )

 cart.    s(37) = (  1.0000000  0.0000000  0.0000000 )
                  (  0.0000000  0.0000000 -1.0000000 )
                  (  0.0000000 -1.0000000  0.0000000 )


      isym = 38     inv. 180 deg rotation - cart. axis [0,1,-1]  

 cryst.   s(38) = (     1          0          0      )
                  (     0          0          1      )
                  (     0          1          0      )

 cart.    s(38) = (  1.0000000  0.0000000  0.0000000 )
                  (  0.0000000  0.0000000  1.0000000 )
                  (  0.0000000  1.0000000  0.0000000 )


      isym = 39     inv.  90 deg rotation - cart. axis [-1,0,0]  

 cryst.   s(39) = (    -1          0          0      )
                  (     0          0          1      )
                  (     0         -1          0      )

 cart.    s(39) = ( -1.0000000  0.0000000  0.0000000 )
                  (  0.0000000  0.0000000 -1.0000000 )
                  (  0.0000000  1.0000000  0.0000000 )


      isym = 40     inv.  90 deg rotation - cart. axis [1,0,0]   

 cryst.   s(40) = (    -1          0          0      )
                  (     0          0         -1      )
                  (     0          1          0      )

 cart.    s(40) = ( -1.0000000  0.0000000  0.0000000 )
                  (  0.0000000  0.0000000  1.0000000 )
                  (  0.0000000 -1.0000000  0.0000000 )


      isym = 41     inv. 120 deg rotation - cart. axis [-1,-1,-1]

 cryst.   s(41) = (     0          0         -1      )
                  (    -1          0          0      )
                  (     0         -1          0      )

 cart.    s(41) = (  0.0000000 -1.0000000  0.0000000 )
                  (  0.0000000  0.0000000 -1.0000000 )
                  ( -1.0000000  0.0000000  0.0000000 )


      isym = 42     inv. 120 deg rotation - cart. axis [-1,1,1]  

 cryst.   s(42) = (     0          0          1      )
                  (     1          0          0      )
                  (     0         -1          0      )

 cart.    s(42) = (  0.0000000  1.0000000  0.0000000 )
                  (  0.0000000  0.0000000 -1.0000000 )
                  (  1.0000000  0.0000000  0.0000000 )


      isym = 43     inv. 120 deg rotation - cart. axis [1,1,-1]  

 cryst.   s(43) = (     0          0          1      )
                  (    -1          0          0      )
                  (     0          1          0      )

 cart.    s(43) = (  0.0000000 -1.0000000  0.0000000 )
                  (  0.0000000  0.0000000  1.0000000 )
                  (  1.0000000  0.0000000  0.0000000 )


      isym = 44     inv. 120 deg rotation - cart. axis [1,-1,1]  

 cryst.   s(44) = (     0          0         -1      )
                  (     1          0          0      )
                  (     0          1          0      )

 cart.    s(44) = (  0.0000000  1.0000000  0.0000000 )
                  (  0.0000000  0.0000000  1.0000000 )
                  ( -1.0000000  0.0000000  0.0000000 )


      isym = 45     inv. 120 deg rotation - cart. axis [1,1,1]   

 cryst.   s(45) = (     0         -1          0      )
                  (     0          0         -1      )
                  (    -1          0          0      )

 cart.    s(45) = (  0.0000000  0.0000000 -1.0000000 )
                  ( -1.0000000  0.0000000  0.0000000 )
                  (  0.0000000 -1.0000000  0.0000000 )


      isym = 46     inv. 120 deg rotation - cart. axis [-1,1,-1] 

 cryst.   s(46) = (     0          1          0      )
                  (     0          0          1      )
                  (    -1          0          0      )

 cart.    s(46) = (  0.0000000  0.0000000 -1.0000000 )
                  (  1.0000000  0.0000000  0.0000000 )
                  (  0.0000000  1.0000000  0.0000000 )


      isym = 47     inv. 120 deg rotation - cart. axis [1,-1,-1] 

 cryst.   s(47) = (     0          1          0      )
                  (     0          0         -1      )
                  (     1          0          0      )

 cart.    s(47) = (  0.0000000  0.0000000  1.0000000 )
                  (  1.0000000  0.0000000  0.0000000 )
                  (  0.0000000 -1.0000000  0.0000000 )


      isym = 48     inv. 120 deg rotation - cart. axis [-1,-1,1] 

 cryst.   s(48) = (     0         -1          0      )
                  (     0          0          1      )
                  (     1          0          0      )

 cart.    s(48) = (  0.0000000  0.0000000  1.0000000 )
                  ( -1.0000000  0.0000000  0.0000000 )
                  (  0.0000000  1.0000000  0.0000000 )


   Cartesian axes

     site n.     atom                  positions (alat units)
         1        Rb     tau(   1) = (   0.0000000   0.0000000   0.0000000  )
         2        Fe     tau(   2) = (   0.5000000   0.5000000   0.5000000  )
         3        Br     tau(   3) = (   0.5000000   0.0000000   0.0000000  )
         4        Br     tau(   4) = (   0.0000000   0.5000000   0.0000000  )
         5        Br     tau(   5) = (   0.0000000   0.0000000   0.5000000  )

   Crystallographic axes

     site n.     atom                  positions (cryst. coord.)
         1        Rb     tau(   1) = (  0.0000000  0.0000000  0.0000000  )
         2        Fe     tau(   2) = (  0.5000000  0.5000000  0.5000000  )
         3        Br     tau(   3) = (  0.5000000  0.0000000  0.0000000  )
         4        Br     tau(   4) = (  0.0000000  0.5000000  0.0000000  )
         5        Br     tau(   5) = (  0.0000000  0.0000000  0.5000000  )

     number of k points=    35  Gaussian smearing, width (Ry)=  0.0050
                       cart. coord. in units 2pi/alat
        k(    1) = (   0.0000000   0.0000000   0.0000000), wk =   0.0039062
        k(    2) = (   0.0000000   0.0000000   0.1250000), wk =   0.0234375
        k(    3) = (   0.0000000   0.0000000   0.2500000), wk =   0.0234375
        k(    4) = (   0.0000000   0.0000000   0.3750000), wk =   0.0234375
        k(    5) = (   0.0000000   0.0000000  -0.5000000), wk =   0.0117188
        k(    6) = (   0.0000000   0.1250000   0.1250000), wk =   0.0468750
        k(    7) = (   0.0000000   0.1250000   0.2500000), wk =   0.0937500
        k(    8) = (   0.0000000   0.1250000   0.3750000), wk =   0.0937500
        k(    9) = (   0.0000000   0.1250000  -0.5000000), wk =   0.0468750
        k(   10) = (   0.0000000   0.2500000   0.2500000), wk =   0.0468750
        k(   11) = (   0.0000000   0.2500000   0.3750000), wk =   0.0937500
        k(   12) = (   0.0000000   0.2500000  -0.5000000), wk =   0.0468750
        k(   13) = (   0.0000000   0.3750000   0.3750000), wk =   0.0468750
        k(   14) = (   0.0000000   0.3750000  -0.5000000), wk =   0.0468750
        k(   15) = (   0.0000000  -0.5000000  -0.5000000), wk =   0.0117188
        k(   16) = (   0.1250000   0.1250000   0.1250000), wk =   0.0312500
        k(   17) = (   0.1250000   0.1250000   0.2500000), wk =   0.0937500
        k(   18) = (   0.1250000   0.1250000   0.3750000), wk =   0.0937500
        k(   19) = (   0.1250000   0.1250000  -0.5000000), wk =   0.0468750
        k(   20) = (   0.1250000   0.2500000   0.2500000), wk =   0.0937500
        k(   21) = (   0.1250000   0.2500000   0.3750000), wk =   0.1875000
        k(   22) = (   0.1250000   0.2500000  -0.5000000), wk =   0.0937500
        k(   23) = (   0.1250000   0.3750000   0.3750000), wk =   0.0937500
        k(   24) = (   0.1250000   0.3750000  -0.5000000), wk =   0.0937500
        k(   25) = (   0.1250000  -0.5000000  -0.5000000), wk =   0.0234375
        k(   26) = (   0.2500000   0.2500000   0.2500000), wk =   0.0312500
        k(   27) = (   0.2500000   0.2500000   0.3750000), wk =   0.0937500
        k(   28) = (   0.2500000   0.2500000  -0.5000000), wk =   0.0468750
        k(   29) = (   0.2500000   0.3750000   0.3750000), wk =   0.0937500
        k(   30) = (   0.2500000   0.3750000  -0.5000000), wk =   0.0937500
        k(   31) = (   0.2500000  -0.5000000  -0.5000000), wk =   0.0234375
        k(   32) = (   0.3750000   0.3750000   0.3750000), wk =   0.0312500
        k(   33) = (   0.3750000   0.3750000  -0.5000000), wk =   0.0468750
        k(   34) = (   0.3750000  -0.5000000  -0.5000000), wk =   0.0234375
        k(   35) = (  -0.5000000  -0.5000000  -0.5000000), wk =   0.0039062

                       cryst. coord.
        k(    1) = (   0.0000000   0.0000000   0.0000000), wk =   0.0039062
        k(    2) = (   0.0000000   0.0000000   0.1250000), wk =   0.0234375
        k(    3) = (   0.0000000   0.0000000   0.2500000), wk =   0.0234375
        k(    4) = (   0.0000000   0.0000000   0.3750000), wk =   0.0234375
        k(    5) = (   0.0000000   0.0000000  -0.5000000), wk =   0.0117188
        k(    6) = (   0.0000000   0.1250000   0.1250000), wk =   0.0468750
        k(    7) = (   0.0000000   0.1250000   0.2500000), wk =   0.0937500
        k(    8) = (   0.0000000   0.1250000   0.3750000), wk =   0.0937500
        k(    9) = (   0.0000000   0.1250000  -0.5000000), wk =   0.0468750
        k(   10) = (   0.0000000   0.2500000   0.2500000), wk =   0.0468750
        k(   11) = (   0.0000000   0.2500000   0.3750000), wk =   0.0937500
        k(   12) = (   0.0000000   0.2500000  -0.5000000), wk =   0.0468750
        k(   13) = (   0.0000000   0.3750000   0.3750000), wk =   0.0468750
        k(   14) = (   0.0000000   0.3750000  -0.5000000), wk =   0.0468750
        k(   15) = (   0.0000000  -0.5000000  -0.5000000), wk =   0.0117188
        k(   16) = (   0.1250000   0.1250000   0.1250000), wk =   0.0312500
        k(   17) = (   0.1250000   0.1250000   0.2500000), wk =   0.0937500
        k(   18) = (   0.1250000   0.1250000   0.3750000), wk =   0.0937500
        k(   19) = (   0.1250000   0.1250000  -0.5000000), wk =   0.0468750
        k(   20) = (   0.1250000   0.2500000   0.2500000), wk =   0.0937500
        k(   21) = (   0.1250000   0.2500000   0.3750000), wk =   0.1875000
        k(   22) = (   0.1250000   0.2500000  -0.5000000), wk =   0.0937500
        k(   23) = (   0.1250000   0.3750000   0.3750000), wk =   0.0937500
        k(   24) = (   0.1250000   0.3750000  -0.5000000), wk =   0.0937500
        k(   25) = (   0.1250000  -0.5000000  -0.5000000), wk =   0.0234375
        k(   26) = (   0.2500000   0.2500000   0.2500000), wk =   0.0312500
        k(   27) = (   0.2500000   0.2500000   0.3750000), wk =   0.0937500
        k(   28) = (   0.2500000   0.2500000  -0.5000000), wk =   0.0468750
        k(   29) = (   0.2500000   0.3750000   0.3750000), wk =   0.0937500
        k(   30) = (   0.2500000   0.3750000  -0.5000000), wk =   0.0937500
        k(   31) = (   0.2500000  -0.5000000  -0.5000000), wk =   0.0234375
        k(   32) = (   0.3750000   0.3750000   0.3750000), wk =   0.0312500
        k(   33) = (   0.3750000   0.3750000  -0.5000000), wk =   0.0468750
        k(   34) = (   0.3750000  -0.5000000  -0.5000000), wk =   0.0234375
        k(   35) = (  -0.5000000  -0.5000000  -0.5000000), wk =   0.0039062

     Dense  grid:   237489 G-vectors     FFT dimensions: (  80,  80,  80)

     Smooth grid:    83887 G-vectors     FFT dimensions: (  60,  60,  60)

     Dynamical RAM for                 wfc:       2.24 MB

     Dynamical RAM for     wfc (w. buffer):      22.42 MB

     Dynamical RAM for           str. fact:       5.44 MB

     Dynamical RAM for           local pot:       0.00 MB

     Dynamical RAM for          nlocal pot:       4.80 MB

     Dynamical RAM for                qrad:      12.18 MB

     Dynamical RAM for          rho,v,vnew:      11.30 MB

     Dynamical RAM for               rhoin:       3.77 MB

     Dynamical RAM for            rho*nmix:      28.99 MB

     Dynamical RAM for           G-vectors:       7.11 MB

     Dynamical RAM for          h,s,v(r/c):       0.14 MB

     Dynamical RAM for          <psi|beta>:       0.03 MB

     Dynamical RAM for                 psi:       4.48 MB

     Dynamical RAM for                hpsi:       4.48 MB

     Dynamical RAM for                spsi:       4.48 MB

     Dynamical RAM for      wfcinit/wfcrot:       4.82 MB

     Dynamical RAM for           addusdens:      86.97 MB

     Dynamical RAM for          addusforce:      88.34 MB

     Dynamical RAM for         addusstress:      91.73 MB

     Estimated static dynamical RAM per process >      84.02 MB

     Estimated max dynamical RAM per process >     204.74 MB

     Estimated total dynamical RAM >       1.43 GB

     Initial potential from superposition of free atoms

     starting charge      45.9766, renormalised to      46.0000
     Starting wfcs are   30 randomized atomic wfcs
     Checking if some PAW data can be deallocated... 
       PAW data deallocated on    6 nodes for type:  1
       PAW data deallocated on    6 nodes for type:  2
       PAW data deallocated on    4 nodes for type:  3

     total cpu time spent up to now is        9.3 secs

     Self-consistent Calculation

     iteration #  1     ecut=    80.00 Ry     beta= 0.40
     Davidson diagonalization with overlap

---- Real-time Memory Report at c_bands before calling an iterative solver
           174 MiB given to the printing process from OS
             0 MiB allocation reported by mallinfo(arena+hblkhd)
         45914 MiB available memory on the node where the printing process lives
------------------
     ethr =  1.00E-02,  avg # of iterations =  4.5

     Threshold (ethr) on eigenvalues was too large:
     Diagonalizing with lowered threshold

     Davidson diagonalization with overlap

---- Real-time Memory Report at c_bands before calling an iterative solver
           213 MiB given to the printing process from OS
             0 MiB allocation reported by mallinfo(arena+hblkhd)
         45808 MiB available memory on the node where the printing process lives
------------------
     ethr =  6.96E-04,  avg # of iterations =  2.0

     total cpu time spent up to now is       47.7 secs

     total energy              =   -1181.58155544 Ry
     estimated scf accuracy    <       0.29285109 Ry

     iteration #  2     ecut=    80.00 Ry     beta= 0.40
     Davidson diagonalization with overlap

---- Real-time Memory Report at c_bands before calling an iterative solver
           240 MiB given to the printing process from OS
             0 MiB allocation reported by mallinfo(arena+hblkhd)
         45295 MiB available memory on the node where the printing process lives
------------------
     ethr =  6.37E-04,  avg # of iterations =  3.6

     total cpu time spent up to now is       69.8 secs

     total energy              =   -1181.49178953 Ry
     estimated scf accuracy    <       1.52316351 Ry

     iteration #  3     ecut=    80.00 Ry     beta= 0.40
     Davidson diagonalization with overlap

---- Real-time Memory Report at c_bands before calling an iterative solver
           242 MiB given to the printing process from OS
             0 MiB allocation reported by mallinfo(arena+hblkhd)
         45334 MiB available memory on the node where the printing process lives
------------------
     ethr =  6.37E-04,  avg # of iterations =  2.9

     total cpu time spent up to now is       89.5 secs

     total energy              =   -1181.55537426 Ry
     estimated scf accuracy    <       1.96778047 Ry

     iteration #  4     ecut=    80.00 Ry     beta= 0.40
     Davidson diagonalization with overlap

---- Real-time Memory Report at c_bands before calling an iterative solver
           243 MiB given to the printing process from OS
             0 MiB allocation reported by mallinfo(arena+hblkhd)
         45474 MiB available memory on the node where the printing process lives
------------------
     ethr =  6.37E-04,  avg # of iterations =  1.4

     total cpu time spent up to now is      104.9 secs

     total energy              =   -1181.63892815 Ry
     estimated scf accuracy    <       0.47297461 Ry

     iteration #  5     ecut=    80.00 Ry     beta= 0.40
     Davidson diagonalization with overlap

---- Real-time Memory Report at c_bands before calling an iterative solver
           244 MiB given to the printing process from OS
             0 MiB allocation reported by mallinfo(arena+hblkhd)
         45283 MiB available memory on the node where the printing process lives
------------------
     ethr =  6.37E-04,  avg # of iterations =  1.0

     total cpu time spent up to now is      119.2 secs

     total energy              =   -1181.64861705 Ry
     estimated scf accuracy    <       0.00801394 Ry

     iteration #  6     ecut=    80.00 Ry     beta= 0.40
     Davidson diagonalization with overlap

---- Real-time Memory Report at c_bands before calling an iterative solver
           246 MiB given to the printing process from OS
             0 MiB allocation reported by mallinfo(arena+hblkhd)
         45530 MiB available memory on the node where the printing process lives
------------------
     ethr =  1.74E-05,  avg # of iterations =  4.4

     total cpu time spent up to now is      141.3 secs

     total energy              =   -1181.64850461 Ry
     estimated scf accuracy    <       0.00317588 Ry

     iteration #  7     ecut=    80.00 Ry     beta= 0.40
     Davidson diagonalization with overlap

---- Real-time Memory Report at c_bands before calling an iterative solver
           247 MiB given to the printing process from OS
             0 MiB allocation reported by mallinfo(arena+hblkhd)
         45404 MiB available memory on the node where the printing process lives
------------------
     ethr =  6.90E-06,  avg # of iterations =  2.0

     total cpu time spent up to now is      157.9 secs

     total energy              =   -1181.64871325 Ry
     estimated scf accuracy    <       0.00003832 Ry

     iteration #  8     ecut=    80.00 Ry     beta= 0.40
     Davidson diagonalization with overlap

---- Real-time Memory Report at c_bands before calling an iterative solver
           249 MiB given to the printing process from OS
             0 MiB allocation reported by mallinfo(arena+hblkhd)
         45499 MiB available memory on the node where the printing process lives
------------------
     ethr =  8.33E-08,  avg # of iterations =  4.3

     total cpu time spent up to now is      183.1 secs

     total energy              =   -1181.64872664 Ry
     estimated scf accuracy    <       0.00012159 Ry

     iteration #  9     ecut=    80.00 Ry     beta= 0.40
     Davidson diagonalization with overlap

---- Real-time Memory Report at c_bands before calling an iterative solver
           250 MiB given to the printing process from OS
             0 MiB allocation reported by mallinfo(arena+hblkhd)
         45342 MiB available memory on the node where the printing process lives
------------------
     ethr =  8.33E-08,  avg # of iterations =  2.0

     total cpu time spent up to now is      200.0 secs

     total energy              =   -1181.64873204 Ry
     estimated scf accuracy    <       0.00000286 Ry

     iteration # 10     ecut=    80.00 Ry     beta= 0.40
     Davidson diagonalization with overlap

---- Real-time Memory Report at c_bands before calling an iterative solver
           251 MiB given to the printing process from OS
             0 MiB allocation reported by mallinfo(arena+hblkhd)
         45308 MiB available memory on the node where the printing process lives
------------------
     ethr =  6.21E-09,  avg # of iterations =  4.2

     total cpu time spent up to now is      224.6 secs

     total energy              =   -1181.64873247 Ry
     estimated scf accuracy    <       0.00001183 Ry

     iteration # 11     ecut=    80.00 Ry     beta= 0.40
     Davidson diagonalization with overlap

---- Real-time Memory Report at c_bands before calling an iterative solver
           251 MiB given to the printing process from OS
             0 MiB allocation reported by mallinfo(arena+hblkhd)
         45353 MiB available memory on the node where the printing process lives
------------------
     ethr =  6.21E-09,  avg # of iterations =  2.0

     total cpu time spent up to now is      242.1 secs

     total energy              =   -1181.64873299 Ry
     estimated scf accuracy    <       0.00000054 Ry

     iteration # 12     ecut=    80.00 Ry     beta= 0.40
     Davidson diagonalization with overlap

---- Real-time Memory Report at c_bands before calling an iterative solver
           251 MiB given to the printing process from OS
             0 MiB allocation reported by mallinfo(arena+hblkhd)
         45297 MiB available memory on the node where the printing process lives
------------------
     ethr =  1.18E-09,  avg # of iterations =  1.3

     total cpu time spent up to now is      257.1 secs

     total energy              =   -1181.64873297 Ry
     estimated scf accuracy    <       0.00000031 Ry

     iteration # 13     ecut=    80.00 Ry     beta= 0.40
     Davidson diagonalization with overlap

---- Real-time Memory Report at c_bands before calling an iterative solver
           251 MiB given to the printing process from OS
             0 MiB allocation reported by mallinfo(arena+hblkhd)
         45377 MiB available memory on the node where the printing process lives
------------------
     ethr =  6.68E-10,  avg # of iterations =  2.1

     total cpu time spent up to now is      274.3 secs

     total energy              =   -1181.64873298 Ry
     estimated scf accuracy    <       0.00000003 Ry

     iteration # 14     ecut=    80.00 Ry     beta= 0.40
     Davidson diagonalization with overlap

---- Real-time Memory Report at c_bands before calling an iterative solver
           251 MiB given to the printing process from OS
             0 MiB allocation reported by mallinfo(arena+hblkhd)
         45388 MiB available memory on the node where the printing process lives
------------------
     ethr =  5.50E-11,  avg # of iterations =  2.3

     total cpu time spent up to now is      293.2 secs

     End of self-consistent calculation

          k = 0.0000 0.0000 0.0000 ( 10443 PWs)   bands (ev):

   -79.8926 -46.0522 -46.0522 -46.0522 -19.5404  -8.6690  -8.4841  -8.4841
    -5.0334  -5.0334  -5.0334   3.3679   3.3679   3.3679   3.8994   3.8994
     3.8994   5.8290   5.8290   5.8619   5.8619   5.8619   5.9455   6.4084
     6.4084   6.4084  10.7520  10.7520

     occupation numbers 
     1.0000   1.0000   1.0000   1.0000   1.0000   1.0000   1.0000   1.0000
     1.0000   1.0000   1.0000   1.0000   1.0000   1.0000   1.0000   1.0000
     1.0000   1.0000   1.0000   0.9999   0.9999   0.9999   0.9792   0.0000
     0.0000   0.0000   0.0000   0.0000

          k = 0.0000 0.0000 0.1250 ( 10519 PWs)   bands (ev):

   -79.8926 -46.0524 -46.0523 -46.0523 -19.5362  -8.7562  -8.5665  -8.4825
    -5.0274  -5.0274  -4.6915   3.2176   3.3470   3.3470   3.8251   3.8285
     3.8285   5.7989   5.8486   5.8645   5.8786   5.9007   5.9007   6.2760
     6.4055   6.4055  10.7744  10.9938

     occupation numbers 
     1.0000   1.0000   1.0000   1.0000   1.0000   1.0000   1.0000   1.0000
     1.0000   1.0000   1.0000   1.0000   1.0000   1.0000   1.0000   1.0000
     1.0000   1.0000   1.0000   0.9999   0.9997   0.9985   0.9985   0.0000
     0.0000   0.0000   0.0000   0.0000

          k = 0.0000 0.0000 0.2500 ( 10495 PWs)   bands (ev):

   -79.8926 -46.0523 -46.0523 -46.0523 -19.5261  -9.0626  -8.5933  -8.4784
    -5.0129  -5.0129  -3.8811   2.9249   3.2803   3.2803   3.6633   3.6896
     3.6896   4.6122   5.8711   5.8802   5.9813   5.9896   5.9896   6.4016
     6.4016   6.8858  10.8316  10.9585

     occupation numbers 
     1.0000   1.0000   1.0000   1.0000   1.0000   1.0000   1.0000   1.0000
     1.0000   1.0000   1.0000   1.0000   1.0000   1.0000   1.0000   1.0000
     1.0000   1.0000   0.9998   0.9997   0.9019   0.8682   0.8682   0.0000
     0.0000   0.0000   0.0000   0.0000

          k = 0.0000 0.0000 0.3750 ( 10491 PWs)   bands (ev):

   -79.8926 -46.0523 -46.0523 -46.0523 -19.5159  -9.3315  -8.5924  -8.4743
    -4.9981  -4.9981  -2.9989   2.6914   3.1871   3.1871   3.3982   3.5198
     3.5952   3.5952   5.8777   5.9164   6.0656   6.0734   6.0734   6.4016
     6.4016   7.6302  10.0616  10.8936

     occupation numbers 
     1.0000   1.0000   1.0000   1.0000   1.0000   1.0000   1.0000   1.0000
     1.0000   1.0000   1.0000   1.0000   1.0000   1.0000   1.0000   1.0000
     1.0000   1.0000   0.9997   0.9959   0.3222   0.2665   0.2665   0.0000
     0.0000   0.0000   0.0000   0.0000

          k = 0.0000 0.0000-0.5000 ( 10516 PWs)   bands (ev):

   -79.8926 -46.0523 -46.0523 -46.0523 -19.5116  -9.4313  -8.5908  -8.4726
    -4.9920  -4.9920  -2.5745   2.6107   2.8457   3.1418   3.1418   3.4645
     3.5670   3.5670   5.8803   5.9315   6.0965   6.1068   6.1068   6.4029
     6.4029   8.0866   9.5550  10.9210

     occupation numbers 
     1.0000   1.0000   1.0000   1.0000   1.0000   1.0000   1.0000   1.0000
     1.0000   1.0000   1.0000   1.0000   1.0000   1.0000   1.0000   1.0000
     1.0000   1.0000   0.9997   0.9900   0.1351   0.0938   0.0938   0.0000
     0.0000   0.0000   0.0000   0.0000

          k = 0.0000 0.1250 0.1250 ( 10505 PWs)   bands (ev):

   -79.8926 -46.0523 -46.0523 -46.0523 -19.5320  -8.7864  -8.6678  -8.5183
    -5.0214  -4.6959  -4.6758   2.9865   3.3299   3.4000   3.6469   3.7580
     3.9484   5.7442   5.8555   5.8849   5.8857   5.8944   5.9180   5.9765
     6.4017   6.5064  10.9503  11.1515

     occupation numbers 
     1.0000   1.0000   1.0000   1.0000   1.0000   1.0000   1.0000   1.0000
     1.0000   1.0000   1.0000   1.0000   1.0000   1.0000   1.0000   1.0000
     1.0000   1.0000   1.0000   0.9995   0.9995   0.9990   0.9954   0.9179
     0.0000   0.0000   0.0000   0.0000

          k = 0.0000 0.1250 0.2500 ( 10507 PWs)   bands (ev):

   -79.8926 -46.0523 -46.0523 -46.0523 -19.5219  -9.0604  -8.7194  -8.5208
    -5.0069  -4.6725  -3.8759   2.6477   3.2724   3.3228   3.5255   3.6181
     3.9552   4.6173   5.8031   5.8979   5.8999   5.9642   5.9937   6.0482
     6.3954   7.0411  10.9411  11.0507

     occupation numbers 
     1.0000   1.0000   1.0000   1.0000   1.0000   1.0000   1.0000   1.0000
     1.0000   1.0000   1.0000   1.0000   1.0000   1.0000   1.0000   1.0000
     1.0000   1.0000   1.0000   0.9988   0.9986   0.9503   0.8496   0.4608
     0.0000   0.0000   0.0000   0.0000

          k = 0.0000 0.1250 0.3750 ( 10509 PWs)   bands (ev):

   -79.8926 -46.0523 -46.0523 -46.0523 -19.5117  -9.3284  -8.7177  -8.5174
    -4.9922  -4.6585  -2.9944   2.3952   3.1606   3.1845   3.4047   3.5160
     3.5245   3.8992   5.8134   5.9079   5.9276   6.0424   6.0727   6.1031
     6.3932   7.6766  10.1807  11.1395

     occupation numbers 
     1.0000   1.0000   1.0000   1.0000   1.0000   1.0000   1.0000   1.0000
     1.0000   1.0000   1.0000   1.0000   1.0000   1.0000   1.0000   1.0000
     1.0000   1.0000   1.0000   0.9976   0.9920   0.5087   0.2717   0.1075
     0.0000   0.0000   0.0000   0.0000

          k = 0.0000 0.1250-0.5000 ( 10500 PWs)   bands (ev):

   -79.8926 -46.0523 -46.0523 -46.0523 -19.5074  -9.4282  -8.7159  -8.5158
    -4.9860  -4.6527  -2.5704   2.3050   2.8484   3.1062   3.1400   3.4979
     3.5178   3.8642   5.8176   5.9112   5.9411   6.0820   6.1048   6.1166
     6.3937   8.0264   9.7928  11.5043

     occupation numbers 
     1.0000   1.0000   1.0000   1.0000   1.0000   1.0000   1.0000   1.0000
     1.0000   1.0000   1.0000   1.0000   1.0000   1.0000   1.0000   1.0000
     1.0000   1.0000   1.0000   0.9970   0.9833   0.2116   0.1011   0.0642
     0.0000   0.0000   0.0000   0.0000

          k = 0.0000 0.2500 0.2500 ( 10467 PWs)   bands (ev):

   -79.8926 -46.0523 -46.0523 -46.0522 -19.5118  -9.0753  -9.0236  -8.5278
    -4.9924  -3.8844  -3.8438   2.2440   3.2428   3.3466   3.3694   3.4665
     4.2186   4.5551   4.7047   5.8998   5.9575   5.9655   6.0172   6.0573
     6.3833   7.3909  10.7492  11.5710

     occupation numbers 
     1.0000   1.0000   1.0000   1.0000   1.0000   1.0000   1.0000   1.0000
     1.0000   1.0000   1.0000   1.0000   1.0000   1.0000   1.0000   1.0000
     1.0000   1.0000   1.0000   0.9986   0.9630   0.9474   0.7075   0.3865
     0.0000   0.0000   0.0000   0.0000

          k = 0.0000 0.2500 0.3750 ( 10502 PWs)   bands (ev):

   -79.8926 -46.0523 -46.0523 -46.0523 -19.5016  -9.3210  -9.0420  -8.5253
    -4.9777  -3.8521  -2.9834   1.9576   3.1776   3.1977   3.3633   3.3849
     3.4210   4.3551   4.6395   5.9325   5.9831   6.0062   6.0606   6.0745
     6.3751   7.7444  10.4835  11.4457

     occupation numbers 
     1.0000   1.0000   1.0000   1.0000   1.0000   1.0000   1.0000   1.0000
     1.0000   1.0000   1.0000   1.0000   1.0000   1.0000   1.0000   1.0000
     1.0000   1.0000   1.0000   0.9895   0.8950   0.7808   0.3609   0.2594
     0.0000   0.0000   0.0000   0.0000

          k = 0.0000 0.2500-0.5000 ( 10500 PWs)   bands (ev):

   -79.8926 -46.0523 -46.0523 -46.0523 -19.4973  -9.4205  -9.0398  -8.5238
    -4.9716  -3.8468  -2.5601   1.8562   2.8529   3.1357   3.1591   3.3387
     3.4019   4.3888   4.6355   5.9622   5.9890   6.0205   6.0536   6.1035
     6.3731   7.8948  10.3790  11.3859

     occupation numbers 
     1.0000   1.0000   1.0000   1.0000   1.0000   1.0000   1.0000   1.0000
     1.0000   1.0000   1.0000   1.0000   1.0000   1.0000   1.0000   1.0000
     1.0000   1.0000   1.0000   0.9544   0.8713   0.6831   0.4167   0.1061
     0.0000   0.0000   0.0000   0.0000

          k = 0.0000 0.3750 0.3750 ( 10487 PWs)   bands (ev):

   -79.8926 -46.0523 -46.0523 -46.0523 -19.4914  -9.3193  -9.3064  -8.5233
    -4.9631  -2.9851  -2.9604   1.6522   3.1617   3.2169   3.2215   3.2749
     3.3430   3.5419   4.6463   5.9267   6.0075   6.0435   6.0561   6.0862
     6.3593   7.7777  10.7246  10.8182

     occupation numbers 
     1.0000   1.0000   1.0000   1.0000   1.0000   1.0000   1.0000   1.0000
     1.0000   1.0000   1.0000   1.0000   1.0000   1.0000   1.0000   1.0000
     1.0000   1.0000   1.0000   0.9924   0.7725   0.4997   0.3962   0.1869
     0.0000   0.0000   0.0000   0.0000

          k = 0.0000 0.3750-0.5000 ( 10496 PWs)   bands (ev):

   -79.8926 -46.0523 -46.0523 -46.0523 -19.4871  -9.4128  -9.3097  -8.5220
    -4.9570  -2.9682  -2.5497   1.5449   2.8397   3.1314   3.1891   3.2302
     3.2751   3.4687   4.7336   5.9533   5.9593   6.0625   6.0727   6.1067
     6.3534   7.7863  11.0130  11.3155

     occupation numbers 
     1.0000   1.0000   1.0000   1.0000   1.0000   1.0000   1.0000   1.0000
     1.0000   1.0000   1.0000   1.0000   1.0000   1.0000   1.0000   1.0000
     1.0000   1.0000   1.0000   0.9696   0.9598   0.3459   0.2714   0.0941
     0.0000   0.0000   0.0000   0.0000

          k = 0.0000-0.5000-0.5000 ( 10488 PWs)   bands (ev):

   -79.8926 -46.0523 -46.0523 -46.0523 -19.4829  -9.4096  -9.4096  -8.5207
    -4.9509  -2.5453  -2.5453   1.4357   2.7327   3.0041   3.1297   3.1297
     3.2621   3.2621   4.8452   5.9373   5.9382   6.0804   6.1094   6.1094
     6.3453   7.7498  10.4474  11.2980

     occupation numbers 
     1.0000   1.0000   1.0000   1.0000   1.0000   1.0000   1.0000   1.0000
     1.0000   1.0000   1.0000   1.0000   1.0000   1.0000   1.0000   1.0000
     1.0000   1.0000   1.0000   0.9863   0.9857   0.2211   0.0852   0.0852
     0.0000   0.0000   0.0000   0.0000

          k = 0.1250 0.1250 0.1250 ( 10515 PWs)   bands (ev):

   -79.8926 -46.0523 -46.0523 -46.0523 -19.5279  -8.8076  -8.6658  -8.6658
    -4.7004  -4.6702  -4.6702   2.8547   3.2451   3.2451   3.7172   3.7172
     4.0309   5.7120   5.8294   5.8294   5.9056   5.9056   5.9544   5.9851
     5.9851   6.6904  10.8920  11.2992

     occupation numbers 
     1.0000   1.0000   1.0000   1.0000   1.0000   1.0000   1.0000   1.0000
     1.0000   1.0000   1.0000   1.0000   1.0000   1.0000   1.0000   1.0000
     1.0000   1.0000   1.0000   1.0000   0.9979   0.9979   0.9679   0.8875
     0.8875   0.0000   0.0000   0.0000

          k = 0.1250 0.1250 0.2500 ( 10501 PWs)   bands (ev):

   -79.8926 -46.0523 -46.0523 -46.0523 -19.5177  -9.0582  -8.7469  -8.6610
    -4.6773  -4.6566  -3.8707   2.5530   2.9568   3.2084   3.7024   3.7168
     4.0589   4.6222   5.7722   5.8272   5.8856   5.9530   5.9601   6.0272
     6.0718   7.1538  10.5951  11.4837

     occupation numbers 
     1.0000   1.0000   1.0000   1.0000   1.0000   1.0000   1.0000   1.0000
     1.0000   1.0000   1.0000   1.0000   1.0000   1.0000   1.0000   1.0000
     1.0000   1.0000   1.0000   1.0000   0.9995   0.9700   0.9585   0.6318
     0.2774   0.0000   0.0000   0.0000

          k = 0.1250 0.1250 0.3750 ( 10491 PWs)   bands (ev):

   -79.8926 -46.0523 -46.0523 -46.0523 -19.5075  -9.3254  -8.7467  -8.6562
    -4.6631  -4.6428  -2.9899   2.3074   2.7306   3.2044   3.3866   3.6804
     3.7090   4.0077   5.7898   5.8353   5.9073   5.9656   6.0268   6.0722
     6.1237   7.6808  10.1637  11.1618

     occupation numbers 
     1.0000   1.0000   1.0000   1.0000   1.0000   1.0000   1.0000   1.0000
     1.0000   1.0000   1.0000   1.0000   1.0000   1.0000   1.0000   1.0000
     1.0000   1.0000   1.0000   1.0000   0.9977   0.9472   0.6352   0.2751
     0.0475   0.0000   0.0000   0.0000

          k = 0.1250 0.1250-0.5000 ( 10498 PWs)   bands (ev):

   -79.8926 -46.0523 -46.0523 -46.0523 -19.5033  -9.4251  -8.7450  -8.6542
    -4.6573  -4.6370  -2.5662   2.2181   2.6475   2.8512   3.2066   3.6342
     3.7170   3.9731   5.7976   5.8386   5.9132   5.9718   6.0685   6.0933
     6.1336   7.9329   9.9614  11.0169

     occupation numbers 
     1.0000   1.0000   1.0000   1.0000   1.0000   1.0000   1.0000   1.0000
     1.0000   1.0000   1.0000   1.0000   1.0000   1.0000   1.0000   1.0000
     1.0000   1.0000   1.0000   1.0000   0.9966   0.9317   0.3013   0.1499
     0.0305   0.0000   0.0000   0.0000

          k = 0.1250 0.2500 0.2500 ( 10504 PWs)   bands (ev):

   -79.8926 -46.0523 -46.0523 -46.0523 -19.5076  -9.0733  -9.0212  -8.6967
    -4.6536  -3.8790  -3.8388   2.2413   2.8191   2.9384   3.7406   3.8285
     4.2550   4.5618   4.7071   5.8017   5.9039   5.9238   5.9776   6.0654
     6.0868   7.4204  10.2544  11.5823

     occupation numbers 
     1.0000   1.0000   1.0000   1.0000   1.0000   1.0000   1.0000   1.0000
     1.0000   1.0000   1.0000   1.0000   1.0000   1.0000   1.0000   1.0000
     1.0000   1.0000   1.0000   1.0000   0.9981   0.9936   0.9145   0.3236
     0.1837   0.0000   0.0000   0.0000

          k = 0.1250 0.2500 0.3750 ( 10494 PWs)   bands (ev):

   -79.8926 -46.0523 -46.0523 -46.0523 -19.4974  -9.3181  -9.0400  -8.6938
    -4.6397  -3.8470  -2.9790   1.9716   2.6309   2.8961   3.3915   3.7665
     3.8319   4.3740   4.6441   5.8134   5.9276   5.9633   6.0142   6.0594
     6.1103   7.6470  10.2170  11.1833

     occupation numbers 
     1.0000   1.0000   1.0000   1.0000   1.0000   1.0000   1.0000   1.0000
     1.0000   1.0000   1.0000   1.0000   1.0000   1.0000   1.0000   1.0000
     1.0000   1.0000   1.0000   1.0000   0.9920   0.9521   0.7285   0.3699
     0.0824   0.0000   0.0000   0.0000

          k = 0.1250 0.2500-0.5000 ( 10490 PWs)   bands (ev):

   -79.8926 -46.0523 -46.0523 -46.0523 -19.4932  -9.4176  -9.0378  -8.6921
    -4.6339  -3.8417  -2.5560   1.8735   2.5501   2.8560   2.8997   3.7744
     3.8028   4.4044   4.6404   5.8198   5.9374   6.0124   6.0187   6.0487
     6.1138   7.7135  10.4461  10.7759

     occupation numbers 
     1.0000   1.0000   1.0000   1.0000   1.0000   1.0000   1.0000   1.0000
     1.0000   1.0000   1.0000   1.0000   1.0000   1.0000   1.0000   1.0000
     1.0000   1.0000   1.0000   1.0000   0.9863   0.7404   0.6961   0.4563
     0.0719   0.0000   0.0000   0.0000

          k = 0.1250 0.3750 0.3750 ( 10495 PWs)   bands (ev):

   -79.8926 -46.0523 -46.0523 -46.0523 -19.4872  -9.3166  -9.3037  -8.6915
    -4.6258  -2.9807  -2.9561   1.6809   2.6343   2.6866   3.3011   3.5054
     3.8017   3.8612   4.6578   5.8167   5.9281   5.9902   6.0047   6.0740
     6.1024   7.5556  10.4612  11.4332

     occupation numbers 
     1.0000   1.0000   1.0000   1.0000   1.0000   1.0000   1.0000   1.0000
     1.0000   1.0000   1.0000   1.0000   1.0000   1.0000   1.0000   1.0000
     1.0000   1.0000   1.0000   1.0000   0.9918   0.8656   0.7897   0.2624
     0.1103   0.0000   0.0000   0.0000

          k = 0.1250 0.3750-0.5000 ( 10490 PWs)   bands (ev):

   -79.8926 -46.0523 -46.0523 -46.0523 -19.4830  -9.4100  -9.3071  -8.6899
    -4.6201  -2.9638  -2.5457   1.5762   2.5780   2.6756   2.8442   3.4318
     3.8130   3.8413   4.7457   5.8186   5.9536   5.9548   6.0270   6.0851
     6.0979   7.5032  10.7786  11.0538

     occupation numbers 
     1.0000   1.0000   1.0000   1.0000   1.0000   1.0000   1.0000   1.0000
     1.0000   1.0000   1.0000   1.0000   1.0000   1.0000   1.0000   1.0000
     1.0000   1.0000   1.0000   1.0000   0.9692   0.9673   0.6339   0.1930
     0.1287   0.0000   0.0000   0.0000

          k = 0.1250-0.5000-0.5000 ( 10488 PWs)   bands (ev):

   -79.8926 -46.0523 -46.0523 -46.0523 -19.4787  -9.4069  -9.4069  -8.6883
    -4.6143  -2.5413  -2.5413   1.4695   2.5954   2.5954   2.7381   3.0069
     3.8269   3.8269   4.8591   5.8162   5.9369   5.9407   6.0636   6.0908
     6.0908   7.4182  10.8729  11.3543

     occupation numbers 
     1.0000   1.0000   1.0000   1.0000   1.0000   1.0000   1.0000   1.0000
     1.0000   1.0000   1.0000   1.0000   1.0000   1.0000   1.0000   1.0000
     1.0000   1.0000   1.0000   1.0000   0.9866   0.9836   0.3377   0.1626
     0.1626   0.0000   0.0000   0.0000

          k = 0.2500 0.2500 0.2500 ( 10510 PWs)   bands (ev):

   -79.8926 -46.0523 -46.0523 -46.0523 -19.4975  -9.0837  -9.0153  -9.0153
    -3.8880  -3.8268  -3.8268   2.1528   2.5192   2.5192   4.0322   4.0322
     4.3753   4.5116   4.7111   4.7111   5.9084   5.9084   5.9235   6.1073
     6.1073   7.4533   9.9490  11.8282

     occupation numbers 
     1.0000   1.0000   1.0000   1.0000   1.0000   1.0000   1.0000   1.0000
     1.0000   1.0000   1.0000   1.0000   1.0000   1.0000   1.0000   1.0000
     1.0000   1.0000   1.0000   1.0000   0.9975   0.9975   0.9937   0.0920
     0.0920   0.0000   0.0000   0.0000

          k = 0.2500 0.2500 0.3750 ( 10495 PWs)   bands (ev):

   -79.8926 -46.0523 -46.0523 -46.0523 -19.4873  -9.3112  -9.0531  -9.0095
    -3.8561  -3.8147  -2.9682   1.9480   2.2368   2.4800   3.3999   4.0955
     4.2096   4.4772   4.5953   4.7111   5.9192   5.9454   5.9552   6.0921
     6.1024   7.3831  10.1828  11.4047

     occupation numbers 
     1.0000   1.0000   1.0000   1.0000   1.0000   1.0000   1.0000   1.0000
     1.0000   1.0000   1.0000   1.0000   1.0000   1.0000   1.0000   1.0000
     1.0000   1.0000   1.0000   1.0000   0.9951   0.9792   0.9667   0.1560
     0.1102   0.0000   0.0000   0.0000

          k = 0.2500 0.2500-0.5000 ( 10500 PWs)   bands (ev):

   -79.8926 -46.0524 -46.0523 -46.0523 -19.4830  -9.4104  -9.0513  -9.0070
    -3.8506  -3.8096  -2.5461   1.8587   2.1376   2.4874   2.8632   4.1124
     4.2496   4.5053   4.5879   4.7098   5.9249   5.9822   6.0119   6.0652
     6.0672   7.3190  10.7573  10.7986

     occupation numbers 
     1.0000   1.0000   1.0000   1.0000   1.0000   1.0000   1.0000   1.0000
     1.0000   1.0000   1.0000   1.0000   1.0000   1.0000   1.0000   1.0000
     1.0000   1.0000   1.0000   1.0000   0.9932   0.8985   0.7442   0.3253
     0.3106   0.0000   0.0000   0.0000

          k = 0.2500 0.3750 0.3750 ( 10488 PWs)   bands (ev):

   -79.8926 -46.0523 -46.0523 -46.0523 -19.4771  -9.3099  -9.2973  -9.0249
    -3.8237  -2.9697  -2.9456   1.7505   2.1678   2.2180   3.3119   3.5172
     4.2751   4.3436   4.6573   4.6919   5.9232   5.9494   5.9514   6.0635
     6.0937   7.0911  10.5821  11.6722

     occupation numbers 
     1.0000   1.0000   1.0000   1.0000   1.0000   1.0000   1.0000   1.0000
     1.0000   1.0000   1.0000   1.0000   1.0000   1.0000   1.0000   1.0000
     1.0000   1.0000   1.0000   1.0000   0.9938   0.9747   0.9722   0.3381
     0.1479   0.0000   0.0000   0.0000

          k = 0.2500 0.3750-0.5000 ( 10492 PWs)   bands (ev):

   -79.8926 -46.0523 -46.0523 -46.0523 -19.4728  -9.4032  -9.3007  -9.0229
    -3.8184  -2.9532  -2.5359   1.6545   2.0930   2.2099   2.8528   3.4432
     4.3221   4.3679   4.6507   4.7783   5.9370   5.9460   5.9864   6.0400
     6.0668   6.9635  11.1307  11.2905

     occupation numbers 
     1.0000   1.0000   1.0000   1.0000   1.0000   1.0000   1.0000   1.0000
     1.0000   1.0000   1.0000   1.0000   1.0000   1.0000   1.0000   1.0000
     1.0000   1.0000   1.0000   1.0000   0.9865   0.9786   0.8822   0.5287
     0.3136   0.0000   0.0000   0.0000

          k = 0.2500-0.5000-0.5000 ( 10468 PWs)   bands (ev):

   -79.8926 -46.0523 -46.0522 -46.0522 -19.4686  -9.4002  -9.4002  -9.0210
    -3.8131  -2.5316  -2.5316   1.5555   2.1124   2.1124   2.7484   3.0135
     4.3870   4.3870   4.6390   4.8946   5.9151   5.9487   6.0212   6.0317
     6.0317   6.8215  11.6126  11.6126

     occupation numbers 
     1.0000   1.0000   1.0000   1.0000   1.0000   1.0000   1.0000   1.0000
     1.0000   1.0000   1.0000   1.0000   1.0000   1.0000   1.0000   1.0000
     1.0000   1.0000   1.0000   1.0000   0.9962   0.9755   0.6783   0.5967
     0.5967   0.0000   0.0000   0.0000

          k = 0.3750 0.3750 0.3750 ( 10465 PWs)   bands (ev):

   -79.8926 -46.0523 -46.0522 -46.0522 -19.4669  -9.3080  -9.2908  -9.2908
    -2.9722  -2.9349  -2.9349   1.7787   1.9115   1.9115   3.2385   3.5244
     3.5244   4.6205   4.6205   4.7684   5.9090   5.9310   5.9310   6.0415
     6.0415   6.6837  11.0663  12.1793

     occupation numbers 
     1.0000   1.0000   1.0000   1.0000   1.0000   1.0000   1.0000   1.0000
     1.0000   1.0000   1.0000   1.0000   1.0000   1.0000   1.0000   1.0000
     1.0000   1.0000   1.0000   1.0000   0.9974   0.9903   0.9903   0.5163
     0.5163   0.0000   0.0000   0.0000

          k = 0.3750 0.3750-0.5000 ( 10442 PWs)   bands (ev):

   -79.8926 -46.0522 -46.0522 -46.0522 -19.4627  -9.3964  -9.2995  -9.2881
    -2.9554  -2.9304  -2.5258   1.7136   1.8051   1.9048   2.8422   3.3889
     3.5273   4.6724   4.7280   4.8404   5.9150   5.9281   5.9697   5.9700
     6.0165   6.5229  11.6555  11.7892

     occupation numbers 
     1.0000   1.0000   1.0000   1.0000   1.0000   1.0000   1.0000   1.0000
     1.0000   1.0000   1.0000   1.0000   1.0000   1.0000   1.0000   1.0000
     1.0000   1.0000   1.0000   1.0000   0.9962   0.9918   0.9373   0.9365
     0.7123   0.0000   0.0000   0.0000

          k = 0.3750-0.5000-0.5000 ( 10452 PWs)   bands (ev):

   -79.8926 -46.0522 -46.0522 -46.0522 -19.4584  -9.3936  -9.3936  -9.2911
    -2.9385  -2.5216  -2.5216   1.6490   1.7989   1.7989   2.7363   3.0202
     3.4721   4.7924   4.7924   4.9330   5.8968   5.9421   5.9421   5.9555
     5.9759   6.3544  12.1651  12.1651

     occupation numbers 
     1.0000   1.0000   1.0000   1.0000   1.0000   1.0000   1.0000   1.0000
     1.0000   1.0000   1.0000   1.0000   1.0000   1.0000   1.0000   1.0000
     1.0000   1.0000   1.0000   1.0000   0.9989   0.9825   0.9825   0.9662
     0.9199   0.0000   0.0000   0.0000

          k =-0.5000-0.5000-0.5000 ( 10432 PWs)   bands (ev):

   -79.8926 -46.0522 -46.0522 -46.0522 -19.4542  -9.3908  -9.3908  -9.3908
    -2.5174  -2.5174  -2.5174   1.6904   1.6904   1.6904   2.6519   3.0230
     3.0230   4.9499   4.9499   4.9499   5.8892   5.8892   5.8892   5.9562
     5.9562   6.1830  12.6925  12.6925

     occupation numbers 
     1.0000   1.0000   1.0000   1.0000   1.0000   1.0000   1.0000   1.0000
     1.0000   1.0000   1.0000   1.0000   1.0000   1.0000   1.0000   1.0000
     1.0000   1.0000   1.0000   1.0000   0.9993   0.9993   0.9993   0.9652
     0.9652   0.0019   0.0000   0.0000

     the Fermi energy is     6.0434 ev

!    total energy              =   -1181.64873298 Ry
     total all-electron energy =    -24146.216080 Ry
     estimated scf accuracy    <          2.0E-09 Ry
     smearing contrib. (-TS)   =      -0.00624495 Ry
     internal energy E=F+TS    =   -1181.64248803 Ry

     The total energy is F=E-TS. E is the sum of the following terms:
     one-electron contribution =    -211.50432391 Ry
     hartree contribution      =     126.25918243 Ry
     xc contribution           =     -73.56804887 Ry
     ewald contribution        =    -230.92418908 Ry
     one-center paw contrib.   =    -791.90510860 Ry
      -> PAW hartree energy AE =      30.81106427 Ry
      -> PAW hartree energy PS =     -30.69038476 Ry
      -> PAW xc energy AE      =    -200.93254993 Ry
      -> PAW xc energy PS      =      18.72846460 Ry
      -> total E_H with PAW    =     126.37986195 Ry
      -> total E_XC with PAW   =    -255.77213420 Ry

     convergence has been achieved in  14 iterations

     Forces acting on atoms (cartesian axes, Ry/au):

     atom    1 type  1   force =     0.00000000    0.00000000    0.00000000
     atom    2 type  2   force =     0.00000000    0.00000000    0.00000000
     atom    3 type  3   force =     0.00000000    0.00000000    0.00000000
     atom    4 type  3   force =     0.00000000    0.00000000    0.00000000
     atom    5 type  3   force =     0.00000000    0.00000000    0.00000000
     The non-local contrib.  to forces
     atom    1 type  1   force =     0.00000000    0.00000000    0.00000000
     atom    2 type  2   force =     0.00000000    0.00000000    0.00000000
     atom    3 type  3   force =     0.00000000    0.00000000    0.00000000
     atom    4 type  3   force =     0.00000000    0.00000000    0.00000000
     atom    5 type  3   force =     0.00000000    0.00000000    0.00000000
     The ionic contribution  to forces
     atom    1 type  1   force =    -0.00000000   -0.00000000   -0.00000000
     atom    2 type  2   force =     0.00000000    0.00000000    0.00000000
     atom    3 type  3   force =     0.00000000   -0.00000000   -0.00000000
     atom    4 type  3   force =    -0.00000000    0.00000000   -0.00000000
     atom    5 type  3   force =    -0.00000000   -0.00000000    0.00000000
     The local contribution  to forces
     atom    1 type  1   force =     0.00000000   -0.00000000    0.00000000
     atom    2 type  2   force =     0.00000000    0.00000000    0.00000000
     atom    3 type  3   force =    -0.00000000   -0.00000000   -0.00000000
     atom    4 type  3   force =     0.00000000   -0.00000000   -0.00000000
     atom    5 type  3   force =     0.00000000   -0.00000000   -0.00000000
     The core correction contribution to forces
     atom    1 type  1   force =     0.00000000    0.00000000    0.00000000
     atom    2 type  2   force =    -0.00000000   -0.00000000   -0.00000000
     atom    3 type  3   force =    -0.00000000   -0.00000000    0.00000000
     atom    4 type  3   force =     0.00000000    0.00000000   -0.00000000
     atom    5 type  3   force =     0.00000000   -0.00000000   -0.00000000
     The Hubbard contrib.    to forces
     atom    1 type  1   force =     0.00000000    0.00000000    0.00000000
     atom    2 type  2   force =     0.00000000    0.00000000    0.00000000
     atom    3 type  3   force =     0.00000000    0.00000000    0.00000000
     atom    4 type  3   force =     0.00000000    0.00000000    0.00000000
     atom    5 type  3   force =     0.00000000    0.00000000    0.00000000
     The SCF correction term to forces
     atom    1 type  1   force =    -0.00000000   -0.00000000   -0.00000000
     atom    2 type  2   force =    -0.00000000    0.00000000   -0.00000000
     atom    3 type  3   force =    -0.00000000   -0.00000000   -0.00000000
     atom    4 type  3   force =     0.00000000    0.00000000   -0.00000000
     atom    5 type  3   force =    -0.00000000   -0.00000000    0.00000000

     Total force =     0.000000     Total SCF correction =     0.000000


     Computing stress (Cartesian axis) and pressure

          total   stress  (Ry/bohr**3)                   (kbar)     P=      224.49
   0.00152604   0.00000000   0.00000000          224.49        0.00        0.00
   0.00000000   0.00152604   0.00000000            0.00      224.49        0.00
   0.00000000   0.00000000   0.00152604            0.00        0.00      224.49

     kinetic stress (kbar)  14099.49      0.00      0.00
                                0.00  14099.49      0.00
                                0.00      0.00  14099.49

     local   stress (kbar)  -4724.25     -0.00     -0.00
                               -0.00  -4724.25      0.00
                               -0.00      0.00  -4724.25

     nonloc. stress (kbar)      2.74      0.00      0.00
                                0.00      2.74      0.00
                                0.00      0.00      2.74

     hartree stress (kbar)   7128.91     -0.00      0.00
                               -0.00   7128.91     -0.00
                                0.00     -0.00   7128.91

     exc-cor stress (kbar)    790.81      0.00      0.00
                                0.00    790.81     -0.00
                                0.00     -0.00    790.81

     corecor stress (kbar)  -4034.64     -0.00      0.00
                               -0.00  -4034.64     -0.00
                                0.00     -0.00  -4034.64

     ewald   stress (kbar) -13038.56      0.00     -0.00
                                0.00 -13038.56     -0.00
                               -0.00     -0.00 -13038.56

     hubbard stress (kbar)      0.00      0.00      0.00
                                0.00      0.00      0.00
                                0.00      0.00      0.00

     DFT-D   stress (kbar)      0.00      0.00      0.00
                                0.00      0.00      0.00
                                0.00      0.00      0.00

     XDM     stress (kbar)      0.00      0.00      0.00
                                0.00      0.00      0.00
                                0.00      0.00      0.00

     dft-nl  stress (kbar)      0.00      0.00      0.00
                                0.00      0.00      0.00
                                0.00      0.00      0.00

     TS-vdW  stress (kbar)      0.00      0.00      0.00
                                0.00      0.00      0.00
                                0.00      0.00      0.00

     MDB     stress (kbar)      0.00      0.00      0.00
                                0.00      0.00      0.00
                                0.00      0.00      0.00

     3D-RISM stress (kbar)      0.00      0.00      0.00
                                0.00      0.00      0.00
                                0.00      0.00      0.00


     BFGS Geometry Optimization
     Energy error            =      0.0E+00 Ry
     Gradient error          =      0.0E+00 Ry/Bohr
     Cell gradient error     =      2.2E+02 kbar

     number of scf cycles    =   1
     number of bfgs steps    =   0

     enthalpy           new  =   -1181.6487329775 Ry

     new trust radius        =       0.2248581560 bohr
     new conv_thr            =       0.0000000100 Ry

     new unit-cell volume =    971.69010 a.u.^3 (   143.98962 Ang^3 )
     density =      4.39411 g/cm^3

CELL_PARAMETERS (angstrom)
   5.241356813   0.000000000   0.000000000
   0.000000000   5.241356813   0.000000000
   0.000000000   0.000000000   5.241356813

ATOMIC_POSITIONS (crystal)
Rb               0.0000000000        0.0000000000        0.0000000000
Fe               0.5000000000        0.5000000000        0.5000000000
Br               0.5000000000        0.0000000000        0.0000000000
Br               0.0000000000        0.5000000000        0.0000000000
Br               0.0000000000        0.0000000000        0.5000000000



     Writing config-only to output data dir ./tmp/rbfebr3.save/ :
     XML data file
     NEW-OLD atomic charge density approx. for the potential

     total cpu time spent up to now is      307.7 secs

     Self-consistent Calculation

     iteration #  1     ecut=    80.00 Ry     beta= 0.40
     Davidson diagonalization with overlap

---- Real-time Memory Report at c_bands before calling an iterative solver
           253 MiB given to the printing process from OS
             0 MiB allocation reported by mallinfo(arena+hblkhd)
         45354 MiB available memory on the node where the printing process lives
------------------
     ethr =  1.00E-06,  avg # of iterations =  9.0

     total cpu time spent up to now is      355.7 secs

     total energy              =   -1181.56932317 Ry
     estimated scf accuracy    <       0.35467075 Ry

     iteration #  2     ecut=    80.00 Ry     beta= 0.40
     Davidson diagonalization with overlap

---- Real-time Memory Report at c_bands before calling an iterative solver
           253 MiB given to the printing process from OS
             0 MiB allocation reported by mallinfo(arena+hblkhd)
         45368 MiB available memory on the node where the printing process lives
------------------
     ethr =  7.71E-04,  avg # of iterations =  3.1

     total cpu time spent up to now is      377.0 secs

     total energy              =   -1181.60157469 Ry
     estimated scf accuracy    <      11.15499403 Ry

     iteration #  3     ecut=    80.00 Ry     beta= 0.40
     Davidson diagonalization with overlap

---- Real-time Memory Report at c_bands before calling an iterative solver
           253 MiB given to the printing process from OS
             0 MiB allocation reported by mallinfo(arena+hblkhd)
         45328 MiB available memory on the node where the printing process lives
------------------
     ethr =  7.71E-04,  avg # of iterations =  3.0

     total cpu time spent up to now is      398.5 secs

     total energy              =   -1181.70320543 Ry
     estimated scf accuracy    <       1.65266504 Ry

     iteration #  4     ecut=    80.00 Ry     beta= 0.40
     Davidson diagonalization with overlap

---- Real-time Memory Report at c_bands before calling an iterative solver
           253 MiB given to the printing process from OS
             0 MiB allocation reported by mallinfo(arena+hblkhd)
         45519 MiB available memory on the node where the printing process lives
------------------
     ethr =  7.71E-04,  avg # of iterations =  1.0

     total cpu time spent up to now is      412.2 secs

     total energy              =   -1181.76566016 Ry
     estimated scf accuracy    <       0.42280033 Ry

     iteration #  5     ecut=    80.00 Ry     beta= 0.40
     Davidson diagonalization with overlap

---- Real-time Memory Report at c_bands before calling an iterative solver
           253 MiB given to the printing process from OS
             0 MiB allocation reported by mallinfo(arena+hblkhd)
         45326 MiB available memory on the node where the printing process lives
------------------
     ethr =  7.71E-04,  avg # of iterations =  1.0

     total cpu time spent up to now is      426.5 secs

     total energy              =   -1181.77403366 Ry
     estimated scf accuracy    <       0.00020490 Ry

     iteration #  6     ecut=    80.00 Ry     beta= 0.40
     Davidson diagonalization with overlap

---- Real-time Memory Report at c_bands before calling an iterative solver
           253 MiB given to the printing process from OS
             0 MiB allocation reported by mallinfo(arena+hblkhd)
         45222 MiB available memory on the node where the printing process lives
------------------
     ethr =  4.45E-07,  avg # of iterations =  4.5

     total cpu time spent up to now is      452.0 secs

     total energy              =   -1181.77394497 Ry
     estimated scf accuracy    <       0.00058968 Ry

     iteration #  7     ecut=    80.00 Ry     beta= 0.40
     Davidson diagonalization with overlap

---- Real-time Memory Report at c_bands before calling an iterative solver
           253 MiB given to the printing process from OS
             0 MiB allocation reported by mallinfo(arena+hblkhd)
         45327 MiB available memory on the node where the printing process lives
------------------
     ethr =  4.45E-07,  avg # of iterations =  2.0

     total cpu time spent up to now is      469.3 secs

     total energy              =   -1181.77394466 Ry
     estimated scf accuracy    <       0.00062063 Ry

     iteration #  8     ecut=    80.00 Ry     beta= 0.40
     Davidson diagonalization with overlap

---- Real-time Memory Report at c_bands before calling an iterative solver
           253 MiB given to the printing process from OS
             0 MiB allocation reported by mallinfo(arena+hblkhd)
         45398 MiB available memory on the node where the printing process lives
------------------
     ethr =  4.45E-07,  avg # of iterations =  1.0

     total cpu time spent up to now is      483.1 secs

     total energy              =   -1181.77389319 Ry
     estimated scf accuracy    <       0.00054822 Ry

     iteration #  9     ecut=    80.00 Ry     beta= 0.40
     Davidson diagonalization with overlap

---- Real-time Memory Report at c_bands before calling an iterative solver
           253 MiB given to the printing process from OS
             0 MiB allocation reported by mallinfo(arena+hblkhd)
         45328 MiB available memory on the node where the printing process lives
------------------
     ethr =  4.45E-07,  avg # of iterations =  1.0

     total cpu time spent up to now is      496.6 secs

     total energy              =   -1181.77390807 Ry
     estimated scf accuracy    <       0.00009364 Ry

     iteration # 10     ecut=    80.00 Ry     beta= 0.40
     Davidson diagonalization with overlap

---- Real-time Memory Report at c_bands before calling an iterative solver
           254 MiB given to the printing process from OS
             0 MiB allocation reported by mallinfo(arena+hblkhd)
         45382 MiB available memory on the node where the printing process lives
------------------
     ethr =  2.04E-07,  avg # of iterations =  1.0

     total cpu time spent up to now is      509.8 secs

     total energy              =   -1181.77390554 Ry
     estimated scf accuracy    <       0.00010620 Ry

     iteration # 11     ecut=    80.00 Ry     beta= 0.40
     Davidson diagonalization with overlap

---- Real-time Memory Report at c_bands before calling an iterative solver
           254 MiB given to the printing process from OS
             0 MiB allocation reported by mallinfo(arena+hblkhd)
         45444 MiB available memory on the node where the printing process lives
------------------
     ethr =  2.04E-07,  avg # of iterations =  1.0

     total cpu time spent up to now is      524.2 secs

     total energy              =   -1181.77390086 Ry
     estimated scf accuracy    <       0.00006754 Ry

     iteration # 12     ecut=    80.00 Ry     beta= 0.40
     Davidson diagonalization with overlap

---- Real-time Memory Report at c_bands before calling an iterative solver
           254 MiB given to the printing process from OS
             0 MiB allocation reported by mallinfo(arena+hblkhd)
         45396 MiB available memory on the node where the printing process lives
------------------
     ethr =  1.47E-07,  avg # of iterations =  1.0

     total cpu time spent up to now is      538.9 secs

     total energy              =   -1181.77389945 Ry
     estimated scf accuracy    <       0.00001652 Ry

     iteration # 13     ecut=    80.00 Ry     beta= 0.40
     Davidson diagonalization with overlap

---- Real-time Memory Report at c_bands before calling an iterative solver
           254 MiB given to the printing process from OS
             0 MiB allocation reported by mallinfo(arena+hblkhd)
         45188 MiB available memory on the node where the printing process lives
------------------
     ethr =  3.59E-08,  avg # of iterations =  1.6

     total cpu time spent up to now is      554.5 secs

     total energy              =   -1181.77390094 Ry
     estimated scf accuracy    <       0.00000102 Ry

     iteration # 14     ecut=    80.00 Ry     beta= 0.40
     Davidson diagonalization with overlap

---- Real-time Memory Report at c_bands before calling an iterative solver
           254 MiB given to the printing process from OS
             0 MiB allocation reported by mallinfo(arena+hblkhd)
         45290 MiB available memory on the node where the printing process lives
------------------
     ethr =  2.22E-09,  avg # of iterations =  2.2

     total cpu time spent up to now is      572.0 secs

     total energy              =   -1181.77390104 Ry
     estimated scf accuracy    <       0.00000003 Ry

     iteration # 15     ecut=    80.00 Ry     beta= 0.40
     Davidson diagonalization with overlap

---- Real-time Memory Report at c_bands before calling an iterative solver
           254 MiB given to the printing process from OS
             0 MiB allocation reported by mallinfo(arena+hblkhd)
         45160 MiB available memory on the node where the printing process lives
------------------
     ethr =  7.15E-11,  avg # of iterations =  3.9

     total cpu time spent up to now is      594.8 secs

     total energy              =   -1181.77390105 Ry
     estimated scf accuracy    <       0.00000003 Ry

     iteration # 16     ecut=    80.00 Ry     beta= 0.40
     Davidson diagonalization with overlap

---- Real-time Memory Report at c_bands before calling an iterative solver
           254 MiB given to the printing process from OS
             0 MiB allocation reported by mallinfo(arena+hblkhd)
         45300 MiB available memory on the node where the printing process lives
------------------
     ethr =  6.95E-11,  avg # of iterations =  1.0

     total cpu time spent up to now is      608.3 secs

     total energy              =   -1181.77390104 Ry
     estimated scf accuracy    <       0.00000002 Ry

     iteration # 17     ecut=    80.00 Ry     beta= 0.40
     Davidson diagonalization with overlap

---- Real-time Memory Report at c_bands before calling an iterative solver
           254 MiB given to the printing process from OS
             0 MiB allocation reported by mallinfo(arena+hblkhd)
         45442 MiB available memory on the node where the printing process lives
------------------
     ethr =  5.34E-11,  avg # of iterations =  1.0

     total cpu time spent up to now is      622.3 secs

     End of self-consistent calculation

          k = 0.0000 0.0000 0.0000 ( 10443 PWs)   bands (ev):

   -81.3895 -47.5481 -47.5481 -47.5481 -20.4274  -9.6610  -9.4557  -9.4557
    -5.6524  -5.6524  -5.6524   2.3590   2.3590   2.3590   2.8548   2.8548
     2.8548   4.3928   4.3928   4.4181   4.4181   4.4181   4.6445   4.7299
     4.7299   4.7299   9.8805   9.8805

     occupation numbers 
     1.0000   1.0000   1.0000   1.0000   1.0000   1.0000   1.0000   1.0000
     1.0000   1.0000   1.0000   1.0000   1.0000   1.0000   1.0000   1.0000
     1.0000   0.9996   0.9996   0.9974   0.9974   0.9974   0.0281   0.0001
     0.0001   0.0001   0.0000   0.0000

          k = 0.0000 0.0000 0.1204 ( 10519 PWs)   bands (ev):

   -81.3896 -47.5483 -47.5482 -47.5482 -20.4249  -9.7017  -9.5234  -9.4546
    -5.6482  -5.6482  -5.4050   2.2332   2.3489   2.3489   2.7964   2.7987
     2.7987   4.2528   4.4028   4.4195   4.4297   4.4470   4.4470   4.7253
     4.7253   4.9219   9.9060  10.0506

     occupation numbers 
     1.0000   1.0000   1.0000   1.0000   1.0000   1.0000   1.0000   1.0000
     1.0000   1.0000   1.0000   1.0000   1.0000   1.0000   1.0000   1.0000
     1.0000   1.0000   0.9991   0.9972   0.9947   0.9859   0.9859   0.0002
     0.0002   0.0000   0.0000   0.0000

          k = 0.0000 0.0000 0.2408 ( 10495 PWs)   bands (ev):

   -81.3895 -47.5482 -47.5482 -47.5482 -20.4188  -9.8784  -9.5745  -9.4519
    -5.6378  -5.6378  -4.8002   1.9863   2.3195   2.3195   2.6681   2.6773
     2.6773   3.2814   4.4229   4.4266   4.5069   4.5139   4.5139   4.7171
     4.7171   5.4626   9.5112   9.9716

     occupation numbers 
     1.0000   1.0000   1.0000   1.0000   1.0000   1.0000   1.0000   1.0000
     1.0000   1.0000   1.0000   1.0000   1.0000   1.0000   1.0000   1.0000
     1.0000   1.0000   0.9965   0.9956   0.8293   0.7896   0.7896   0.0003
     0.0003   0.0000   0.0000   0.0000

          k = 0.0000 0.0000 0.3612 ( 10491 PWs)   bands (ev):

   -81.3895 -47.5482 -47.5482 -47.5482 -20.4127 -10.0648  -9.5821  -9.4493
    -5.6273  -5.6273  -4.1440   1.7897   2.2785   2.2785   2.3181   2.5533
     2.5778   2.5778   4.4264   4.4506   4.5711   4.5755   4.5755   4.7141
     4.7141   6.0850   8.6856  10.0434

     occupation numbers 
     1.0000   1.0000   1.0000   1.0000   1.0000   1.0000   1.0000   1.0000
     1.0000   1.0000   1.0000   1.0000   1.0000   1.0000   1.0000   1.0000
     1.0000   1.0000   0.9957   0.9830   0.3506   0.3170   0.3170   0.0004
     0.0004   0.0000   0.0000   0.0000

          k = 0.0000 0.0000-0.4816 ( 10516 PWs)   bands (ev):

   -81.3896 -47.5483 -47.5483 -47.5482 -20.4102 -10.1373  -9.5827  -9.4482
    -5.6229  -5.6229  -3.8403   1.7276   1.8901   2.2568   2.2568   2.5088
     2.5438   2.5438   4.4278   4.4605   4.5948   4.5987   4.5987   4.7153
     4.7153   6.4290   8.2756  10.0753

     occupation numbers 
     1.0000   1.0000   1.0000   1.0000   1.0000   1.0000   1.0000   1.0000
     1.0000   1.0000   1.0000   1.0000   1.0000   1.0000   1.0000   1.0000
     1.0000   1.0000   0.9953   0.9722   0.1906   0.1690   0.1690   0.0004
     0.0004   0.0000   0.0000   0.0000

          k = 0.0000 0.1204 0.1204 ( 10505 PWs)   bands (ev):

   -81.3896 -47.5482 -47.5482 -47.5482 -20.4224  -9.7242  -9.5777  -9.4849
    -5.6439  -5.4091  -5.3928   2.0519   2.3401   2.3918   2.6471   2.7446
     2.8957   4.1961   4.3266   4.4223   4.4258   4.4363   4.4588   4.4962
     4.7199   5.1277   9.9877  10.0411

     occupation numbers 
     1.0000   1.0000   1.0000   1.0000   1.0000   1.0000   1.0000   1.0000
     1.0000   1.0000   1.0000   1.0000   1.0000   1.0000   1.0000   1.0000
     1.0000   1.0000   1.0000   0.9966   0.9958   0.9922   0.9745   0.8796
     0.0003   0.0000   0.0000   0.0000

          k = 0.0000 0.1204 0.2408 ( 10507 PWs)   bands (ev):

   -81.3896 -47.5483 -47.5483 -47.5482 -20.4163  -9.8779  -9.6431  -9.4903
    -5.6335  -5.3914  -4.7964   1.7768   2.3137   2.3514   2.5274   2.6266
     2.9029   3.2854   4.2679   4.4372   4.4456   4.4821   4.5162   4.5529
     4.7098   5.5921   9.4940  10.0387

     occupation numbers 
     1.0000   1.0000   1.0000   1.0000   1.0000   1.0000   1.0000   1.0000
     1.0000   1.0000   1.0000   1.0000   1.0000   1.0000   1.0000   1.0000
     1.0000   1.0000   1.0000   0.9918   0.9870   0.9286   0.7756   0.4977
     0.0005   0.0000   0.0000   0.0000

          k = 0.0000 0.1204 0.3612 ( 10509 PWs)   bands (ev):

   -81.3896 -47.5483 -47.5483 -47.5482 -20.4102 -10.0629  -9.6503  -9.4889
    -5.6230  -5.3813  -4.1408   1.5696   2.2174   2.2753   2.3409   2.5059
     2.5296   2.8658   4.2647   4.4504   4.4593   4.5465   4.5743   4.5930
     4.7052   6.1197   8.7977  10.0263

     occupation numbers 
     1.0000   1.0000   1.0000   1.0000   1.0000   1.0000   1.0000   1.0000
     1.0000   1.0000   1.0000   1.0000   1.0000   1.0000   1.0000   1.0000
     1.0000   1.0000   1.0000   0.9833   0.9739   0.5506   0.3262   0.2010
     0.0008   0.0000   0.0000   0.0000

          k = 0.0000 0.1204-0.4816 ( 10500 PWs)   bands (ev):

   -81.3896 -47.5482 -47.5482 -47.5482 -20.4076 -10.1353  -9.6506  -9.4880
    -5.6186  -5.3771  -3.8373   1.4972   1.8905   2.1989   2.2541   2.4970
     2.5063   2.8397   4.2639   4.4524   4.4690   4.5836   4.5961   4.5977
     4.7061   6.3903   8.4740  10.0590

     occupation numbers 
     1.0000   1.0000   1.0000   1.0000   1.0000   1.0000   1.0000   1.0000
     1.0000   1.0000   1.0000   1.0000   1.0000   1.0000   1.0000   1.0000
     1.0000   1.0000   1.0000   0.9814   0.9590   0.2602   0.1830   0.1747
     0.0007   0.0000   0.0000   0.0000

          k = 0.0000 0.2408 0.2408 ( 10467 PWs)   bands (ev):

   -81.3895 -47.5482 -47.5482 -47.5481 -20.4102  -9.8975  -9.8308  -9.5062
    -5.6231  -4.8052  -4.7709   1.4512   2.2964   2.3833   2.3834   2.5128
     3.1068   3.1796   3.4313   4.4425   4.4902   4.4914   4.5333   4.5647
     4.6947   5.8847   9.3253   9.9314

     occupation numbers 
     1.0000   1.0000   1.0000   1.0000   1.0000   1.0000   1.0000   1.0000
     1.0000   1.0000   1.0000   1.0000   1.0000   1.0000   1.0000   1.0000
     1.0000   1.0000   1.0000   0.9890   0.9028   0.8984   0.6563   0.4010
     0.0016   0.0000   0.0000   0.0000

          k = 0.0000 0.2408 0.3612 ( 10502 PWs)   bands (ev):

   -81.3896 -47.5483 -47.5482 -47.5482 -20.4041 -10.0583  -9.8588  -9.5072
    -5.6127  -4.7796  -4.1329   1.2152   2.2207   2.2671   2.3574   2.4070
     2.4175   3.2193   3.3362   4.4663   4.5088   4.5218   4.5658   4.5753
     4.6849   6.1790   9.0727   9.7401

     occupation numbers 
     1.0000   1.0000   1.0000   1.0000   1.0000   1.0000   1.0000   1.0000
     1.0000   1.0000   1.0000   1.0000   1.0000   1.0000   1.0000   1.0000
     1.0000   1.0000   1.0000   0.9637   0.8189   0.7393   0.3920   0.3189
     0.0030   0.0000   0.0000   0.0000

          k = 0.0000 0.2408-0.4816 ( 10500 PWs)   bands (ev):

   -81.3895 -47.5483 -47.5482 -47.5482 -20.4016 -10.1304  -9.8585  -9.5068
    -5.6083  -4.7757  -3.8300   1.1314   1.8857   2.2349   2.2476   2.3871
     2.4159   3.2619   3.3170   4.4884   4.5134   4.5314   4.5611   4.5936
     4.6844   6.3043   8.9657   9.6532

     occupation numbers 
     1.0000   1.0000   1.0000   1.0000   1.0000   1.0000   1.0000   1.0000
     1.0000   1.0000   1.0000   1.0000   1.0000   1.0000   1.0000   1.0000
     1.0000   1.0000   1.0000   0.9091   0.7925   0.6710   0.4305   0.1974
     0.0031   0.0000   0.0000   0.0000

          k = 0.0000 0.3612 0.3612 ( 10487 PWs)   bands (ev):

   -81.3895 -47.5483 -47.5482 -47.5481 -20.3980 -10.0606 -10.0437  -9.5089
    -5.6023  -4.1356  -4.1154   0.9611   2.1263   2.2551   2.3084   2.3140
     2.3411   2.5330   3.4660   4.4608   4.5232   4.5521   4.5625   4.5869
     4.6657   6.2185   9.3584   9.4630

     occupation numbers 
     1.0000   1.0000   1.0000   1.0000   1.0000   1.0000   1.0000   1.0000
     1.0000   1.0000   1.0000   1.0000   1.0000   1.0000   1.0000   1.0000
     1.0000   1.0000   1.0000   0.9719   0.7296   0.5045   0.4193   0.2382
     0.0094   0.0000   0.0000   0.0000

          k = 0.0000 0.3612-0.4816 ( 10496 PWs)   bands (ev):

   -81.3895 -47.5483 -47.5482 -47.5482 -20.3955 -10.1255 -10.0502  -9.5087
    -5.5980  -4.1223  -3.8227   0.8713   1.8356   2.2413   2.2814   2.2947
     2.2956   2.4556   3.5359   4.4811   4.4850   4.5676   4.5776   4.5986
     4.6598   6.2316   9.3533   9.5002

     occupation numbers 
     1.0000   1.0000   1.0000   1.0000   1.0000   1.0000   1.0000   1.0000
     1.0000   1.0000   1.0000   1.0000   1.0000   1.0000   1.0000   1.0000
     1.0000   1.0000   1.0000   0.9316   0.9203   0.3784   0.3018   0.1700
     0.0129   0.0000   0.0000   0.0000

          k = 0.0000-0.4816-0.4816 ( 10488 PWs)   bands (ev):

   -81.3895 -47.5483 -47.5481 -47.5481 -20.3929 -10.1234 -10.1234  -9.5086
    -5.5936  -3.8196  -3.8196   0.7796   1.7076   2.1112   2.2387   2.2387
     2.3222   2.3222   3.6241   4.4631   4.4733   4.5822   4.6052   4.6052
     4.6462   6.2064   9.2370   9.7422

     occupation numbers 
     1.0000   1.0000   1.0000   1.0000   1.0000   1.0000   1.0000   1.0000
     1.0000   1.0000   1.0000   1.0000   1.0000   1.0000   1.0000   1.0000
     1.0000   1.0000   1.0000   0.9687   0.9504   0.2696   0.1374   0.1374
     0.0259   0.0000   0.0000   0.0000

          k = 0.1204 0.1204 0.1204 ( 10515 PWs)   bands (ev):

   -81.3896 -47.5483 -47.5483 -47.5482 -20.4199  -9.7405  -9.5764  -9.5764
    -5.4133  -5.3887  -5.3887   1.9407   2.2904   2.2904   2.6896   2.6896
     2.9647   4.1504   4.3178   4.3178   4.4225   4.4225   4.4621   4.5090
     4.5090   5.2924   9.6976  10.3355

     occupation numbers 
     1.0000   1.0000   1.0000   1.0000   1.0000   1.0000   1.0000   1.0000
     1.0000   1.0000   1.0000   1.0000   1.0000   1.0000   1.0000   1.0000
     1.0000   1.0000   1.0000   1.0000   0.9966   0.9966   0.9702   0.8181
     0.8181   0.0000   0.0000   0.0000

          k = 0.1204 0.1204 0.2408 ( 10501 PWs)   bands (ev):

   -81.3896 -47.5483 -47.5482 -47.5482 -20.4138  -9.8775  -9.6663  -9.5734
    -5.3958  -5.3789  -4.7927   1.6954   2.0778   2.2650   2.6633   2.6861
     2.9914   3.2882   4.2253   4.3041   4.4306   4.4669   4.4746   4.5363
     4.5739   5.6893   9.2678  10.0967

     occupation numbers 
     1.0000   1.0000   1.0000   1.0000   1.0000   1.0000   1.0000   1.0000
     1.0000   1.0000   1.0000   1.0000   1.0000   1.0000   1.0000   1.0000
     1.0000   1.0000   1.0000   1.0000   0.9944   0.9626   0.9477   0.6332
     0.3293   0.0000   0.0000   0.0000

          k = 0.1204 0.1204 0.3612 ( 10491 PWs)   bands (ev):

   -81.3895 -47.5482 -47.5482 -47.5481 -20.4077 -10.0610  -9.6761  -9.5704
    -5.3857  -5.3690  -4.1376   1.4948   1.9018   2.2588   2.3032   2.6658
     2.6753   2.9557   4.2238   4.2975   4.4452   4.4901   4.5342   4.5657
     4.6105   6.1247   8.8261   9.7790

     occupation numbers 
     1.0000   1.0000   1.0000   1.0000   1.0000   1.0000   1.0000   1.0000
     1.0000   1.0000   1.0000   1.0000   1.0000   1.0000   1.0000   1.0000
     1.0000   1.0000   1.0000   1.0000   0.9873   0.9032   0.6490   0.3927
     0.1144   0.0000   0.0000   0.0000

          k = 0.1204 0.1204-0.4816 ( 10498 PWs)   bands (ev):

   -81.3895 -47.5482 -47.5482 -47.5482 -20.4051 -10.1333  -9.6767  -9.5691
    -5.3815  -5.3648  -3.8343   1.4230   1.8361   1.8910   2.2637   2.6416
     2.6716   2.9304   4.2235   4.2958   4.4501   4.4977   4.5731   4.5805
     4.6133   6.3272   8.6330   9.6522

     occupation numbers 
     1.0000   1.0000   1.0000   1.0000   1.0000   1.0000   1.0000   1.0000
     1.0000   1.0000   1.0000   1.0000   1.0000   1.0000   1.0000   1.0000
     1.0000   1.0000   1.0000   1.0000   0.9835   0.8733   0.3354   0.2812
     0.1036   0.0000   0.0000   0.0000

          k = 0.1204 0.2408 0.2408 ( 10504 PWs)   bands (ev):

   -81.3896 -47.5482 -47.5482 -47.5482 -20.4077  -9.8971  -9.8292  -9.6135
    -5.3779  -4.8012  -4.7673   1.4463   1.9579   2.0583   2.6945   2.7711
     3.1440   3.1816   3.4333   4.2606   4.4442   4.4591   4.4881   4.5708
     4.5870   5.9126   8.9712  10.1398

     occupation numbers 
     1.0000   1.0000   1.0000   1.0000   1.0000   1.0000   1.0000   1.0000
     1.0000   1.0000   1.0000   1.0000   1.0000   1.0000   1.0000   1.0000
     1.0000   1.0000   1.0000   1.0000   0.9879   0.9741   0.9101   0.3531
     0.2374   0.0000   0.0000   0.0000

          k = 0.1204 0.2408 0.3612 ( 10494 PWs)   bands (ev):

   -81.3895 -47.5482 -47.5482 -47.5482 -20.4016 -10.0565  -9.8581  -9.6144
    -5.3678  -4.7758  -4.1298   1.2267   1.8081   2.0198   2.2917   2.7276
     2.7871   3.2379   3.3377   4.2545   4.4604   4.4900   4.5254   4.5659
     4.6027   6.1092   8.9170   9.7546

     occupation numbers 
     1.0000   1.0000   1.0000   1.0000   1.0000   1.0000   1.0000   1.0000
     1.0000   1.0000   1.0000   1.0000   1.0000   1.0000   1.0000   1.0000
     1.0000   1.0000   1.0000   1.0000   0.9724   0.9036   0.7147   0.3914
     0.1491   0.0000   0.0000   0.0000

          k = 0.1204 0.2408-0.4816 ( 10490 PWs)   bands (ev):

   -81.3895 -47.5482 -47.5482 -47.5482 -20.3991 -10.1285  -9.8579  -9.6138
    -5.3637  -4.7720  -3.8271   1.1463   1.7446   1.8866   2.0206   2.7472
     2.7567   3.2753   3.3192   4.2527   4.4681   4.5252   4.5367   4.5578
     4.6018   6.1760   9.0614   9.4304

     occupation numbers 
     1.0000   1.0000   1.0000   1.0000   1.0000   1.0000   1.0000   1.0000
     1.0000   1.0000   1.0000   1.0000   1.0000   1.0000   1.0000   1.0000
     1.0000   1.0000   1.0000   1.0000   0.9606   0.7162   0.6302   0.4570
     0.1532   0.0000   0.0000   0.0000

          k = 0.1204 0.3612 0.3612 ( 10495 PWs)   bands (ev):

   -81.3895 -47.5482 -47.5482 -47.5482 -20.3955 -10.0589 -10.0420  -9.6166
    -5.3579  -4.1324  -4.1123   0.9873   1.8060   1.8543   2.1498   2.4786
     2.7699   2.8290   3.4759   4.2445   4.4607   4.5092   4.5211   4.5760
     4.5996   6.0577   9.1307   9.9137

     occupation numbers 
     1.0000   1.0000   1.0000   1.0000   1.0000   1.0000   1.0000   1.0000
     1.0000   1.0000   1.0000   1.0000   1.0000   1.0000   1.0000   1.0000
     1.0000   1.0000   1.0000   1.0000   0.9721   0.8168   0.7442   0.3137
     0.1645   0.0000   0.0000   0.0000

          k = 0.1204 0.3612-0.4816 ( 10490 PWs)   bands (ev):

   -81.3895 -47.5482 -47.5482 -47.5481 -20.3930 -10.1237 -10.0485  -9.6163
    -5.3537  -4.1191  -3.8198   0.9001   1.7657   1.8286   1.8521   2.3880
     2.7882   2.8069   3.5463   4.2406   4.4773   4.4838   4.5401   4.5873
     4.5937   6.0266   9.4350   9.5738

     occupation numbers 
     1.0000   1.0000   1.0000   1.0000   1.0000   1.0000   1.0000   1.0000
     1.0000   1.0000   1.0000   1.0000   1.0000   1.0000   1.0000   1.0000
     1.0000   1.0000   1.0000   1.0000   0.9415   0.9240   0.6032   0.2357
     0.1969   0.0000   0.0000   0.0000

          k = 0.1204-0.4816-0.4816 ( 10488 PWs)   bands (ev):

   -81.3895 -47.5483 -47.5481 -47.5481 -20.3904 -10.1216 -10.1216  -9.6160
    -5.3496  -3.8167  -3.8167   0.8107   1.7090   1.7804   1.7804   2.1134
     2.7995   2.7995   3.6361   4.2354   4.4599   4.4753   4.5685   4.5903
     4.5903   5.9652   9.5503   9.8218

     occupation numbers 
     1.0000   1.0000   1.0000   1.0000   1.0000   1.0000   1.0000   1.0000
     1.0000   1.0000   1.0000   1.0000   1.0000   1.0000   1.0000   1.0000
     1.0000   1.0000   1.0000   1.0000   0.9731   0.9461   0.3707   0.2168
     0.2168   0.0000   0.0000   0.0000

          k = 0.2408 0.2408 0.2408 ( 10510 PWs)   bands (ev):

   -81.3896 -47.5483 -47.5482 -47.5482 -20.4016  -9.9099  -9.8255  -9.8255
    -4.8105  -4.7586  -4.7586   1.3692   1.7164   1.7164   2.9248   2.9248
     3.0814   3.2497   3.4370   3.4370   4.4468   4.4468   4.4631   4.6032
     4.6032   5.9488   8.7252  10.3560

     occupation numbers 
     1.0000   1.0000   1.0000   1.0000   1.0000   1.0000   1.0000   1.0000
     1.0000   1.0000   1.0000   1.0000   1.0000   1.0000   1.0000   1.0000
     1.0000   1.0000   1.0000   1.0000   0.9861   0.9861   0.9687   0.1469
     0.1469   0.0000   0.0000   0.0000

          k = 0.2408 0.2408 0.3612 ( 10495 PWs)   bands (ev):

   -81.3895 -47.5482 -47.5482 -47.5481 -20.3955 -10.0522  -9.8752  -9.8218
    -4.7853  -4.7498  -4.1220   1.2059   1.4833   1.6782   2.2858   2.9782
     3.0782   3.2584   3.3336   3.4362   4.4535   4.4784   4.4830   4.5922
     4.5985   5.9181   8.9042   9.9594

     occupation numbers 
     1.0000   1.0000   1.0000   1.0000   1.0000   1.0000   1.0000   1.0000
     1.0000   1.0000   1.0000   1.0000   1.0000   1.0000   1.0000   1.0000
     1.0000   1.0000   1.0000   1.0000   0.9804   0.9387   0.9262   0.2055
     0.1702   0.0000   0.0000   0.0000

          k = 0.2408 0.2408-0.4816 ( 10500 PWs)   bands (ev):

   -81.3895 -47.5483 -47.5482 -47.5481 -20.3930 -10.1239  -9.8759  -9.8203
    -4.7812  -4.7462  -3.8200   1.1342   1.4012   1.6826   1.8832   2.9934
     3.1407   3.2200   3.3591   3.4327   4.4574   4.5022   4.5279   4.5700
     4.5742   5.8825   9.3764   9.4218

     occupation numbers 
     1.0000   1.0000   1.0000   1.0000   1.0000   1.0000   1.0000   1.0000
     1.0000   1.0000   1.0000   1.0000   1.0000   1.0000   1.0000   1.0000
     1.0000   1.0000   1.0000   1.0000   0.9761   0.8528   0.6969   0.3593
     0.3272   0.0000   0.0000   0.0000

          k = 0.2408 0.3612 0.3612 ( 10488 PWs)   bands (ev):

   -81.3895 -47.5483 -47.5482 -47.5481 -20.3895 -10.0548 -10.0379  -9.8440
    -4.7593  -4.1245  -4.1047   1.0502   1.4176   1.4624   2.1404   2.4886
     3.1292   3.2191   3.3569   3.5054   4.4581   4.4783   4.4787   4.5698
     4.5925   5.7014   9.2351  10.1750

     occupation numbers 
     1.0000   1.0000   1.0000   1.0000   1.0000   1.0000   1.0000   1.0000
     1.0000   1.0000   1.0000   1.0000   1.0000   1.0000   1.0000   1.0000
     1.0000   1.0000   1.0000   1.0000   0.9754   0.9389   0.9378   0.3606
     0.2035   0.0000   0.0000   0.0000

          k = 0.2408 0.3612-0.4816 ( 10492 PWs)   bands (ev):

   -81.3895 -47.5483 -47.5482 -47.5481 -20.3869 -10.1193 -10.0445  -9.8435
    -4.7554  -4.1115  -3.8127   0.9719   1.3571   1.4534   1.8335   2.3932
     3.1761   3.2400   3.3430   3.5745   4.4655   4.4743   4.5081   4.5495
     4.5738   5.6055   9.6993   9.8401

     occupation numbers 
     1.0000   1.0000   1.0000   1.0000   1.0000   1.0000   1.0000   1.0000
     1.0000   1.0000   1.0000   1.0000   1.0000   1.0000   1.0000   1.0000
     1.0000   1.0000   1.0000   1.0000   0.9650   0.9484   0.8230   0.5262
     0.3304   0.0000   0.0000   0.0000

          k = 0.2408-0.4816-0.4816 ( 10468 PWs)   bands (ev):

   -81.3895 -47.5482 -47.5481 -47.5481 -20.3844 -10.1174 -10.1174  -9.8430
    -4.7516  -3.8097  -3.8097   0.8903   1.3730   1.3730   1.7042   2.1185
     3.2565   3.2565   3.3071   3.6665   4.4471   4.4792   4.5339   4.5435
     4.5435   5.4934  10.1019  10.1020

     occupation numbers 
     1.0000   1.0000   1.0000   1.0000   1.0000   1.0000   1.0000   1.0000
     1.0000   1.0000   1.0000   1.0000   1.0000   1.0000   1.0000   1.0000
     1.0000   1.0000   1.0000   1.0000   0.9859   0.9365   0.6518   0.5755
     0.5755   0.0000   0.0000   0.0000

          k = 0.3612 0.3612 0.3612 ( 10465 PWs)   bands (ev):

   -81.3895 -47.5482 -47.5481 -47.5481 -20.3834 -10.0560 -10.0337 -10.0337
    -4.1279  -4.0971  -4.0971   1.0772   1.2045   1.2045   2.0187   2.4946
     2.4946   3.4431   3.4431   3.5691   4.4493   4.4619   4.4619   4.5508
     4.5508   5.3748   9.6582  10.6175

     occupation numbers 
     1.0000   1.0000   1.0000   1.0000   1.0000   1.0000   1.0000   1.0000
     1.0000   1.0000   1.0000   1.0000   1.0000   1.0000   1.0000   1.0000
     1.0000   1.0000   1.0000   1.0000   0.9841   0.9704   0.9704   0.5153
     0.5153   0.0000   0.0000   0.0000

          k = 0.3612 0.3612-0.4816 ( 10442 PWs)   bands (ev):

   -81.3895 -47.5481 -47.5481 -47.5480 -20.3808 -10.1149 -10.0468 -10.0320
    -4.1145  -4.0939  -3.8056   1.0270   1.1148   1.1967   1.7763   2.3341
     2.4970   3.4870   3.5309   3.6267   4.4494   4.4599   4.4923   4.4941
     4.5333   5.2443  10.1582  10.2956

     occupation numbers 
     1.0000   1.0000   1.0000   1.0000   1.0000   1.0000   1.0000   1.0000
     1.0000   1.0000   1.0000   1.0000   1.0000   1.0000   1.0000   1.0000
     1.0000   1.0000   1.0000   1.0000   0.9841   0.9731   0.8951   0.8882
     0.6563   0.0000   0.0000   0.0000

          k = 0.3612-0.4816-0.4816 ( 10452 PWs)   bands (ev):

   -81.3895 -47.5481 -47.5481 -47.5481 -20.3783 -10.1131 -10.1131 -10.0377
    -4.1011  -3.8026  -3.8026   0.9770   1.1075   1.1075   1.6510   2.1236
     2.4313   3.5856   3.5856   3.6995   4.4345   4.4722   4.4722   4.4812
     4.4966   5.1050  10.6037  10.6037

     occupation numbers 
     1.0000   1.0000   1.0000   1.0000   1.0000   1.0000   1.0000   1.0000
     1.0000   1.0000   1.0000   1.0000   1.0000   1.0000   1.0000   1.0000
     1.0000   1.0000   1.0000   1.0000   0.9930   0.9528   0.9528   0.9314
     0.8781   0.0000   0.0000   0.0000

          k =-0.4816-0.4816-0.4816 ( 10432 PWs)   bands (ev):

   -81.3895 -47.5480 -47.5480 -47.5480 -20.3758 -10.1113 -10.1113 -10.1113
    -3.7996  -3.7996  -3.7996   1.0155   1.0155   1.0155   1.5518   2.1257
     2.1257   3.7142   3.7142   3.7142   4.4294   4.4294   4.4294   4.4802
     4.4802   4.9596  11.0058  11.0058

     occupation numbers 
     1.0000   1.0000   1.0000   1.0000   1.0000   1.0000   1.0000   1.0000
     1.0000   1.0000   1.0000   1.0000   1.0000   1.0000   1.0000   1.0000
     1.0000   1.0000   1.0000   1.0000   0.9948   0.9948   0.9948   0.9339
     0.9339   0.0000   0.0000   0.0000

     the Fermi energy is     4.5526 ev

!    total energy              =   -1181.77390105 Ry
     total all-electron energy =    -24146.341248 Ry
     estimated scf accuracy    <          1.2E-10 Ry
     smearing contrib. (-TS)   =      -0.00765020 Ry
     internal energy E=F+TS    =   -1181.76625085 Ry

     The total energy is F=E-TS. E is the sum of the following terms:
     one-electron contribution =    -225.03606059 Ry
     hartree contribution      =     130.94865711 Ry
     xc contribution           =     -73.35969129 Ry
     ewald contribution        =    -222.43796602 Ry
     one-center paw contrib.   =    -791.88119006 Ry
      -> PAW hartree energy AE =      30.17619036 Ry
      -> PAW hartree energy PS =     -30.05717055 Ry
      -> PAW xc energy AE      =    -200.83290269 Ry
      -> PAW xc energy PS      =      18.63816102 Ry
      -> total E_H with PAW    =     131.06767692 Ry
      -> total E_XC with PAW   =    -255.55443296 Ry

     convergence has been achieved in  17 iterations

     Forces acting on atoms (cartesian axes, Ry/au):

     atom    1 type  1   force =     0.00000000    0.00000000    0.00000000
     atom    2 type  2   force =     0.00000000    0.00000000    0.00000000
     atom    3 type  3   force =     0.00000000    0.00000000    0.00000000
     atom    4 type  3   force =     0.00000000    0.00000000    0.00000000
     atom    5 type  3   force =     0.00000000    0.00000000    0.00000000
     The non-local contrib.  to forces
     atom    1 type  1   force =     0.00000000    0.00000000    0.00000000
     atom    2 type  2   force =     0.00000000    0.00000000    0.00000000
     atom    3 type  3   force =     0.00000000    0.00000000    0.00000000
     atom    4 type  3   force =     0.00000000    0.00000000    0.00000000
     atom    5 type  3   force =     0.00000000    0.00000000    0.00000000
     The ionic contribution  to forces
     atom    1 type  1   force =    -0.00000000   -0.00000000   -0.00000000
     atom    2 type  2   force =     0.00000000    0.00000000    0.00000000
     atom    3 type  3   force =    -0.00000000   -0.00000000   -0.00000000
     atom    4 type  3   force =    -0.00000000   -0.00000000   -0.00000000
     atom    5 type  3   force =    -0.00000000   -0.00000000   -0.00000000
     The local contribution  to forces
     atom    1 type  1   force =     0.00000000   -0.00000000   -0.00000000
     atom    2 type  2   force =     0.00000000    0.00000000    0.00000000
     atom    3 type  3   force =     0.00000000   -0.00000000   -0.00000000
     atom    4 type  3   force =     0.00000000    0.00000000   -0.00000000
     atom    5 type  3   force =    -0.00000000    0.00000000    0.00000000
     The core correction contribution to forces
     atom    1 type  1   force =     0.00000000   -0.00000000   -0.00000000
     atom    2 type  2   force =    -0.00000000   -0.00000000   -0.00000000
     atom    3 type  3   force =     0.00000000   -0.00000000    0.00000000
     atom    4 type  3   force =    -0.00000000    0.00000000    0.00000000
     atom    5 type  3   force =    -0.00000000   -0.00000000    0.00000000
     The Hubbard contrib.    to forces
     atom    1 type  1   force =     0.00000000    0.00000000    0.00000000
     atom    2 type  2   force =     0.00000000    0.00000000    0.00000000
     atom    3 type  3   force =     0.00000000    0.00000000    0.00000000
     atom    4 type  3   force =     0.00000000    0.00000000    0.00000000
     atom    5 type  3   force =     0.00000000    0.00000000    0.00000000
     The SCF correction term to forces
     atom    1 type  1   force =     0.00000000    0.00000000   -0.00000000
     atom    2 type  2   force =     0.00000000   -0.00000000    0.00000000
     atom    3 type  3   force =    -0.00000000   -0.00000000   -0.00000000
     atom    4 type  3   force =    -0.00000000   -0.00000000   -0.00000000
     atom    5 type  3   force =     0.00000000   -0.00000000   -0.00000000

     Total force =     0.000000     Total SCF correction =     0.000000


     Computing stress (Cartesian axis) and pressure

          total   stress  (Ry/bohr**3)                   (kbar)     P=      138.99
   0.00094482   0.00000000   0.00000000          138.99        0.00        0.00
   0.00000000   0.00094482   0.00000000            0.00      138.99        0.00
   0.00000000   0.00000000   0.00094482            0.00        0.00      138.99

     kinetic stress (kbar)  12543.44      0.00      0.00
                                0.00  12543.44      0.00
                                0.00      0.00  12543.44

     local   stress (kbar)  -4886.11     -0.00     -0.00
                               -0.00  -4886.11     -0.00
                               -0.00     -0.00  -4886.11

     nonloc. stress (kbar)    -11.79      0.00      0.00
                                0.00    -11.79      0.00
                                0.00      0.00    -11.79

     hartree stress (kbar)   6608.15     -0.00      0.00
                               -0.00   6608.15     -0.00
                                0.00     -0.00   6608.15

     exc-cor stress (kbar)    714.29     -0.00      0.00
                               -0.00    714.29     -0.00
                                0.00     -0.00    714.29

     corecor stress (kbar)  -3603.95     -0.00      0.00
                               -0.00  -3603.95     -0.00
                                0.00     -0.00  -3603.95

     ewald   stress (kbar) -11225.03      0.00     -0.00
                                0.00 -11225.03     -0.00
                               -0.00     -0.00 -11225.03

     hubbard stress (kbar)      0.00      0.00      0.00
                                0.00      0.00      0.00
                                0.00      0.00      0.00

     DFT-D   stress (kbar)      0.00      0.00      0.00
                                0.00      0.00      0.00
                                0.00      0.00      0.00

     XDM     stress (kbar)      0.00      0.00      0.00
                                0.00      0.00      0.00
                                0.00      0.00      0.00

     dft-nl  stress (kbar)      0.00      0.00      0.00
                                0.00      0.00      0.00
                                0.00      0.00      0.00

     TS-vdW  stress (kbar)      0.00      0.00      0.00
                                0.00      0.00      0.00
                                0.00      0.00      0.00

     MDB     stress (kbar)      0.00      0.00      0.00
                                0.00      0.00      0.00
                                0.00      0.00      0.00

     3D-RISM stress (kbar)      0.00      0.00      0.00
                                0.00      0.00      0.00
                                0.00      0.00      0.00

     Energy error            =      1.3E-01 Ry
     Gradient error          =      0.0E+00 Ry/Bohr
     Cell gradient error     =      1.4E+02 kbar

     number of scf cycles    =   2
     number of bfgs steps    =   1

     enthalpy           old  =   -1181.6487329775 Ry
     enthalpy           new  =   -1181.7739010463 Ry

     CASE: enthalpy          _new < enthalpy          _old

     new trust radius        =       0.2520180146 bohr
     new conv_thr            =            1.0E-10 Ry

     new unit-cell volume =   1094.35614 a.u.^3 (   162.16685 Ang^3 )
     density =      3.90158 g/cm^3

CELL_PARAMETERS (angstrom)
   5.453232648   0.000000000   0.000000000
   0.000000000   5.453232648   0.000000000
   0.000000000   0.000000000   5.453232648

ATOMIC_POSITIONS (crystal)
Rb               0.0000000000        0.0000000000        0.0000000000
Fe               0.5000000000        0.5000000000        0.5000000000
Br               0.5000000000        0.0000000000        0.0000000000
Br               0.0000000000        0.5000000000        0.0000000000
Br               0.0000000000        0.0000000000        0.5000000000



     Writing config-only to output data dir ./tmp/rbfebr3.save/ :
     XML data file
     NEW-OLD atomic charge density approx. for the potential

     total cpu time spent up to now is      636.4 secs

     Self-consistent Calculation

     iteration #  1     ecut=    80.00 Ry     beta= 0.40
     Davidson diagonalization with overlap

---- Real-time Memory Report at c_bands before calling an iterative solver
           254 MiB given to the printing process from OS
             0 MiB allocation reported by mallinfo(arena+hblkhd)
         45288 MiB available memory on the node where the printing process lives
------------------
     ethr =  1.00E-06,  avg # of iterations =  8.3

     total cpu time spent up to now is      680.4 secs

     total energy              =   -1181.65596512 Ry
     estimated scf accuracy    <       0.36540697 Ry

     iteration #  2     ecut=    80.00 Ry     beta= 0.40
     Davidson diagonalization with overlap

---- Real-time Memory Report at c_bands before calling an iterative solver
           254 MiB given to the printing process from OS
             0 MiB allocation reported by mallinfo(arena+hblkhd)
         45454 MiB available memory on the node where the printing process lives
------------------
     ethr =  7.94E-04,  avg # of iterations =  3.0

     total cpu time spent up to now is      702.1 secs

     total energy              =   -1181.71874288 Ry
     estimated scf accuracy    <      11.66044647 Ry

     iteration #  3     ecut=    80.00 Ry     beta= 0.40
     Davidson diagonalization with overlap

---- Real-time Memory Report at c_bands before calling an iterative solver
           254 MiB given to the printing process from OS
             0 MiB allocation reported by mallinfo(arena+hblkhd)
         45450 MiB available memory on the node where the printing process lives
------------------
     ethr =  7.94E-04,  avg # of iterations =  3.0

     total cpu time spent up to now is      723.0 secs

     total energy              =   -1181.77621529 Ry
     estimated scf accuracy    <       2.03123718 Ry

     iteration #  4     ecut=    80.00 Ry     beta= 0.40
     Davidson diagonalization with overlap

---- Real-time Memory Report at c_bands before calling an iterative solver
           254 MiB given to the printing process from OS
             0 MiB allocation reported by mallinfo(arena+hblkhd)
         45434 MiB available memory on the node where the printing process lives
------------------
     ethr =  7.94E-04,  avg # of iterations =  1.0

     total cpu time spent up to now is      736.9 secs

     total energy              =   -1181.86308825 Ry
     estimated scf accuracy    <       0.41546155 Ry

     iteration #  5     ecut=    80.00 Ry     beta= 0.40
     Davidson diagonalization with overlap

---- Real-time Memory Report at c_bands before calling an iterative solver
           254 MiB given to the printing process from OS
             0 MiB allocation reported by mallinfo(arena+hblkhd)
         45410 MiB available memory on the node where the printing process lives
------------------
     ethr =  7.94E-04,  avg # of iterations =  1.0

     total cpu time spent up to now is      750.9 secs

     total energy              =   -1181.85949125 Ry
     estimated scf accuracy    <       0.16096368 Ry

     iteration #  6     ecut=    80.00 Ry     beta= 0.40
     Davidson diagonalization with overlap

---- Real-time Memory Report at c_bands before calling an iterative solver
           254 MiB given to the printing process from OS
             0 MiB allocation reported by mallinfo(arena+hblkhd)
         45377 MiB available memory on the node where the printing process lives
------------------
     ethr =  3.50E-04,  avg # of iterations =  1.0

     total cpu time spent up to now is      765.3 secs

     total energy              =   -1181.86261716 Ry
     estimated scf accuracy    <       0.00295955 Ry

     iteration #  7     ecut=    80.00 Ry     beta= 0.40
     Davidson diagonalization with overlap

---- Real-time Memory Report at c_bands before calling an iterative solver
           254 MiB given to the printing process from OS
             0 MiB allocation reported by mallinfo(arena+hblkhd)
         45268 MiB available memory on the node where the printing process lives
------------------
     ethr =  6.43E-06,  avg # of iterations =  1.6

     total cpu time spent up to now is      781.4 secs

     total energy              =   -1181.86236317 Ry
     estimated scf accuracy    <       0.00341672 Ry

     iteration #  8     ecut=    80.00 Ry     beta= 0.40
     Davidson diagonalization with overlap

---- Real-time Memory Report at c_bands before calling an iterative solver
           254 MiB given to the printing process from OS
             0 MiB allocation reported by mallinfo(arena+hblkhd)
         45425 MiB available memory on the node where the printing process lives
------------------
     ethr =  6.43E-06,  avg # of iterations =  1.0

     total cpu time spent up to now is      795.1 secs

     total energy              =   -1181.86241903 Ry
     estimated scf accuracy    <       0.00071636 Ry

     iteration #  9     ecut=    80.00 Ry     beta= 0.40
     Davidson diagonalization with overlap

---- Real-time Memory Report at c_bands before calling an iterative solver
           254 MiB given to the printing process from OS
             0 MiB allocation reported by mallinfo(arena+hblkhd)
         45226 MiB available memory on the node where the printing process lives
------------------
     ethr =  1.56E-06,  avg # of iterations =  1.1

     total cpu time spent up to now is      808.9 secs

     total energy              =   -1181.86233916 Ry
     estimated scf accuracy    <       0.00244384 Ry

     iteration # 10     ecut=    80.00 Ry     beta= 0.40
     Davidson diagonalization with overlap

---- Real-time Memory Report at c_bands before calling an iterative solver
           254 MiB given to the printing process from OS
             0 MiB allocation reported by mallinfo(arena+hblkhd)
         45350 MiB available memory on the node where the printing process lives
------------------
     ethr =  1.56E-06,  avg # of iterations =  1.1

     total cpu time spent up to now is      823.0 secs

     total energy              =   -1181.86241108 Ry
     estimated scf accuracy    <       0.00444736 Ry

     iteration # 11     ecut=    80.00 Ry     beta= 0.40
     Davidson diagonalization with overlap

---- Real-time Memory Report at c_bands before calling an iterative solver
           254 MiB given to the printing process from OS
             0 MiB allocation reported by mallinfo(arena+hblkhd)
         45338 MiB available memory on the node where the printing process lives
------------------
     ethr =  1.56E-06,  avg # of iterations =  1.0

     total cpu time spent up to now is      836.8 secs

     total energy              =   -1181.86249592 Ry
     estimated scf accuracy    <       0.00000694 Ry

     iteration # 12     ecut=    80.00 Ry     beta= 0.40
     Davidson diagonalization with overlap

---- Real-time Memory Report at c_bands before calling an iterative solver
           254 MiB given to the printing process from OS
             0 MiB allocation reported by mallinfo(arena+hblkhd)
         45259 MiB available memory on the node where the printing process lives
------------------
     ethr =  1.51E-08,  avg # of iterations =  2.1

     total cpu time spent up to now is      854.1 secs

     total energy              =   -1181.86249637 Ry
     estimated scf accuracy    <       0.00004691 Ry

     iteration # 13     ecut=    80.00 Ry     beta= 0.40
     Davidson diagonalization with overlap

---- Real-time Memory Report at c_bands before calling an iterative solver
           254 MiB given to the printing process from OS
             0 MiB allocation reported by mallinfo(arena+hblkhd)
         45337 MiB available memory on the node where the printing process lives
------------------
     ethr =  1.51E-08,  avg # of iterations =  1.0

     total cpu time spent up to now is      867.7 secs

     total energy              =   -1181.86249598 Ry
     estimated scf accuracy    <       0.00004372 Ry

     iteration # 14     ecut=    80.00 Ry     beta= 0.40
     Davidson diagonalization with overlap

---- Real-time Memory Report at c_bands before calling an iterative solver
           254 MiB given to the printing process from OS
             0 MiB allocation reported by mallinfo(arena+hblkhd)
         45338 MiB available memory on the node where the printing process lives
------------------
     ethr =  1.51E-08,  avg # of iterations =  1.0

     total cpu time spent up to now is      882.1 secs

     total energy              =   -1181.86249470 Ry
     estimated scf accuracy    <       0.00002701 Ry

     iteration # 15     ecut=    80.00 Ry     beta= 0.40
     Davidson diagonalization with overlap

---- Real-time Memory Report at c_bands before calling an iterative solver
           254 MiB given to the printing process from OS
             0 MiB allocation reported by mallinfo(arena+hblkhd)
         45307 MiB available memory on the node where the printing process lives
------------------
     ethr =  1.51E-08,  avg # of iterations =  1.0

     total cpu time spent up to now is      896.0 secs

     total energy              =   -1181.86249539 Ry
     estimated scf accuracy    <       0.00000145 Ry

     iteration # 16     ecut=    80.00 Ry     beta= 0.40
     Davidson diagonalization with overlap

---- Real-time Memory Report at c_bands before calling an iterative solver
           254 MiB given to the printing process from OS
             0 MiB allocation reported by mallinfo(arena+hblkhd)
         45431 MiB available memory on the node where the printing process lives
------------------
     ethr =  3.16E-09,  avg # of iterations =  1.0

     total cpu time spent up to now is      910.0 secs

     total energy              =   -1181.86249548 Ry
     estimated scf accuracy    <       0.00000075 Ry

     iteration # 17     ecut=    80.00 Ry     beta= 0.40
     Davidson diagonalization with overlap

---- Real-time Memory Report at c_bands before calling an iterative solver
           254 MiB given to the printing process from OS
             0 MiB allocation reported by mallinfo(arena+hblkhd)
         45508 MiB available memory on the node where the printing process lives
------------------
     ethr =  1.63E-09,  avg # of iterations =  1.0

     total cpu time spent up to now is      923.7 secs

     total energy              =   -1181.86249543 Ry
     estimated scf accuracy    <       0.00000105 Ry

     iteration # 18     ecut=    80.00 Ry     beta= 0.40
     Davidson diagonalization with overlap

---- Real-time Memory Report at c_bands before calling an iterative solver
           254 MiB given to the printing process from OS
             0 MiB allocation reported by mallinfo(arena+hblkhd)
         45349 MiB available memory on the node where the printing process lives
------------------
     ethr =  1.63E-09,  avg # of iterations =  1.0

     total cpu time spent up to now is      937.2 secs

     total energy              =   -1181.86249545 Ry
     estimated scf accuracy    <       0.00000002 Ry

     iteration # 19     ecut=    80.00 Ry     beta= 0.40
     Davidson diagonalization with overlap

---- Real-time Memory Report at c_bands before calling an iterative solver
           254 MiB given to the printing process from OS
             0 MiB allocation reported by mallinfo(arena+hblkhd)
         45302 MiB available memory on the node where the printing process lives
------------------
     ethr =  5.07E-11,  avg # of iterations =  1.1

     total cpu time spent up to now is      951.0 secs

     total energy              =   -1181.86249545 Ry
     estimated scf accuracy    <       0.00000005 Ry

     iteration # 20     ecut=    80.00 Ry     beta= 0.40
     Davidson diagonalization with overlap

---- Real-time Memory Report at c_bands before calling an iterative solver
           254 MiB given to the printing process from OS
             0 MiB allocation reported by mallinfo(arena+hblkhd)
         45325 MiB available memory on the node where the printing process lives
------------------
     ethr =  5.07E-11,  avg # of iterations =  1.0

     total cpu time spent up to now is      965.1 secs

     total energy              =   -1181.86249545 Ry
     estimated scf accuracy    <          3.0E-10 Ry

     iteration # 21     ecut=    80.00 Ry     beta= 0.40
     Davidson diagonalization with overlap

---- Real-time Memory Report at c_bands before calling an iterative solver
           254 MiB given to the printing process from OS
             0 MiB allocation reported by mallinfo(arena+hblkhd)
         45158 MiB available memory on the node where the printing process lives
------------------
     ethr =  6.47E-13,  avg # of iterations =  3.0

     total cpu time spent up to now is      986.0 secs

     total energy              =   -1181.86249545 Ry
     estimated scf accuracy    <          2.0E-10 Ry

     iteration # 22     ecut=    80.00 Ry     beta= 0.40
     Davidson diagonalization with overlap

---- Real-time Memory Report at c_bands before calling an iterative solver
           254 MiB given to the printing process from OS
             0 MiB allocation reported by mallinfo(arena+hblkhd)
         45487 MiB available memory on the node where the printing process lives
------------------
     ethr =  4.30E-13,  avg # of iterations =  2.0

     total cpu time spent up to now is     1003.8 secs

     total energy              =   -1181.86249545 Ry
     estimated scf accuracy    <          1.1E-10 Ry

     iteration # 23     ecut=    80.00 Ry     beta= 0.40
     Davidson diagonalization with overlap

---- Real-time Memory Report at c_bands before calling an iterative solver
           254 MiB given to the printing process from OS
             0 MiB allocation reported by mallinfo(arena+hblkhd)
         45414 MiB available memory on the node where the printing process lives
------------------
     ethr =  2.46E-13,  avg # of iterations =  2.1

     total cpu time spent up to now is     1021.3 secs

     total energy              =   -1181.86249545 Ry
     estimated scf accuracy    <          1.4E-10 Ry

     iteration # 24     ecut=    80.00 Ry     beta= 0.40
     Davidson diagonalization with overlap

---- Real-time Memory Report at c_bands before calling an iterative solver
           254 MiB given to the printing process from OS
             0 MiB allocation reported by mallinfo(arena+hblkhd)
         45386 MiB available memory on the node where the printing process lives
------------------
     ethr =  2.46E-13,  avg # of iterations =  2.0

     total cpu time spent up to now is     1037.5 secs

     End of self-consistent calculation

          k = 0.0000 0.0000 0.0000 ( 10443 PWs)   bands (ev):

   -82.8566 -49.0132 -49.0132 -49.0132 -21.3227 -10.5728 -10.3756 -10.3756
    -6.2870  -6.2870  -6.2870   1.4087   1.4087   1.4087   1.8694   1.8694
     1.8694   2.9772   2.9772   2.9951   2.9951   2.9951   3.2172   3.2172
     3.2172   3.4093   9.0498   9.0498

     occupation numbers 
     1.0000   1.0000   1.0000   1.0000   1.0000   1.0000   1.0000   1.0000
     1.0000   1.0000   1.0000   1.0000   1.0000   1.0000   1.0000   1.0000
     1.0000   0.9947   0.9947   0.9854   0.9854   0.9854   0.0075   0.0075
     0.0075   0.0000   0.0000   0.0000

          k = 0.0000 0.0000 0.1157 ( 10519 PWs)   bands (ev):

   -82.8567 -49.0135 -49.0134 -49.0134 -21.3213 -10.5919 -10.4236 -10.3750
    -6.2841  -6.2841  -6.1134   1.3057   1.4066   1.4066   1.8228   1.8249
     1.8249   2.8452   2.9835   2.9957   3.0059   3.0186   3.0186   3.2102
     3.2102   3.6426   9.0775   9.0903

     occupation numbers 
     1.0000   1.0000   1.0000   1.0000   1.0000   1.0000   1.0000   1.0000
     1.0000   1.0000   1.0000   1.0000   1.0000   1.0000   1.0000   1.0000
     1.0000   1.0000   0.9923   0.9849   0.9748   0.9548   0.9548   0.0110
     0.0110   0.0000   0.0000   0.0000

          k = 0.0000 0.0000 0.2315 ( 10495 PWs)   bands (ev):

   -82.8567 -49.0134 -49.0134 -49.0133 -21.3179 -10.6805 -10.4828 -10.3733
    -6.2771  -6.2771  -5.6832   1.1017   1.4032   1.4032   1.7207   1.7209
     1.7209   2.0796   2.9975   2.9988   3.0657   3.0732   3.0732   3.1958
     3.1958   4.1046   8.1253   9.1489

     occupation numbers 
     1.0000   1.0000   1.0000   1.0000   1.0000   1.0000   1.0000   1.0000
     1.0000   1.0000   1.0000   1.0000   1.0000   1.0000   1.0000   1.0000
     1.0000   1.0000   0.9835   0.9823   0.7623   0.7116   0.7116   0.0233
     0.0233   0.0000   0.0000   0.0000

          k = 0.0000 0.0000 0.3472 ( 10491 PWs)   bands (ev):

   -82.8567 -49.0133 -49.0133 -49.0133 -21.3145 -10.7965 -10.4989 -10.3717
    -6.2701  -6.2701  -5.2209   0.9405   1.3373   1.4043   1.4043   1.6181
     1.6181   1.6293   2.9993   3.0142   3.1155   3.1240   3.1240   3.1850
     3.1850   4.6080   7.3917   9.2282

     occupation numbers 
     1.0000   1.0000   1.0000   1.0000   1.0000   1.0000   1.0000   1.0000
     1.0000   1.0000   1.0000   1.0000   1.0000   1.0000   1.0000   1.0000
     1.0000   1.0000   0.9819   0.9629   0.3743   0.3094   0.3094   0.0386
     0.0386   0.0000   0.0000   0.0000

          k = 0.0000 0.0000-0.4629 ( 10516 PWs)   bands (ev):

   -82.8567 -49.0134 -49.0134 -49.0134 -21.3131 -10.8449 -10.5016 -10.3710
    -6.2671  -6.2671  -5.0136   0.8982   1.0084   1.4078   1.4078   1.5740
     1.5740   1.5939   3.0000   3.0205   3.1338   3.1427   3.1427   3.1830
     3.1830   4.8626   7.0624   9.2638

     occupation numbers 
     1.0000   1.0000   1.0000   1.0000   1.0000   1.0000   1.0000   1.0000
     1.0000   1.0000   1.0000   1.0000   1.0000   1.0000   1.0000   1.0000
     1.0000   1.0000   0.9812   0.9509   0.2413   0.1878   0.1878   0.0423
     0.0423   0.0000   0.0000   0.0000

          k = 0.0000 0.1157 0.1157 ( 10505 PWs)   bands (ev):

   -82.8567 -49.0134 -49.0134 -49.0133 -21.3199 -10.6051 -10.4544 -10.3971
    -6.2812  -6.1163  -6.1050   1.1668   1.4042   1.4409   1.6987   1.7834
     1.9020   2.7799   2.9240   2.9967   3.0007   3.0109   3.0262   3.0551
     3.2027   3.8184   8.7484   8.9772

     occupation numbers 
     1.0000   1.0000   1.0000   1.0000   1.0000   1.0000   1.0000   1.0000
     1.0000   1.0000   1.0000   1.0000   1.0000   1.0000   1.0000   1.0000
     1.0000   1.0000   0.9999   0.9842   0.9805   0.9681   0.9375   0.8248
     0.0164   0.0000   0.0000   0.0000

          k = 0.0000 0.1157 0.2315 ( 10507 PWs)   bands (ev):

   -82.8567 -49.0134 -49.0134 -49.0133 -21.3165 -10.6813 -10.5186 -10.4025
    -6.2742  -6.1042  -5.6806   0.9483   1.4001   1.4270   1.5848   1.6854
     1.9050   2.0834   2.8637   3.0069   3.0168   3.0428   3.0737   3.0992
     3.1870   4.2094   8.1097   8.8596

     occupation numbers 
     1.0000   1.0000   1.0000   1.0000   1.0000   1.0000   1.0000   1.0000
     1.0000   1.0000   1.0000   1.0000   1.0000   1.0000   1.0000   1.0000
     1.0000   1.0000   1.0000   0.9736   0.9582   0.8832   0.7083   0.5067
     0.0353   0.0000   0.0000   0.0000

          k = 0.0000 0.1157 0.3472 ( 10509 PWs)   bands (ev):

   -82.8567 -49.0134 -49.0134 -49.0133 -21.3131 -10.7954 -10.5352 -10.4020
    -6.2672  -6.0974  -5.2187   0.7828   1.2877   1.4004   1.4068   1.5496
     1.5877   1.8837   2.8550   3.0190   3.0214   3.0930   3.1216   3.1292
     3.1757   4.6340   7.4925   8.7131

     occupation numbers 
     1.0000   1.0000   1.0000   1.0000   1.0000   1.0000   1.0000   1.0000
     1.0000   1.0000   1.0000   1.0000   1.0000   1.0000   1.0000   1.0000
     1.0000   1.0000   1.0000   0.9540   0.9490   0.5581   0.3268   0.2721
     0.0579   0.0000   0.0000   0.0000

          k = 0.0000 0.1157-0.4629 ( 10500 PWs)   bands (ev):

   -82.8567 -49.0134 -49.0133 -49.0133 -21.3117 -10.8437 -10.5377 -10.4015
    -6.2643  -6.0946  -5.0115   0.7283   1.0057   1.3373   1.4037   1.5454
     1.5470   1.8645   2.8520   3.0199   3.0277   3.1250   3.1295   3.1381
     3.1747   4.8383   7.2258   8.6700

     occupation numbers 
     1.0000   1.0000   1.0000   1.0000   1.0000   1.0000   1.0000   1.0000
     1.0000   1.0000   1.0000   1.0000   1.0000   1.0000   1.0000   1.0000
     1.0000   1.0000   1.0000   0.9521   0.9337   0.3020   0.2704   0.2141
     0.0603   0.0000   0.0000   0.0000

          k = 0.0000 0.2315 0.2315 ( 10467 PWs)   bands (ev):

   -82.8567 -49.0133 -49.0133 -49.0132 -21.3131 -10.6989 -10.6262 -10.4222
    -6.2673  -5.6870  -5.6628   0.6937   1.3941   1.4498   1.4645   1.6006
     1.9522   2.0553   2.2738   3.0119   3.0502   3.0549   3.0839   3.1087
     3.1682   4.4470   7.9677   8.6527

     occupation numbers 
     1.0000   1.0000   1.0000   1.0000   1.0000   1.0000   1.0000   1.0000
     1.0000   1.0000   1.0000   1.0000   1.0000   1.0000   1.0000   1.0000
     1.0000   1.0000   1.0000   0.9666   0.8502   0.8260   0.6316   0.4283
     0.0782   0.0000   0.0000   0.0000

          k = 0.0000 0.2315 0.3472 ( 10502 PWs)   bands (ev):

   -82.8567 -49.0134 -49.0133 -49.0133 -21.3097 -10.7928 -10.6584 -10.4257
    -6.2603  -5.6692  -5.2134   0.5046   1.2555   1.3917   1.4297   1.4737
     1.5149   2.1116   2.2032   3.0289   3.0664   3.0734   3.1089   3.1179
     3.1552   4.6838   7.7363   8.4625

     occupation numbers 
     1.0000   1.0000   1.0000   1.0000   1.0000   1.0000   1.0000   1.0000
     1.0000   1.0000   1.0000   1.0000   1.0000   1.0000   1.0000   1.0000
     1.0000   1.0000   1.0000   0.9305   0.7577   0.7101   0.4266   0.3555
     0.1255   0.0000   0.0000   0.0000

          k = 0.0000 0.2315-0.4629 ( 10500 PWs)   bands (ev):

   -82.8567 -49.0134 -49.0133 -49.0133 -21.3083 -10.8407 -10.6601 -10.4260
    -6.2574  -5.6666  -5.0066   0.4377   0.9881   1.3595   1.3942   1.4768
     1.4793   2.1335   2.1969   3.0452   3.0688   3.0786   3.1073   3.1267
     3.1585   4.7840   7.6333   8.3857

     occupation numbers 
     1.0000   1.0000   1.0000   1.0000   1.0000   1.0000   1.0000   1.0000
     1.0000   1.0000   1.0000   1.0000   1.0000   1.0000   1.0000   1.0000
     1.0000   1.0000   1.0000   0.8728   0.7420   0.6722   0.4400   0.2899
     0.1120   0.0000   0.0000   0.0000

          k = 0.0000 0.3472 0.3472 ( 10487 PWs)   bands (ev):

   -82.8567 -49.0134 -49.0133 -49.0133 -21.3063 -10.7969 -10.7782 -10.4307
    -6.2534  -5.2152  -5.2015   0.2986   1.1047   1.3848   1.3944   1.4417
     1.4419   1.5997   2.3541   3.0237   3.0732   3.1004   3.1052   3.1258
     3.1367   4.7229   7.9778   8.2373

     occupation numbers 
     1.0000   1.0000   1.0000   1.0000   1.0000   1.0000   1.0000   1.0000
     1.0000   1.0000   1.0000   1.0000   1.0000   1.0000   1.0000   1.0000
     1.0000   1.0000   1.0000   0.9437   0.7113   0.4967   0.4575   0.2958
     0.2231   0.0000   0.0000   0.0000

          k = 0.0000 0.3472-0.4629 ( 10496 PWs)   bands (ev):

   -82.8567 -49.0134 -49.0133 -49.0133 -21.3049 -10.8377 -10.7864 -10.4314
    -6.2505  -5.2062  -5.0017   0.2252   0.9029   1.3772   1.3850   1.4090
     1.4099   1.5356   2.4075   3.0365   3.0449   3.1143   3.1162   3.1190
     3.1454   4.7372   8.0779   8.1490

     occupation numbers 
     1.0000   1.0000   1.0000   1.0000   1.0000   1.0000   1.0000   1.0000
     1.0000   1.0000   1.0000   1.0000   1.0000   1.0000   1.0000   1.0000
     1.0000   1.0000   1.0000   0.9066   0.8741   0.3832   0.3683   0.3464
     0.1728   0.0000   0.0000   0.0000

          k = 0.0000-0.4629-0.4629 ( 10488 PWs)   bands (ev):

   -82.8567 -49.0134 -49.0133 -49.0133 -21.3035 -10.8365 -10.8365 -10.4322
    -6.2476  -4.9996  -4.9996   0.1497   0.7834   1.2688   1.3812   1.3812
     1.4336   1.4336   2.4739   3.0211   3.0362   3.1127   3.1282   3.1403
     3.1403   4.7205   8.0568   8.2800

     occupation numbers 
     1.0000   1.0000   1.0000   1.0000   1.0000   1.0000   1.0000   1.0000
     1.0000   1.0000   1.0000   1.0000   1.0000   1.0000   1.0000   1.0000
     1.0000   1.0000   1.0000   0.9496   0.9079   0.3965   0.2794   0.2016
     0.2016   0.0000   0.0000   0.0000

          k = 0.1157 0.1157 0.1157 ( 10515 PWs)   bands (ev):

   -82.8567 -49.0134 -49.0134 -49.0134 -21.3185 -10.6153 -10.4537 -10.4537
    -6.1193  -6.1022  -6.1022   1.0752   1.3806   1.3806   1.7200   1.7200
     1.9596   2.7232   2.9170   2.9170   2.9958   2.9958   3.0241   3.0658
     3.0658   3.9591   8.4314   9.0881

     occupation numbers 
     1.0000   1.0000   1.0000   1.0000   1.0000   1.0000   1.0000   1.0000
     1.0000   1.0000   1.0000   1.0000   1.0000   1.0000   1.0000   1.0000
     1.0000   1.0000   0.9999   0.9999   0.9848   0.9848   0.9428   0.7615
     0.7615   0.0000   0.0000   0.0000

          k = 0.1157 0.1157 0.2315 ( 10501 PWs)   bands (ev):

   -82.8567 -49.0134 -49.0134 -49.0133 -21.3151 -10.6822 -10.5339 -10.4518
    -6.1074  -6.0956  -5.6780   0.8804   1.2358   1.3660   1.6806   1.7083
     1.9828   2.0818   2.8156   2.9027   3.0017   3.0295   3.0350   3.0859
     3.1163   4.2892   7.9635   8.7314

     occupation numbers 
     1.0000   1.0000   1.0000   1.0000   1.0000   1.0000   1.0000   1.0000
     1.0000   1.0000   1.0000   1.0000   1.0000   1.0000   1.0000   1.0000
     1.0000   1.0000   1.0000   1.0000   0.9796   0.9286   0.9118   0.6158
     0.3677   0.0000   0.0000   0.0000

          k = 0.1157 0.1157 0.3472 ( 10491 PWs)   bands (ev):

   -82.8567 -49.0134 -49.0133 -49.0133 -21.3117 -10.7942 -10.5536 -10.4500
    -6.1005  -6.0889  -5.2165   0.7215   1.1059   1.3068   1.3666   1.6770
     1.7233   1.9569   2.8042   2.8924   3.0112   3.0487   3.0837   3.1058
     3.1437   4.6388   7.5420   8.4494

     occupation numbers 
     1.0000   1.0000   1.0000   1.0000   1.0000   1.0000   1.0000   1.0000
     1.0000   1.0000   1.0000   1.0000   1.0000   1.0000   1.0000   1.0000
     1.0000   1.0000   1.0000   1.0000   0.9676   0.8573   0.6332   0.4526
     0.1820   0.0000   0.0000   0.0000

          k = 0.1157 0.1157-0.4629 ( 10498 PWs)   bands (ev):

   -82.8567 -49.0134 -49.0133 -49.0133 -21.3103 -10.8424 -10.5562 -10.4492
    -6.0977  -6.0861  -5.0095   0.6671   1.0031   1.0562   1.3652   1.6804
     1.7002   1.9380   2.8002   2.8890   3.0147   3.0547   3.1159   3.1165
     3.1436   4.7963   7.3665   8.3427

     occupation numbers 
     1.0000   1.0000   1.0000   1.0000   1.0000   1.0000   1.0000   1.0000
     1.0000   1.0000   1.0000   1.0000   1.0000   1.0000   1.0000   1.0000
     1.0000   1.0000   1.0000   1.0000   0.9620   0.8268   0.3712   0.3657
     0.1825   0.0000   0.0000   0.0000

          k = 0.1157 0.2315 0.2315 ( 10504 PWs)   bands (ev):

   -82.8567 -49.0134 -49.0134 -49.0133 -21.3117 -10.6994 -10.6253 -10.4879
    -6.0951  -5.6843  -5.6604   0.6870   1.1349   1.2166   1.6956   1.7683
     1.9514   2.0961   2.2747   2.8525   3.0125   3.0237   3.0459   3.1142
     3.1269   4.4703   7.7268   8.7084

     occupation numbers 
     1.0000   1.0000   1.0000   1.0000   1.0000   1.0000   1.0000   1.0000
     1.0000   1.0000   1.0000   1.0000   1.0000   1.0000   1.0000   1.0000
     1.0000   1.0000   1.0000   1.0000   0.9656   0.9438   0.8699   0.3840
     0.2885   0.0000   0.0000   0.0000

          k = 0.1157 0.2315 0.3472 ( 10494 PWs)   bands (ev):

   -82.8567 -49.0134 -49.0133 -49.0133 -21.3083 -10.7917 -10.6587 -10.4913
    -6.0883  -5.6667  -5.2112   0.5139   1.0193   1.1818   1.2853   1.7347
     1.7997   2.1265   2.2079   2.8389   3.0230   3.0488   3.0761   3.1097
     3.1387   4.6339   7.6599   8.3829

     occupation numbers 
     1.0000   1.0000   1.0000   1.0000   1.0000   1.0000   1.0000   1.0000
     1.0000   1.0000   1.0000   1.0000   1.0000   1.0000   1.0000   1.0000
     1.0000   1.0000   1.0000   1.0000   0.9454   0.8568   0.6904   0.4201
     0.2110   0.0000   0.0000   0.0000

          k = 0.1157 0.2315-0.4629 ( 10490 PWs)   bands (ev):

   -82.8567 -49.0134 -49.0133 -49.0133 -21.3069 -10.8395 -10.6606 -10.4914
    -6.0856  -5.6640  -5.0046   0.4506   0.9732   0.9852   1.1812   1.7429
     1.7907   2.1333   2.2085   2.8339   3.0285   3.0736   3.0880   3.1046
     3.1363   4.6940   7.7351   8.1415

     occupation numbers 
     1.0000   1.0000   1.0000   1.0000   1.0000   1.0000   1.0000   1.0000
     1.0000   1.0000   1.0000   1.0000   1.0000   1.0000   1.0000   1.0000
     1.0000   1.0000   1.0000   1.0000   0.9316   0.7087   0.5990   0.4621
     0.2256   0.0000   0.0000   0.0000

          k = 0.1157 0.3472 0.3472 ( 10495 PWs)   bands (ev):

   -82.8567 -49.0134 -49.0133 -49.0133 -21.3049 -10.7959 -10.7771 -10.4973
    -6.0816  -5.2131  -5.1994   0.3222   1.0046   1.0575   1.1280   1.5281
     1.7903   1.8508   2.3633   2.8203   3.0233   3.0616   3.0735   3.1185
     3.1379   4.6076   7.8496   8.4621

     occupation numbers 
     1.0000   1.0000   1.0000   1.0000   1.0000   1.0000   1.0000   1.0000
     1.0000   1.0000   1.0000   1.0000   1.0000   1.0000   1.0000   1.0000
     1.0000   1.0000   1.0000   1.0000   0.9446   0.7879   0.7091   0.3506
     0.2154   0.0000   0.0000   0.0000

          k = 0.1157 0.3472-0.4629 ( 10490 PWs)   bands (ev):

   -82.8567 -49.0134 -49.0133 -49.0133 -21.3035 -10.8366 -10.7854 -10.4979
    -6.0789  -5.2041  -4.9997   0.2516   0.8984   0.9883   1.0496   1.4470
     1.8154   1.8259   2.4172   2.8130   3.0338   3.0427   3.0904   3.1293
     3.1313   4.5908   8.1393   8.1636

     occupation numbers 
     1.0000   1.0000   1.0000   1.0000   1.0000   1.0000   1.0000   1.0000
     1.0000   1.0000   1.0000   1.0000   1.0000   1.0000   1.0000   1.0000
     1.0000   1.0000   1.0000   1.0000   0.9156   0.8836   0.5791   0.2715
     0.2580   0.0000   0.0000   0.0000

          k = 0.1157-0.4629-0.4629 ( 10488 PWs)   bands (ev):

   -82.8567 -49.0134 -49.0133 -49.0133 -21.3021 -10.8354 -10.8354 -10.4987
    -6.0761  -4.9976  -4.9976   0.1785   0.7801   1.0004   1.0004   1.2704
     1.8245   1.8245   2.4850   2.8043   3.0188   3.0369   3.1161   3.1293
     3.1293   4.5479   8.2802   8.3678

     occupation numbers 
     1.0000   1.0000   1.0000   1.0000   1.0000   1.0000   1.0000   1.0000
     1.0000   1.0000   1.0000   1.0000   1.0000   1.0000   1.0000   1.0000
     1.0000   1.0000   1.0000   1.0000   0.9544   0.9054   0.3689   0.2713
     0.2713   0.0000   0.0000   0.0000

          k = 0.2315 0.2315 0.2315 ( 10510 PWs)   bands (ev):

   -82.8567 -49.0134 -49.0134 -49.0134 -21.3083 -10.7101 -10.6231 -10.6231
    -5.6912  -5.6545  -5.6545   0.6219   0.9468   0.9468   1.8136   1.8740
     1.8740   2.1912   2.2774   2.2774   3.0129   3.0129   3.0297   3.1405
     3.1405   4.5044   7.5380   8.8898

     occupation numbers 
     1.0000   1.0000   1.0000   1.0000   1.0000   1.0000   1.0000   1.0000
     1.0000   1.0000   1.0000   1.0000   1.0000   1.0000   1.0000   1.0000
     1.0000   1.0000   1.0000   1.0000   0.9649   0.9649   0.9282   0.2001
     0.2001   0.0000   0.0000   0.0000

          k = 0.2315 0.2315 0.3472 ( 10495 PWs)   bands (ev):

   -82.8567 -49.0134 -49.0133 -49.0133 -21.3049 -10.7894 -10.6745 -10.6209
    -5.6736  -5.6485  -5.2060   0.4969   0.7599   0.9103   1.2592   1.9160
     1.9634   2.1246   2.2535   2.2802   3.0166   3.0400   3.0422   3.1328
     3.1370   4.4975   7.6725   8.5477

     occupation numbers 
     1.0000   1.0000   1.0000   1.0000   1.0000   1.0000   1.0000   1.0000
     1.0000   1.0000   1.0000   1.0000   1.0000   1.0000   1.0000   1.0000
     1.0000   1.0000   1.0000   1.0000   0.9587   0.8941   0.8852   0.2480
     0.2212   0.0000   0.0000   0.0000

          k = 0.2315 0.2315-0.4629 ( 10500 PWs)   bands (ev):

   -82.8567 -49.0134 -49.0133 -49.0133 -21.3035 -10.8368 -10.6776 -10.6200
    -5.6709  -5.6460  -4.9998   0.4420   0.6936   0.9084   0.9722   1.9289
     2.0095   2.0923   2.2718   2.2783   3.0193   3.0554   3.0789   3.1141
     3.1204   4.4807   8.0328   8.1114

     occupation numbers 
     1.0000   1.0000   1.0000   1.0000   1.0000   1.0000   1.0000   1.0000
     1.0000   1.0000   1.0000   1.0000   1.0000   1.0000   1.0000   1.0000
     1.0000   1.0000   1.0000   1.0000   0.9535   0.8235   0.6697   0.3853
     0.3358   0.0000   0.0000   0.0000

          k = 0.2315 0.3472 0.3472 ( 10488 PWs)   bands (ev):

   -82.8567 -49.0134 -49.0133 -49.0133 -21.3015 -10.7936 -10.7746 -10.6445
    -5.6555  -5.2078  -5.1942   0.3789   0.6985   0.7384   1.0887   1.5362
     2.0234   2.1576   2.2112   2.3911   3.0214   3.0371   3.0378   3.1158
     3.1338   4.3415   7.9426   8.7168

     occupation numbers 
     1.0000   1.0000   1.0000   1.0000   1.0000   1.0000   1.0000   1.0000
     1.0000   1.0000   1.0000   1.0000   1.0000   1.0000   1.0000   1.0000
     1.0000   1.0000   1.0000   1.0000   0.9489   0.9045   0.9020   0.3720
     0.2414   0.0000   0.0000   0.0000

          k = 0.2315 0.3472-0.4629 ( 10492 PWs)   bands (ev):

   -82.8567 -49.0134 -49.0133 -49.0133 -21.3001 -10.8340 -10.7831 -10.6450
    -5.6529  -5.1989  -4.9949   0.3175   0.6519   0.7273   0.8818   1.4492
     2.0595   2.1743   2.2019   2.4438   3.0256   3.0328   3.0630   3.0986
     3.1204   4.2719   8.3306   8.4314

     occupation numbers 
     1.0000   1.0000   1.0000   1.0000   1.0000   1.0000   1.0000   1.0000
     1.0000   1.0000   1.0000   1.0000   1.0000   1.0000   1.0000   1.0000
     1.0000   1.0000   1.0000   1.0000   0.9391   0.9189   0.7796   0.5123
     0.3360   0.0000   0.0000   0.0000

          k = 0.2315-0.4629-0.4629 ( 10468 PWs)   bands (ev):

   -82.8567 -49.0134 -49.0132 -49.0132 -21.2987 -10.8328 -10.8328 -10.6458
    -5.6503  -4.9928  -4.9928   0.2520   0.6647   0.6647   0.7586   1.2742
     2.1088   2.1888   2.1888   2.5137   3.0102   3.0377   3.0851   3.0940
     3.0940   4.1861   8.6443   8.6443

     occupation numbers 
     1.0000   1.0000   1.0000   1.0000   1.0000   1.0000   1.0000   1.0000
     1.0000   1.0000   1.0000   1.0000   1.0000   1.0000   1.0000   1.0000
     1.0000   1.0000   1.0000   1.0000   0.9691   0.9023   0.6215   0.5503
     0.5503   0.0000   0.0000   0.0000

          k = 0.3472 0.3472 0.3472 ( 10465 PWs)   bands (ev):

   -82.8567 -49.0133 -49.0132 -49.0132 -21.2981 -10.7958 -10.7721 -10.7721
    -5.2101  -5.1891  -5.1891   0.4053   0.5264   0.5264   0.9483   1.5411
     1.5411   2.3340   2.3340   2.4464   3.0160   3.0228   3.0228   3.1004
     3.1004   4.0878   8.3001   9.0922

     occupation numbers 
     1.0000   1.0000   1.0000   1.0000   1.0000   1.0000   1.0000   1.0000
     1.0000   1.0000   1.0000   1.0000   1.0000   1.0000   1.0000   1.0000
     1.0000   1.0000   1.0000   1.0000   0.9598   0.9459   0.9459   0.4974
     0.4974   0.0000   0.0000   0.0000

          k = 0.3472 0.3472-0.4629 ( 10442 PWs)   bands (ev):

   -82.8566 -49.0132 -49.0132 -49.0131 -21.2967 -10.8313 -10.7868 -10.7711
    -5.2010  -5.1869  -4.9900   0.3692   0.4524   0.5178   0.7873   1.4058
     1.5430   2.3722   2.4044   2.4905   3.0136   3.0213   3.0468   3.0548
     3.0871   3.9849   8.7142   8.8343

     occupation numbers 
     1.0000   1.0000   1.0000   1.0000   1.0000   1.0000   1.0000   1.0000
     1.0000   1.0000   1.0000   1.0000   1.0000   1.0000   1.0000   1.0000
     1.0000   1.0000   1.0000   1.0000   0.9638   0.9491   0.8657   0.8264
     0.6063   0.0000   0.0000   0.0000

          k = 0.3472-0.4629-0.4629 ( 10452 PWs)   bands (ev):

   -82.8566 -49.0132 -49.0132 -49.0132 -21.2953 -10.8302 -10.8302 -10.7779
    -5.1919  -4.9880  -4.9880   0.3325   0.4447   0.4447   0.6759   1.2780
     1.4862   2.4533   2.4533   2.5458   3.0016   3.0363   3.0363   3.0366
     3.0506   3.8720   9.0821   9.0821

     occupation numbers 
     1.0000   1.0000   1.0000   1.0000   1.0000   1.0000   1.0000   1.0000
     1.0000   1.0000   1.0000   1.0000   1.0000   1.0000   1.0000   1.0000
     1.0000   1.0000   1.0000   1.0000   0.9796   0.9074   0.9074   0.9063
     0.8478   0.0000   0.0000   0.0000

          k =-0.4629-0.4629-0.4629 ( 10432 PWs)   bands (ev):

   -82.8566 -49.0132 -49.0132 -49.0132 -21.2939 -10.8291 -10.8291 -10.8291
    -4.9860  -4.9860  -4.9860   0.3683   0.3683   0.3683   0.5843   1.2796
     1.2796   2.5605   2.5605   2.5605   2.9981   2.9981   2.9981   3.0350
     3.0350   3.7513   9.3842   9.3842

     occupation numbers 
     1.0000   1.0000   1.0000   1.0000   1.0000   1.0000   1.0000   1.0000
     1.0000   1.0000   1.0000   1.0000   1.0000   1.0000   1.0000   1.0000
     1.0000   1.0000   1.0000   1.0000   0.9830   0.9830   0.9830   0.9118
     0.9118   0.0000   0.0000   0.0000

     the Fermi energy is     3.1000 ev

!    total energy              =   -1181.86249545 Ry
     total all-electron energy =    -24146.429842 Ry
     estimated scf accuracy    <          2.8E-12 Ry
     smearing contrib. (-TS)   =      -0.00921449 Ry
     internal energy E=F+TS    =   -1181.85328096 Ry

     The total energy is F=E-TS. E is the sum of the following terms:
     one-electron contribution =    -238.93318862 Ry
     hartree contribution      =     135.91080501 Ry
     xc contribution           =     -73.17399940 Ry
     ewald contribution        =    -213.79552716 Ry
     one-center paw contrib.   =    -791.86137079 Ry
      -> PAW hartree energy AE =      29.70849441 Ry
      -> PAW hartree energy PS =     -29.59077488 Ry
      -> PAW xc energy AE      =    -200.75928921 Ry
      -> PAW xc energy PS      =      18.57180279 Ry
      -> total E_H with PAW    =     136.02852454 Ry
      -> total E_XC with PAW   =    -255.36148582 Ry

     convergence has been achieved in  24 iterations

     Forces acting on atoms (cartesian axes, Ry/au):

     atom    1 type  1   force =     0.00000000    0.00000000    0.00000000
     atom    2 type  2   force =     0.00000000    0.00000000    0.00000000
     atom    3 type  3   force =     0.00000000    0.00000000    0.00000000
     atom    4 type  3   force =     0.00000000    0.00000000    0.00000000
     atom    5 type  3   force =     0.00000000    0.00000000    0.00000000
     The non-local contrib.  to forces
     atom    1 type  1   force =     0.00000000    0.00000000    0.00000000
     atom    2 type  2   force =     0.00000000    0.00000000    0.00000000
     atom    3 type  3   force =     0.00000000    0.00000000    0.00000000
     atom    4 type  3   force =     0.00000000    0.00000000    0.00000000
     atom    5 type  3   force =     0.00000000    0.00000000    0.00000000
     The ionic contribution  to forces
     atom    1 type  1   force =    -0.00000000   -0.00000000   -0.00000000
     atom    2 type  2   force =     0.00000000    0.00000000    0.00000000
     atom    3 type  3   force =     0.00000000   -0.00000000   -0.00000000
     atom    4 type  3   force =    -0.00000000    0.00000000   -0.00000000
     atom    5 type  3   force =    -0.00000000   -0.00000000    0.00000000
     The local contribution  to forces
     atom    1 type  1   force =     0.00000000   -0.00000000   -0.00000000
     atom    2 type  2   force =     0.00000000    0.00000000    0.00000000
     atom    3 type  3   force =    -0.00000000   -0.00000000   -0.00000000
     atom    4 type  3   force =     0.00000000   -0.00000000    0.00000000
     atom    5 type  3   force =     0.00000000    0.00000000   -0.00000000
     The core correction contribution to forces
     atom    1 type  1   force =     0.00000000   -0.00000000    0.00000000
     atom    2 type  2   force =    -0.00000000   -0.00000000   -0.00000000
     atom    3 type  3   force =     0.00000000   -0.00000000    0.00000000
     atom    4 type  3   force =    -0.00000000    0.00000000   -0.00000000
     atom    5 type  3   force =    -0.00000000    0.00000000    0.00000000
     The Hubbard contrib.    to forces
     atom    1 type  1   force =     0.00000000    0.00000000    0.00000000
     atom    2 type  2   force =     0.00000000    0.00000000    0.00000000
     atom    3 type  3   force =     0.00000000    0.00000000    0.00000000
     atom    4 type  3   force =     0.00000000    0.00000000    0.00000000
     atom    5 type  3   force =     0.00000000    0.00000000    0.00000000
     The SCF correction term to forces
     atom    1 type  1   force =    -0.00000000   -0.00000000   -0.00000000
     atom    2 type  2   force =    -0.00000000   -0.00000000   -0.00000000
     atom    3 type  3   force =    -0.00000000    0.00000000    0.00000000
     atom    4 type  3   force =    -0.00000000   -0.00000000    0.00000000
     atom    5 type  3   force =     0.00000000   -0.00000000    0.00000000

     Total force =     0.000000     Total SCF correction =     0.000000


     Computing stress (Cartesian axis) and pressure

          total   stress  (Ry/bohr**3)                   (kbar)     P=       79.17
   0.00053816   0.00000000   0.00000000           79.17        0.00        0.00
   0.00000000   0.00053816   0.00000000            0.00       79.17        0.00
   0.00000000   0.00000000   0.00053816            0.00        0.00       79.17

     kinetic stress (kbar)  11093.35      0.00      0.00
                                0.00  11093.35      0.00
                                0.00      0.00  11093.35

     local   stress (kbar)  -4947.19      0.00     -0.00
                                0.00  -4947.19     -0.00
                               -0.00     -0.00  -4947.19

     nonloc. stress (kbar)    -18.88      0.00      0.00
                                0.00    -18.88      0.00
                                0.00      0.00    -18.88

     hartree stress (kbar)   6089.78     -0.00      0.00
                               -0.00   6089.78      0.00
                                0.00      0.00   6089.78

     exc-cor stress (kbar)    640.19     -0.00     -0.00
                               -0.00    640.19      0.00
                               -0.00      0.00    640.19

     corecor stress (kbar)  -3198.51      0.00      0.00
                                0.00  -3198.51      0.00
                                0.00      0.00  -3198.51

     ewald   stress (kbar)  -9579.58      0.00     -0.00
                                0.00  -9579.58     -0.00
                               -0.00     -0.00  -9579.58

     hubbard stress (kbar)      0.00      0.00      0.00
                                0.00      0.00      0.00
                                0.00      0.00      0.00

     DFT-D   stress (kbar)      0.00      0.00      0.00
                                0.00      0.00      0.00
                                0.00      0.00      0.00

     XDM     stress (kbar)      0.00      0.00      0.00
                                0.00      0.00      0.00
                                0.00      0.00      0.00

     dft-nl  stress (kbar)      0.00      0.00      0.00
                                0.00      0.00      0.00
                                0.00      0.00      0.00

     TS-vdW  stress (kbar)      0.00      0.00      0.00
                                0.00      0.00      0.00
                                0.00      0.00      0.00

     MDB     stress (kbar)      0.00      0.00      0.00
                                0.00      0.00      0.00
                                0.00      0.00      0.00

     3D-RISM stress (kbar)      0.00      0.00      0.00
                                0.00      0.00      0.00
                                0.00      0.00      0.00

     Energy error            =      8.9E-02 Ry
     Gradient error          =      0.0E+00 Ry/Bohr
     Cell gradient error     =      7.9E+01 kbar

     number of scf cycles    =   3
     number of bfgs steps    =   2

     enthalpy           old  =   -1181.7739010463 Ry
     enthalpy           new  =   -1181.8624954521 Ry

     CASE: enthalpy          _new < enthalpy          _old

     new trust radius        =       0.3855919824 bohr
     new conv_thr            =            1.0E-10 Ry

     new unit-cell volume =   1297.06070 a.u.^3 (   192.20457 Ang^3 )
     density =      3.29184 g/cm^3

CELL_PARAMETERS (angstrom)
   5.771046400   0.000000000   0.000000000
   0.000000000   5.771046400   0.000000000
   0.000000000   0.000000000   5.771046400

ATOMIC_POSITIONS (crystal)
Rb               0.0000000000        0.0000000000        0.0000000000
Fe               0.5000000000        0.5000000000        0.5000000000
Br               0.5000000000        0.0000000000        0.0000000000
Br               0.0000000000        0.5000000000        0.0000000000
Br               0.0000000000        0.0000000000        0.5000000000



     Writing config-only to output data dir ./tmp/rbfebr3.save/ :
     XML data file
     NEW-OLD atomic charge density approx. for the potential

     total cpu time spent up to now is     1051.8 secs

     Self-consistent Calculation

     iteration #  1     ecut=    80.00 Ry     beta= 0.40
     Davidson diagonalization with overlap

---- Real-time Memory Report at c_bands before calling an iterative solver
           254 MiB given to the printing process from OS
             0 MiB allocation reported by mallinfo(arena+hblkhd)
         45311 MiB available memory on the node where the printing process lives
------------------
     ethr =  1.00E-06,  avg # of iterations =  8.5

     total cpu time spent up to now is     1098.5 secs

     total energy              =   -1181.75178863 Ry
     estimated scf accuracy    <       0.32903682 Ry

     iteration #  2     ecut=    80.00 Ry     beta= 0.40
     Davidson diagonalization with overlap

---- Real-time Memory Report at c_bands before calling an iterative solver
           254 MiB given to the printing process from OS
             0 MiB allocation reported by mallinfo(arena+hblkhd)
         45327 MiB available memory on the node where the printing process lives
------------------
     ethr =  7.15E-04,  avg # of iterations =  3.0

     total cpu time spent up to now is     1119.5 secs

     total energy              =   -1181.81323397 Ry
     estimated scf accuracy    <      12.00030187 Ry

     iteration #  3     ecut=    80.00 Ry     beta= 0.40
     Davidson diagonalization with overlap

---- Real-time Memory Report at c_bands before calling an iterative solver
           254 MiB given to the printing process from OS
             0 MiB allocation reported by mallinfo(arena+hblkhd)
         45333 MiB available memory on the node where the printing process lives
------------------
     ethr =  7.15E-04,  avg # of iterations =  3.0

     total cpu time spent up to now is     1139.3 secs

     total energy              =   -1181.77376734 Ry
     estimated scf accuracy    <       2.90961719 Ry

     iteration #  4     ecut=    80.00 Ry     beta= 0.40
     Davidson diagonalization with overlap

---- Real-time Memory Report at c_bands before calling an iterative solver
           254 MiB given to the printing process from OS
             0 MiB allocation reported by mallinfo(arena+hblkhd)
         45472 MiB available memory on the node where the printing process lives
------------------
     ethr =  7.15E-04,  avg # of iterations =  1.8

     total cpu time spent up to now is     1155.4 secs

     total energy              =   -1181.95005282 Ry
     estimated scf accuracy    <       0.53147959 Ry

     iteration #  5     ecut=    80.00 Ry     beta= 0.40
     Davidson diagonalization with overlap

---- Real-time Memory Report at c_bands before calling an iterative solver
           254 MiB given to the printing process from OS
             0 MiB allocation reported by mallinfo(arena+hblkhd)
         45268 MiB available memory on the node where the printing process lives
------------------
     ethr =  7.15E-04,  avg # of iterations =  1.0

     total cpu time spent up to now is     1169.2 secs

     total energy              =   -1181.93485288 Ry
     estimated scf accuracy    <       0.40243304 Ry

     iteration #  6     ecut=    80.00 Ry     beta= 0.40
     Davidson diagonalization with overlap

---- Real-time Memory Report at c_bands before calling an iterative solver
           254 MiB given to the printing process from OS
             0 MiB allocation reported by mallinfo(arena+hblkhd)
         45251 MiB available memory on the node where the printing process lives
------------------
     ethr =  7.15E-04,  avg # of iterations =  1.0

     total cpu time spent up to now is     1183.0 secs

     total energy              =   -1181.93405650 Ry
     estimated scf accuracy    <       0.22461019 Ry

     iteration #  7     ecut=    80.00 Ry     beta= 0.40
     Davidson diagonalization with overlap

---- Real-time Memory Report at c_bands before calling an iterative solver
           254 MiB given to the printing process from OS
             0 MiB allocation reported by mallinfo(arena+hblkhd)
         45326 MiB available memory on the node where the printing process lives
------------------
     ethr =  4.88E-04,  avg # of iterations =  1.0

     total cpu time spent up to now is     1196.4 secs

     total energy              =   -1181.91952827 Ry
     estimated scf accuracy    <       0.11465994 Ry

     iteration #  8     ecut=    80.00 Ry     beta= 0.40
     Davidson diagonalization with overlap

---- Real-time Memory Report at c_bands before calling an iterative solver
           254 MiB given to the printing process from OS
             0 MiB allocation reported by mallinfo(arena+hblkhd)
         45283 MiB available memory on the node where the printing process lives
------------------
     ethr =  2.49E-04,  avg # of iterations =  1.0

     total cpu time spent up to now is     1210.2 secs

     total energy              =   -1181.90421635 Ry
     estimated scf accuracy    <       3.77508605 Ry

     iteration #  9     ecut=    80.00 Ry     beta= 0.40
     Davidson diagonalization with overlap

---- Real-time Memory Report at c_bands before calling an iterative solver
           254 MiB given to the printing process from OS
             0 MiB allocation reported by mallinfo(arena+hblkhd)
         45285 MiB available memory on the node where the printing process lives
------------------
     ethr =  2.49E-04,  avg # of iterations =  1.0

     total cpu time spent up to now is     1223.3 secs

     total energy              =   -1181.93340856 Ry
     estimated scf accuracy    <       0.02268920 Ry

     iteration # 10     ecut=    80.00 Ry     beta= 0.40
     Davidson diagonalization with overlap

---- Real-time Memory Report at c_bands before calling an iterative solver
           254 MiB given to the printing process from OS
             0 MiB allocation reported by mallinfo(arena+hblkhd)
         45171 MiB available memory on the node where the printing process lives
------------------
     ethr =  4.93E-05,  avg # of iterations =  1.4

     total cpu time spent up to now is     1237.8 secs

     total energy              =   -1181.93290812 Ry
     estimated scf accuracy    <       0.03267627 Ry

     iteration # 11     ecut=    80.00 Ry     beta= 0.40
     Davidson diagonalization with overlap

---- Real-time Memory Report at c_bands before calling an iterative solver
           254 MiB given to the printing process from OS
             0 MiB allocation reported by mallinfo(arena+hblkhd)
         45426 MiB available memory on the node where the printing process lives
------------------
     ethr =  4.93E-05,  avg # of iterations =  1.0

     total cpu time spent up to now is     1252.0 secs

     total energy              =   -1181.93313395 Ry
     estimated scf accuracy    <       0.00391119 Ry

     iteration # 12     ecut=    80.00 Ry     beta= 0.40
     Davidson diagonalization with overlap

---- Real-time Memory Report at c_bands before calling an iterative solver
           254 MiB given to the printing process from OS
             0 MiB allocation reported by mallinfo(arena+hblkhd)
         45396 MiB available memory on the node where the printing process lives
------------------
     ethr =  8.50E-06,  avg # of iterations =  1.7

     total cpu time spent up to now is     1266.9 secs

     total energy              =   -1181.93316034 Ry
     estimated scf accuracy    <       0.01042591 Ry

     iteration # 13     ecut=    80.00 Ry     beta= 0.40
     Davidson diagonalization with overlap

---- Real-time Memory Report at c_bands before calling an iterative solver
           254 MiB given to the printing process from OS
             0 MiB allocation reported by mallinfo(arena+hblkhd)
         45311 MiB available memory on the node where the printing process lives
------------------
     ethr =  8.50E-06,  avg # of iterations =  1.0

     total cpu time spent up to now is     1280.4 secs

     total energy              =   -1181.93288714 Ry
     estimated scf accuracy    <       0.01051531 Ry

     iteration # 14     ecut=    80.00 Ry     beta= 0.40
     Davidson diagonalization with overlap

---- Real-time Memory Report at c_bands before calling an iterative solver
           254 MiB given to the printing process from OS
             0 MiB allocation reported by mallinfo(arena+hblkhd)
         45351 MiB available memory on the node where the printing process lives
------------------
     ethr =  8.50E-06,  avg # of iterations =  1.0

     total cpu time spent up to now is     1294.5 secs

     total energy              =   -1181.93303402 Ry
     estimated scf accuracy    <       0.00026693 Ry

     iteration # 15     ecut=    80.00 Ry     beta= 0.40
     Davidson diagonalization with overlap

---- Real-time Memory Report at c_bands before calling an iterative solver
           254 MiB given to the printing process from OS
             0 MiB allocation reported by mallinfo(arena+hblkhd)
         45355 MiB available memory on the node where the printing process lives
------------------
     ethr =  5.80E-07,  avg # of iterations =  1.1

     total cpu time spent up to now is     1308.7 secs

     total energy              =   -1181.93303681 Ry
     estimated scf accuracy    <       0.00037790 Ry

     iteration # 16     ecut=    80.00 Ry     beta= 0.40
     Davidson diagonalization with overlap

---- Real-time Memory Report at c_bands before calling an iterative solver
           254 MiB given to the printing process from OS
             0 MiB allocation reported by mallinfo(arena+hblkhd)
         45239 MiB available memory on the node where the printing process lives
------------------
     ethr =  5.80E-07,  avg # of iterations =  1.0

     total cpu time spent up to now is     1322.9 secs

     total energy              =   -1181.93304370 Ry
     estimated scf accuracy    <       0.00007408 Ry

     iteration # 17     ecut=    80.00 Ry     beta= 0.40
     Davidson diagonalization with overlap

---- Real-time Memory Report at c_bands before calling an iterative solver
           254 MiB given to the printing process from OS
             0 MiB allocation reported by mallinfo(arena+hblkhd)
         45409 MiB available memory on the node where the printing process lives
------------------
     ethr =  1.61E-07,  avg # of iterations =  1.0

     total cpu time spent up to now is     1336.8 secs

     total energy              =   -1181.93304213 Ry
     estimated scf accuracy    <       0.00005268 Ry

     iteration # 18     ecut=    80.00 Ry     beta= 0.40
     Davidson diagonalization with overlap

---- Real-time Memory Report at c_bands before calling an iterative solver
           254 MiB given to the printing process from OS
             0 MiB allocation reported by mallinfo(arena+hblkhd)
         45384 MiB available memory on the node where the printing process lives
------------------
     ethr =  1.15E-07,  avg # of iterations =  1.0

     total cpu time spent up to now is     1349.9 secs

     total energy              =   -1181.93304141 Ry
     estimated scf accuracy    <       0.00001606 Ry

     iteration # 19     ecut=    80.00 Ry     beta= 0.40
     Davidson diagonalization with overlap

---- Real-time Memory Report at c_bands before calling an iterative solver
           254 MiB given to the printing process from OS
             0 MiB allocation reported by mallinfo(arena+hblkhd)
         45204 MiB available memory on the node where the printing process lives
------------------
     ethr =  3.49E-08,  avg # of iterations =  1.0

     total cpu time spent up to now is     1363.8 secs

     total energy              =   -1181.93304120 Ry
     estimated scf accuracy    <       0.00001646 Ry

     iteration # 20     ecut=    80.00 Ry     beta= 0.40
     Davidson diagonalization with overlap

---- Real-time Memory Report at c_bands before calling an iterative solver
           254 MiB given to the printing process from OS
             0 MiB allocation reported by mallinfo(arena+hblkhd)
         45481 MiB available memory on the node where the printing process lives
------------------
     ethr =  3.49E-08,  avg # of iterations =  1.0

     total cpu time spent up to now is     1377.4 secs

     total energy              =   -1181.93303863 Ry
     estimated scf accuracy    <       0.00002083 Ry

     iteration # 21     ecut=    80.00 Ry     beta= 0.40
     Davidson diagonalization with overlap

---- Real-time Memory Report at c_bands before calling an iterative solver
           254 MiB given to the printing process from OS
             0 MiB allocation reported by mallinfo(arena+hblkhd)
         45331 MiB available memory on the node where the printing process lives
------------------
     ethr =  3.49E-08,  avg # of iterations =  1.0

     total cpu time spent up to now is     1391.4 secs

     total energy              =   -1181.93303637 Ry
     estimated scf accuracy    <       0.00000885 Ry

     iteration # 22     ecut=    80.00 Ry     beta= 0.40
     Davidson diagonalization with overlap

---- Real-time Memory Report at c_bands before calling an iterative solver
           254 MiB given to the printing process from OS
             0 MiB allocation reported by mallinfo(arena+hblkhd)
         45459 MiB available memory on the node where the printing process lives
------------------
     ethr =  1.92E-08,  avg # of iterations =  2.0

     total cpu time spent up to now is     1409.5 secs

     total energy              =   -1181.93303747 Ry
     estimated scf accuracy    <       0.00000064 Ry

     iteration # 23     ecut=    80.00 Ry     beta= 0.40
     Davidson diagonalization with overlap

---- Real-time Memory Report at c_bands before calling an iterative solver
           254 MiB given to the printing process from OS
             0 MiB allocation reported by mallinfo(arena+hblkhd)
         45285 MiB available memory on the node where the printing process lives
------------------
     ethr =  1.39E-09,  avg # of iterations =  2.6

     total cpu time spent up to now is     1428.6 secs

     total energy              =   -1181.93303750 Ry
     estimated scf accuracy    <       0.00000009 Ry

     iteration # 24     ecut=    80.00 Ry     beta= 0.40
     Davidson diagonalization with overlap

---- Real-time Memory Report at c_bands before calling an iterative solver
           254 MiB given to the printing process from OS
             0 MiB allocation reported by mallinfo(arena+hblkhd)
         45273 MiB available memory on the node where the printing process lives
------------------
     ethr =  1.92E-10,  avg # of iterations =  2.0

     total cpu time spent up to now is     1446.0 secs

     total energy              =   -1181.93303751 Ry
     estimated scf accuracy    <          7.4E-09 Ry

     iteration # 25     ecut=    80.00 Ry     beta= 0.40
     Davidson diagonalization with overlap

---- Real-time Memory Report at c_bands before calling an iterative solver
           254 MiB given to the printing process from OS
             0 MiB allocation reported by mallinfo(arena+hblkhd)
         45285 MiB available memory on the node where the printing process lives
------------------
     ethr =  1.61E-11,  avg # of iterations =  2.1

     total cpu time spent up to now is     1463.4 secs

     total energy              =   -1181.93303751 Ry
     estimated scf accuracy    <          1.6E-09 Ry

     iteration # 26     ecut=    80.00 Ry     beta= 0.40
     Davidson diagonalization with overlap

---- Real-time Memory Report at c_bands before calling an iterative solver
           254 MiB given to the printing process from OS
             0 MiB allocation reported by mallinfo(arena+hblkhd)
         45290 MiB available memory on the node where the printing process lives
------------------
     ethr =  3.50E-12,  avg # of iterations =  2.0

     total cpu time spent up to now is     1480.6 secs

     total energy              =   -1181.93303751 Ry
     estimated scf accuracy    <          2.8E-10 Ry

     iteration # 27     ecut=    80.00 Ry     beta= 0.40
     Davidson diagonalization with overlap

---- Real-time Memory Report at c_bands before calling an iterative solver
           254 MiB given to the printing process from OS
             0 MiB allocation reported by mallinfo(arena+hblkhd)
         45403 MiB available memory on the node where the printing process lives
------------------
     ethr =  6.02E-13,  avg # of iterations =  2.0

     total cpu time spent up to now is     1498.1 secs

     total energy              =   -1181.93303751 Ry
     estimated scf accuracy    <          3.6E-10 Ry

     iteration # 28     ecut=    80.00 Ry     beta= 0.40
     Davidson diagonalization with overlap

---- Real-time Memory Report at c_bands before calling an iterative solver
           254 MiB given to the printing process from OS
             0 MiB allocation reported by mallinfo(arena+hblkhd)
         45296 MiB available memory on the node where the printing process lives
------------------
     ethr =  6.02E-13,  avg # of iterations =  1.0

     total cpu time spent up to now is     1511.9 secs

     total energy              =   -1181.93303751 Ry
     estimated scf accuracy    <          2.0E-10 Ry

     iteration # 29     ecut=    80.00 Ry     beta= 0.40
     Davidson diagonalization with overlap

---- Real-time Memory Report at c_bands before calling an iterative solver
           254 MiB given to the printing process from OS
             0 MiB allocation reported by mallinfo(arena+hblkhd)
         45321 MiB available memory on the node where the printing process lives
------------------
     ethr =  4.45E-13,  avg # of iterations =  2.0

     total cpu time spent up to now is     1530.1 secs

     End of self-consistent calculation

          k = 0.0000 0.0000 0.0000 ( 10443 PWs)   bands (ev):

   -84.5878 -50.7448 -50.7448 -50.7448 -22.5337 -11.6888 -11.5300 -11.5300
    -7.1874  -7.1874  -7.1874   0.2269   0.2269   0.2269   0.6385   0.6385
     0.6385   1.2744   1.2744   1.2851   1.2851   1.2851   1.4564   1.4564
     1.4564   1.8962   7.9935   7.9935

     occupation numbers 
     1.0000   1.0000   1.0000   1.0000   1.0000   1.0000   1.0000   1.0000
     1.0000   1.0000   1.0000   1.0000   1.0000   1.0000   1.0000   1.0000
     1.0000   0.9715   0.9715   0.9535   0.9535   0.9535   0.0300   0.0300
     0.0300   0.0000   0.0000   0.0000

          k = 0.0000 0.0000 0.1094 ( 10519 PWs)   bands (ev):

   -84.5879 -50.7450 -50.7449 -50.7449 -22.5331 -11.6950 -11.5568 -11.5297
    -7.1859  -7.1859  -7.0869   0.1530   0.2314   0.2314   0.6039   0.6062
     0.6062   1.2005   1.2778   1.2854   1.2964   1.3041   1.3041   1.4475
     1.4475   2.0731   7.1616   7.5129

     occupation numbers 
     1.0000   1.0000   1.0000   1.0000   1.0000   1.0000   1.0000   1.0000
     1.0000   1.0000   1.0000   1.0000   1.0000   1.0000   1.0000   1.0000
     1.0000   0.9997   0.9665   0.9529   0.9258   0.9007   0.9007   0.0449
     0.0449   0.0000   0.0000   0.0000

          k = 0.0000 0.0000 0.2187 ( 10495 PWs)   bands (ev):

   -84.5878 -50.7449 -50.7449 -50.7449 -22.5318 -11.7228 -11.6050 -11.5289
    -7.1823  -7.1823  -6.8376   0.0042   0.2477   0.2477   0.5260   0.5260
     0.5289   0.6714   1.2861   1.2861   1.3411   1.3464   1.3464   1.4283
     1.4283   2.4271   6.4098   7.2766

     occupation numbers 
     1.0000   1.0000   1.0000   1.0000   1.0000   1.0000   1.0000   1.0000
     1.0000   1.0000   1.0000   1.0000   1.0000   1.0000   1.0000   1.0000
     1.0000   1.0000   0.9514   0.9514   0.6971   0.6579   0.6579   0.0972
     0.0972   0.0000   0.0000   0.0000

          k = 0.0000 0.0000 0.3281 ( 10491 PWs)   bands (ev):

   -84.5878 -50.7449 -50.7449 -50.7449 -22.5304 -11.7705 -11.6285 -11.5281
    -7.1786  -7.1786  -6.5749  -0.1106   0.1696   0.2819   0.2819   0.4312
     0.4312   0.4627   1.2869   1.2944   1.3776   1.3819   1.3819   1.4151
     1.4151   2.7866   5.8127   7.1048

     occupation numbers 
     1.0000   1.0000   1.0000   1.0000   1.0000   1.0000   1.0000   1.0000
     1.0000   1.0000   1.0000   1.0000   1.0000   1.0000   1.0000   1.0000
     1.0000   1.0000   0.9499   0.9315   0.4039   0.3702   0.3702   0.1536
     0.1536   0.0000   0.0000   0.0000

          k = 0.0000 0.0000-0.4374 ( 10516 PWs)   bands (ev):

   -84.5879 -50.7449 -50.7449 -50.7449 -22.5298 -11.7939 -11.6335 -11.5278
    -7.1771  -7.1771  -6.4609  -0.1258  -0.0619   0.3255   0.3255   0.3632
     0.3632   0.4371   1.2872   1.2978   1.3894   1.3894   1.3910   1.4166
     1.4166   2.9520   5.5693   7.0418

     occupation numbers 
     1.0000   1.0000   1.0000   1.0000   1.0000   1.0000   1.0000   1.0000
     1.0000   1.0000   1.0000   1.0000   1.0000   1.0000   1.0000   1.0000
     1.0000   1.0000   0.9492   0.9216   0.3129   0.3129   0.3009   0.1458
     0.1458   0.0000   0.0000   0.0000

          k = 0.0000 0.1094 0.1094 ( 10505 PWs)   bands (ev):

   -84.5879 -50.7449 -50.7449 -50.7449 -22.5326 -11.7000 -11.5716 -11.5425
    -7.1844  -7.0883  -7.0827   0.0605   0.2352   0.2569   0.5091   0.5770
     0.6610   1.1315   1.2781   1.2861   1.2908   1.2986   1.3089   1.3307
     1.4380   2.2075   6.9689   7.3869

     occupation numbers 
     1.0000   1.0000   1.0000   1.0000   1.0000   1.0000   1.0000   1.0000
     1.0000   1.0000   1.0000   1.0000   1.0000   1.0000   1.0000   1.0000
     1.0000   1.0000   0.9661   0.9514   0.9409   0.9192   0.8819   0.7683
     0.0670   0.0000   0.0000   0.0000

          k = 0.0000 0.1094 0.2187 ( 10507 PWs)   bands (ev):

   -84.5879 -50.7449 -50.7449 -50.7449 -22.5312 -11.7240 -11.6189 -11.5462
    -7.1808  -7.0821  -6.8362  -0.0918   0.2491   0.2646   0.4080   0.5036
     0.6359   0.6955   1.2224   1.2919   1.3022   1.3208   1.3464   1.3637
     1.4172   2.5025   6.3996   7.1842

     occupation numbers 
     1.0000   1.0000   1.0000   1.0000   1.0000   1.0000   1.0000   1.0000
     1.0000   1.0000   1.0000   1.0000   1.0000   1.0000   1.0000   1.0000
     1.0000   1.0000   0.9986   0.9381   0.9074   0.8258   0.6577   0.5185
     0.1431   0.0000   0.0000   0.0000

          k = 0.0000 0.1094 0.3281 ( 10509 PWs)   bands (ev):

   -84.5879 -50.7449 -50.7449 -50.7449 -22.5298 -11.7701 -11.6433 -11.5461
    -7.1771  -7.0786  -6.5738  -0.2060   0.1285   0.2795   0.2810   0.3600
     0.4161   0.6508   1.2063   1.3002   1.3026   1.3581   1.3806   1.3857
     1.4028   2.8046   5.8959   7.0241

     occupation numbers 
     1.0000   1.0000   1.0000   1.0000   1.0000   1.0000   1.0000   1.0000
     1.0000   1.0000   1.0000   1.0000   1.0000   1.0000   1.0000   1.0000
     1.0000   1.0000   0.9995   0.9142   0.9059   0.5643   0.3799   0.3402
     0.2216   0.0000   0.0000   0.0000

          k = 0.0000 0.1094-0.4374 ( 10500 PWs)   bands (ev):

   -84.5879 -50.7449 -50.7449 -50.7449 -22.5293 -11.7933 -11.6482 -11.5459
    -7.1756  -7.0771  -6.4598  -0.2363  -0.0696   0.2524   0.3197   0.3477
     0.3528   0.6385   1.2001   1.3028   1.3037   1.3831   1.3840   1.3847
     1.4078   2.9400   5.6930   6.9386

     occupation numbers 
     1.0000   1.0000   1.0000   1.0000   1.0000   1.0000   1.0000   1.0000
     1.0000   1.0000   1.0000   1.0000   1.0000   1.0000   1.0000   1.0000
     1.0000   1.0000   0.9997   0.9053   0.9020   0.3604   0.3534   0.3479
     0.1921   0.0000   0.0000   0.0000

          k = 0.0000 0.2187 0.2187 ( 10467 PWs)   bands (ev):

   -84.5878 -50.7449 -50.7449 -50.7448 -22.5298 -11.7334 -11.6666 -11.5636
    -7.1772  -6.8392  -6.8273  -0.2643   0.2561   0.2825   0.2982   0.4464
     0.5468   0.7471   0.8951   1.2960   1.3271   1.3343   1.3519   1.3697
     1.3926   2.6742   6.2940   7.0028

     occupation numbers 
     1.0000   1.0000   1.0000   1.0000   1.0000   1.0000   1.0000   1.0000
     1.0000   1.0000   1.0000   1.0000   1.0000   1.0000   1.0000   1.0000
     1.0000   1.0000   1.0000   0.9269   0.7903   0.7443   0.6146   0.4687
     0.2897   0.0000   0.0000   0.0000

          k = 0.0000 0.2187 0.3281 ( 10502 PWs)   bands (ev):

   -84.5879 -50.7449 -50.7449 -50.7449 -22.5285 -11.7692 -11.6964 -11.5681
    -7.1736  -6.8302  -6.5710  -0.3961   0.0659   0.2758   0.2887   0.3205
     0.3776   0.7452   0.8677   1.3073   1.3403   1.3441   1.3694   1.3707
     1.3838   2.8426   6.0961   6.8470

     occupation numbers 
     1.0000   1.0000   1.0000   1.0000   1.0000   1.0000   1.0000   1.0000
     1.0000   1.0000   1.0000   1.0000   1.0000   1.0000   1.0000   1.0000
     1.0000   1.0000   1.0000   0.8886   0.7029   0.6748   0.4709   0.4602
     0.3554   0.0000   0.0000   0.0000

          k = 0.0000 0.2187-0.4374 ( 10500 PWs)   bands (ev):

   -84.5879 -50.7449 -50.7449 -50.7449 -22.5279 -11.7920 -11.7007 -11.5689
    -7.1721  -6.8288  -6.4572  -0.4415  -0.1066   0.2619   0.3064   0.3071
     0.3269   0.7494   0.8690   1.3190   1.3404   1.3441   1.3614   1.3736
     1.3982   2.9131   6.0035   6.7868

     occupation numbers 
     1.0000   1.0000   1.0000   1.0000   1.0000   1.0000   1.0000   1.0000
     1.0000   1.0000   1.0000   1.0000   1.0000   1.0000   1.0000   1.0000
     1.0000   1.0000   1.0000   0.8356   0.7022   0.6750   0.5371   0.4366
     0.2511   0.0000   0.0000   0.0000

          k = 0.0000 0.3281 0.3281 ( 10487 PWs)   bands (ev):

   -84.5878 -50.7449 -50.7449 -50.7449 -22.5271 -11.7728 -11.7551 -11.5756
    -7.1700  -6.5715  -6.5650  -0.5444  -0.0915   0.2600   0.2787   0.3211
     0.3324   0.4499   0.9725   1.3026   1.3405   1.3455   1.3729   1.3751
     1.3829   2.8765   6.2857   6.6863

     occupation numbers 
     1.0000   1.0000   1.0000   1.0000   1.0000   1.0000   1.0000   1.0000
     1.0000   1.0000   1.0000   1.0000   1.0000   1.0000   1.0000   1.0000
     1.0000   1.0000   1.0000   0.9059   0.7018   0.6642   0.4426   0.4248
     0.3623   0.0000   0.0000   0.0000

          k = 0.0000 0.3281-0.4374 ( 10496 PWs)   bands (ev):

   -84.5878 -50.7449 -50.7449 -50.7449 -22.5265 -11.7906 -11.7635 -11.5771
    -7.1685  -6.5671  -6.4545  -0.5976  -0.2154   0.2527   0.2937   0.3000
     0.3011   0.4021   1.0055   1.3105   1.3198   1.3358   1.3779   1.3872
     1.3946   2.8897   6.3438   6.6233

     occupation numbers 
     1.0000   1.0000   1.0000   1.0000   1.0000   1.0000   1.0000   1.0000
     1.0000   1.0000   1.0000   1.0000   1.0000   1.0000   1.0000   1.0000
     1.0000   1.0000   1.0000   0.8755   0.8311   0.7343   0.4016   0.3293
     0.2758   0.0000   0.0000   0.0000

          k = 0.0000-0.4374-0.4374 ( 10488 PWs)   bands (ev):

   -84.5878 -50.7449 -50.7449 -50.7449 -22.5260 -11.7900 -11.7900 -11.5788
    -7.1670  -6.4534  -6.4534  -0.6538  -0.3067   0.2161   0.2887   0.2887
     0.3204   0.3204   1.0453   1.2978   1.3132   1.3256   1.3935   1.3935
     1.4032   2.8813   6.4987   6.5588

     occupation numbers 
     1.0000   1.0000   1.0000   1.0000   1.0000   1.0000   1.0000   1.0000
     1.0000   1.0000   1.0000   1.0000   1.0000   1.0000   1.0000   1.0000
     1.0000   1.0000   1.0000   0.9216   0.8633   0.7991   0.2835   0.2835
     0.2189   0.0000   0.0000   0.0000

          k = 0.1094 0.1094 0.1094 ( 10515 PWs)   bands (ev):

   -84.5879 -50.7449 -50.7449 -50.7449 -22.5320 -11.7041 -11.5713 -11.5713
    -7.0897  -7.0812  -7.0812  -0.0061   0.2335   0.2335   0.5122   0.5122
     0.7055   1.0682   1.2705   1.2705   1.2851   1.2851   1.3035   1.3403
     1.3403   2.3148   6.7442   7.2745

     occupation numbers 
     1.0000   1.0000   1.0000   1.0000   1.0000   1.0000   1.0000   1.0000
     1.0000   1.0000   1.0000   1.0000   1.0000   1.0000   1.0000   1.0000
     1.0000   1.0000   0.9764   0.9764   0.9536   0.9536   0.9028   0.7029
     0.7029   0.0000   0.0000   0.0000

          k = 0.1094 0.1094 0.2187 ( 10501 PWs)   bands (ev):

   -84.5879 -50.7450 -50.7449 -50.7449 -22.5306 -11.7252 -11.6258 -11.5704
    -7.0836  -7.0778  -6.8349  -0.1418   0.1644   0.2323   0.4571   0.4809
     0.6702   0.7225   1.1782   1.2538   1.2879   1.3096   1.3122   1.3533
     1.3788   2.5604   6.3217   6.9982

     occupation numbers 
     1.0000   1.0000   1.0000   1.0000   1.0000   1.0000   1.0000   1.0000
     1.0000   1.0000   1.0000   1.0000   1.0000   1.0000   1.0000   1.0000
     1.0000   1.0000   1.0000   0.9901   0.9477   0.8790   0.8678   0.6036
     0.3947   0.0000   0.0000   0.0000

          k = 0.1094 0.1094 0.3281 ( 10491 PWs)   bands (ev):

   -84.5878 -50.7449 -50.7449 -50.7449 -22.5293 -11.7696 -11.6525 -11.5695
    -7.0800  -7.0743  -6.5726  -0.2499   0.0895   0.1262   0.2338   0.4432
     0.5299   0.7044   1.1541   1.2391   1.2932   1.3240   1.3519   1.3651
     1.3987   2.8088   5.9529   6.7846

     occupation numbers 
     1.0000   1.0000   1.0000   1.0000   1.0000   1.0000   1.0000   1.0000
     1.0000   1.0000   1.0000   1.0000   1.0000   1.0000   1.0000   1.0000
     1.0000   1.0000   1.0000   0.9958   0.9348   0.8084   0.6143   0.5070
     0.2481   0.0000   0.0000   0.0000

          k = 0.1094 0.1094-0.4374 ( 10498 PWs)   bands (ev):

   -84.5878 -50.7449 -50.7449 -50.7449 -22.5287 -11.7928 -11.6576 -11.5692
    -7.0786  -7.0728  -6.4587  -0.2808  -0.0776   0.0589   0.2340   0.4432
     0.5189   0.6914   1.1452   1.2335   1.2953   1.3290   1.3713   1.3784
     1.3973   2.9163   5.8057   6.7058

     occupation numbers 
     1.0000   1.0000   1.0000   1.0000   1.0000   1.0000   1.0000   1.0000
     1.0000   1.0000   1.0000   1.0000   1.0000   1.0000   1.0000   1.0000
     1.0000   1.0000   1.0000   0.9971   0.9290   0.7789   0.4553   0.3977
     0.2574   0.0000   0.0000   0.0000

          k = 0.1094 0.2187 0.2187 ( 10504 PWs)   bands (ev):

   -84.5879 -50.7449 -50.7449 -50.7449 -22.5293 -11.7340 -11.6662 -11.5956
    -7.0773  -6.8378  -6.8260  -0.2725   0.0907   0.1486   0.4188   0.5185
     0.5575   0.7925   0.8936   1.2054   1.2960   1.3050   1.3205   1.3766
     1.3860   2.6910   6.1618   6.9144

     occupation numbers 
     1.0000   1.0000   1.0000   1.0000   1.0000   1.0000   1.0000   1.0000
     1.0000   1.0000   1.0000   1.0000   1.0000   1.0000   1.0000   1.0000
     1.0000   1.0000   1.0000   0.9996   0.9270   0.8974   0.8278   0.4125
     0.3382   0.0000   0.0000   0.0000

          k = 0.1094 0.2187 0.3281 ( 10494 PWs)   bands (ev):

   -84.5878 -50.7449 -50.7449 -50.7449 -22.5279 -11.7688 -11.6971 -11.5998
    -7.0738  -6.8289  -6.5698  -0.3897   0.0054   0.0856   0.1261   0.4882
     0.5661   0.7605   0.8742   1.1843   1.3020   1.3241   1.3454   1.3723
     1.3953   2.8115   6.0841   6.6792

     occupation numbers 
     1.0000   1.0000   1.0000   1.0000   1.0000   1.0000   1.0000   1.0000
     1.0000   1.0000   1.0000   1.0000   1.0000   1.0000   1.0000   1.0000
     1.0000   1.0000   1.0000   0.9999   0.9082   0.8075   0.6653   0.4470
     0.2708   0.0000   0.0000   0.0000

          k = 0.1094 0.2187-0.4374 ( 10490 PWs)   bands (ev):

   -84.5878 -50.7449 -50.7449 -50.7449 -22.5273 -11.7914 -11.7017 -11.6004
    -7.0724  -6.8275  -6.4561  -0.4311  -0.1160  -0.0091   0.1194   0.4884
     0.5793   0.7454   0.8786   1.1761   1.3055   1.3400   1.3564   1.3713
     1.3920   2.8581   6.0966   6.5304

     occupation numbers 
     1.0000   1.0000   1.0000   1.0000   1.0000   1.0000   1.0000   1.0000
     1.0000   1.0000   1.0000   1.0000   1.0000   1.0000   1.0000   1.0000
     1.0000   1.0000   1.0000   1.0000   0.8955   0.7052   0.5785   0.4553
     0.2936   0.0000   0.0000   0.0000

          k = 0.1094 0.3281 0.3281 ( 10495 PWs)   bands (ev):

   -84.5878 -50.7449 -50.7449 -50.7449 -22.5265 -11.7724 -11.7546 -11.6084
    -7.0703  -6.5703  -6.5639  -0.5244  -0.1082   0.0330   0.0451   0.3664
     0.5621   0.6262   0.9815   1.1565   1.3022   1.3309   1.3472   1.3800
     1.3973   2.8042   6.2448   6.6723

     occupation numbers 
     1.0000   1.0000   1.0000   1.0000   1.0000   1.0000   1.0000   1.0000
     1.0000   1.0000   1.0000   1.0000   1.0000   1.0000   1.0000   1.0000
     1.0000   1.0000   1.0000   1.0000   0.9072   0.7667   0.6518   0.3847
     0.2569   0.0000   0.0000   0.0000

          k = 0.1094 0.3281-0.4374 ( 10490 PWs)   bands (ev):

   -84.5878 -50.7449 -50.7449 -50.7449 -22.5260 -11.7901 -11.7631 -11.6098
    -7.0689  -6.5660  -6.4534  -0.5748  -0.2257  -0.0004   0.0388   0.3123
     0.5958   0.5970   1.0148   1.1450   1.3088   1.3170   1.3621   1.3886
     1.3934   2.7984   6.4277   6.5035

     occupation numbers 
     1.0000   1.0000   1.0000   1.0000   1.0000   1.0000   1.0000   1.0000
     1.0000   1.0000   1.0000   1.0000   1.0000   1.0000   1.0000   1.0000
     1.0000   1.0000   1.0000   1.0000   0.8824   0.8454   0.5317   0.3190
     0.2837   0.0000   0.0000   0.0000

          k = 0.1094-0.4374-0.4374 ( 10488 PWs)   bands (ev):

   -84.5878 -50.7449 -50.7449 -50.7449 -22.5254 -11.7895 -11.7895 -11.6116
    -7.0674  -6.4523  -6.4523  -0.6286  -0.3161   0.0084   0.0084   0.2172
     0.6023   0.6023   1.0557   1.1315   1.2966   1.3130   1.3873   1.3873
     1.3925   2.7733   6.5829   6.6911

     occupation numbers 
     1.0000   1.0000   1.0000   1.0000   1.0000   1.0000   1.0000   1.0000
     1.0000   1.0000   1.0000   1.0000   1.0000   1.0000   1.0000   1.0000
     1.0000   1.0000   1.0000   1.0000   0.9252   0.8643   0.3283   0.3283
     0.2901   0.0000   0.0000   0.0000

          k = 0.2187 0.2187 0.2187 ( 10510 PWs)   bands (ev):

   -84.5879 -50.7449 -50.7449 -50.7449 -22.5279 -11.7396 -11.6652 -11.6652
    -6.8409  -6.8229  -6.8229  -0.3216  -0.0344  -0.0344   0.3659   0.5713
     0.5713   0.8754   0.8912   0.8912   1.2950   1.2950   1.3100   1.3981
     1.3981   2.7193   6.0409   7.0518

     occupation numbers 
     1.0000   1.0000   1.0000   1.0000   1.0000   1.0000   1.0000   1.0000
     1.0000   1.0000   1.0000   1.0000   1.0000   1.0000   1.0000   1.0000
     1.0000   1.0000   1.0000   1.0000   0.9298   0.9298   0.8773   0.2520
     0.2520   0.0000   0.0000   0.0000

          k = 0.2187 0.2187 0.3281 ( 10495 PWs)   bands (ev):

   -84.5878 -50.7449 -50.7449 -50.7449 -22.5265 -11.7680 -11.7073 -11.6642
    -6.8320  -6.8197  -6.5670  -0.4019  -0.1660  -0.0715   0.0330   0.5977
     0.5998   0.8015   0.8862   0.9235   1.2961   1.3166   1.3191   1.3939
     1.3965   2.7272   6.1286   6.7827

     occupation numbers 
     1.0000   1.0000   1.0000   1.0000   1.0000   1.0000   1.0000   1.0000
     1.0000   1.0000   1.0000   1.0000   1.0000   1.0000   1.0000   1.0000
     1.0000   1.0000   1.0000   1.0000   0.9266   0.8476   0.8349   0.2807
     0.2622   0.0000   0.0000   0.0000

          k = 0.2187 0.2187-0.4374 ( 10500 PWs)   bands (ev):

   -84.5878 -50.7450 -50.7449 -50.7449 -22.5260 -11.7901 -11.7133 -11.6638
    -6.8306  -6.8184  -6.4535  -0.4347  -0.2131  -0.1619  -0.0574   0.6071
     0.6179   0.7863   0.8851   0.9328   1.2977   1.3259   1.3492   1.3794
     1.3862   2.7239   6.3515   6.4869

     occupation numbers 
     1.0000   1.0000   1.0000   1.0000   1.0000   1.0000   1.0000   1.0000
     1.0000   1.0000   1.0000   1.0000   1.0000   1.0000   1.0000   1.0000
     1.0000   1.0000   1.0000   1.0000   0.9220   0.7975   0.6359   0.3899
     0.3365   0.0000   0.0000   0.0000

          k = 0.2187 0.3281 0.3281 ( 10488 PWs)   bands (ev):

   -84.5878 -50.7449 -50.7449 -50.7449 -22.5252 -11.7715 -11.7534 -11.6838
    -6.8229  -6.5675  -6.5611  -0.4772  -0.2269  -0.1859  -0.1268   0.3723
     0.6574   0.8363   0.8559   1.0098   1.3008   1.3131   1.3150   1.3826
     1.3977   2.6310   6.3312   6.8935

     occupation numbers 
     1.0000   1.0000   1.0000   1.0000   1.0000   1.0000   1.0000   1.0000
     1.0000   1.0000   1.0000   1.0000   1.0000   1.0000   1.0000   1.0000
     1.0000   1.0000   1.0000   1.0000   0.9120   0.8639   0.8554   0.3643
     0.2544   0.0000   0.0000   0.0000

          k = 0.2187 0.3281-0.4374 ( 10492 PWs)   bands (ev):

   -84.5878 -50.7449 -50.7449 -50.7449 -22.5246 -11.7889 -11.7622 -11.6852
    -6.8216  -6.5632  -6.4508  -0.5176  -0.2733  -0.2490  -0.1859   0.3135
     0.6782   0.8468   0.8557   1.0417   1.3034   1.3082   1.3381   1.3691
     1.3894   2.5878   6.6312   6.6683

     occupation numbers 
     1.0000   1.0000   1.0000   1.0000   1.0000   1.0000   1.0000   1.0000
     1.0000   1.0000   1.0000   1.0000   1.0000   1.0000   1.0000   1.0000
     1.0000   1.0000   1.0000   1.0000   0.9030   0.8849   0.7183   0.4740
     0.3125   0.0000   0.0000   0.0000

          k = 0.2187-0.4374-0.4374 ( 10468 PWs)   bands (ev):

   -84.5878 -50.7449 -50.7448 -50.7448 -22.5240 -11.7883 -11.7883 -11.6871
    -6.8202  -6.4497  -6.4497  -0.5640  -0.3571  -0.2398  -0.2398   0.2196
     0.7012   0.8592   0.8592   1.0839   1.2913   1.3117   1.3634   1.3657
     1.3657   2.5308   6.8284   6.8284

     occupation numbers 
     1.0000   1.0000   1.0000   1.0000   1.0000   1.0000   1.0000   1.0000
     1.0000   1.0000   1.0000   1.0000   1.0000   1.0000   1.0000   1.0000
     1.0000   1.0000   1.0000   1.0000   0.9395   0.8701   0.5207   0.5020
     0.5020   0.0000   0.0000   0.0000

          k = 0.3281 0.3281 0.3281 ( 10465 PWs)   bands (ev):

   -84.5878 -50.7449 -50.7449 -50.7449 -22.5238 -11.7732 -11.7523 -11.7523
    -6.5683  -6.5584  -6.5584  -0.4535  -0.3420  -0.3420  -0.2681   0.3760
     0.3760   0.9568   0.9568   1.0587   1.2979   1.3005   1.3005   1.3739
     1.3739   2.4588   6.6034   7.1844

     occupation numbers 
     1.0000   1.0000   1.0000   1.0000   1.0000   1.0000   1.0000   1.0000
     1.0000   1.0000   1.0000   1.0000   1.0000   1.0000   1.0000   1.0000
     1.0000   1.0000   1.0000   1.0000   0.9212   0.9132   0.9132   0.4338
     0.4338   0.0000   0.0000   0.0000

          k = 0.3281 0.3281-0.4374 ( 10442 PWs)   bands (ev):

   -84.5878 -50.7449 -50.7448 -50.7448 -22.5232 -11.7876 -11.7657 -11.7518
    -6.5638  -6.5572  -6.4482  -0.4711  -0.3968  -0.3811  -0.3407   0.2895
     0.3774   0.9886   1.0064   1.0860   1.2949   1.2993   1.3202   1.3390
     1.3653   2.3873   6.9141   6.9936

     occupation numbers 
     1.0000   1.0000   1.0000   1.0000   1.0000   1.0000   1.0000   1.0000
     1.0000   1.0000   1.0000   1.0000   1.0000   1.0000   1.0000   1.0000
     1.0000   1.0000   1.0000   1.0000   0.9300   0.9170   0.8291   0.7122
     0.5055   0.0000   0.0000   0.0000

          k = 0.3281-0.4374-0.4374 ( 10452 PWs)   bands (ev):

   -84.5878 -50.7449 -50.7449 -50.7448 -22.5226 -11.7871 -11.7871 -11.7583
    -6.5594  -6.4471  -6.4471  -0.4930  -0.4536  -0.4041  -0.4041   0.2221
     0.3402   1.0499   1.0499   1.1198   1.2860   1.3088   1.3233   1.3233
     1.3266   2.3061   7.1743   7.1743

     occupation numbers 
     1.0000   1.0000   1.0000   1.0000   1.0000   1.0000   1.0000   1.0000
     1.0000   1.0000   1.0000   1.0000   1.0000   1.0000   1.0000   1.0000
     1.0000   1.0000   1.0000   1.0000   0.9516   0.8824   0.8124   0.8124
     0.7930   0.0000   0.0000   0.0000

          k =-0.4374-0.4374-0.4374 ( 10432 PWs)   bands (ev):

   -84.5878 -50.7448 -50.7448 -50.7448 -22.5221 -11.7866 -11.7866 -11.7866
    -6.4460  -6.4460  -6.4460  -0.5250  -0.4614  -0.4614  -0.4614   0.2232
     0.2232   1.1392   1.1392   1.1392   1.2838   1.2838   1.2838   1.3069
     1.3069   2.2167   7.3797   7.3797

     occupation numbers 
     1.0000   1.0000   1.0000   1.0000   1.0000   1.0000   1.0000   1.0000
     1.0000   1.0000   1.0000   1.0000   1.0000   1.0000   1.0000   1.0000
     1.0000   1.0000   1.0000   1.0000   0.9561   0.9561   0.9561   0.8902
     0.8902   0.0000   0.0000   0.0000

     the Fermi energy is     1.3659 ev

!    total energy              =   -1181.93303751 Ry
     total all-electron energy =    -24146.500384 Ry
     estimated scf accuracy    <          4.9E-12 Ry
     smearing contrib. (-TS)   =      -0.01081655 Ry
     internal energy E=F+TS    =   -1181.92222096 Ry

     The total energy is F=E-TS. E is the sum of the following terms:
     one-electron contribution =    -258.21505476 Ry
     hartree contribution      =     143.12732662 Ry
     xc contribution           =     -72.97260357 Ry
     ewald contribution        =    -202.02172498 Ry
     one-center paw contrib.   =    -791.84016427 Ry
      -> PAW hartree energy AE =      29.29260332 Ry
      -> PAW hartree energy PS =     -29.17616798 Ry
      -> PAW xc energy AE      =    -200.69342347 Ry
      -> PAW xc energy PS      =      18.51298311 Ry
      -> total E_H with PAW    =     143.24376197 Ry
      -> total E_XC with PAW   =    -255.15304393 Ry

     convergence has been achieved in  29 iterations

     Forces acting on atoms (cartesian axes, Ry/au):

     atom    1 type  1   force =     0.00000000    0.00000000    0.00000000
     atom    2 type  2   force =     0.00000000    0.00000000    0.00000000
     atom    3 type  3   force =     0.00000000    0.00000000    0.00000000
     atom    4 type  3   force =     0.00000000    0.00000000    0.00000000
     atom    5 type  3   force =     0.00000000    0.00000000    0.00000000
     The non-local contrib.  to forces
     atom    1 type  1   force =     0.00000000    0.00000000    0.00000000
     atom    2 type  2   force =     0.00000000    0.00000000    0.00000000
     atom    3 type  3   force =     0.00000000    0.00000000    0.00000000
     atom    4 type  3   force =     0.00000000    0.00000000    0.00000000
     atom    5 type  3   force =     0.00000000    0.00000000    0.00000000
     The ionic contribution  to forces
     atom    1 type  1   force =    -0.00000000   -0.00000000   -0.00000000
     atom    2 type  2   force =    -0.00000000   -0.00000000   -0.00000000
     atom    3 type  3   force =    -0.00000000   -0.00000000   -0.00000000
     atom    4 type  3   force =    -0.00000000   -0.00000000   -0.00000000
     atom    5 type  3   force =    -0.00000000   -0.00000000   -0.00000000
     The local contribution  to forces
     atom    1 type  1   force =     0.00000000   -0.00000000    0.00000000
     atom    2 type  2   force =     0.00000000    0.00000000    0.00000000
     atom    3 type  3   force =    -0.00000000   -0.00000000    0.00000000
     atom    4 type  3   force =    -0.00000000   -0.00000000   -0.00000000
     atom    5 type  3   force =     0.00000000   -0.00000000   -0.00000000
     The core correction contribution to forces
     atom    1 type  1   force =    -0.00000000   -0.00000000    0.00000000
     atom    2 type  2   force =     0.00000000    0.00000000    0.00000000
     atom    3 type  3   force =     0.00000000    0.00000000   -0.00000000
     atom    4 type  3   force =    -0.00000000    0.00000000    0.00000000
     atom    5 type  3   force =    -0.00000000   -0.00000000    0.00000000
     The Hubbard contrib.    to forces
     atom    1 type  1   force =     0.00000000    0.00000000    0.00000000
     atom    2 type  2   force =     0.00000000    0.00000000    0.00000000
     atom    3 type  3   force =     0.00000000    0.00000000    0.00000000
     atom    4 type  3   force =     0.00000000    0.00000000    0.00000000
     atom    5 type  3   force =     0.00000000    0.00000000    0.00000000
     The SCF correction term to forces
     atom    1 type  1   force =    -0.00000000    0.00000000    0.00000000
     atom    2 type  2   force =    -0.00000000   -0.00000000   -0.00000000
     atom    3 type  3   force =     0.00000000    0.00000000    0.00000000
     atom    4 type  3   force =    -0.00000000    0.00000000   -0.00000000
     atom    5 type  3   force =     0.00000000    0.00000000    0.00000000

     Total force =     0.000000     Total SCF correction =     0.000000


     Computing stress (Cartesian axis) and pressure

          total   stress  (Ry/bohr**3)                   (kbar)     P=       30.15
   0.00020495   0.00000000   0.00000000           30.15        0.00        0.00
   0.00000000   0.00020495   0.00000000            0.00       30.15        0.00
   0.00000000   0.00000000   0.00020495            0.00        0.00       30.15

     kinetic stress (kbar)   9321.71      0.00      0.00
                                0.00   9321.71      0.00
                                0.00      0.00   9321.71

     local   stress (kbar)  -4891.24     -0.00     -0.00
                               -0.00  -4891.24      0.00
                               -0.00      0.00  -4891.24

     nonloc. stress (kbar)    -22.01      0.00      0.00
                                0.00    -22.01      0.00
                                0.00      0.00    -22.01

     hartree stress (kbar)   5410.89     -0.00     -0.00
                               -0.00   5410.89     -0.00
                               -0.00     -0.00   5410.89

     exc-cor stress (kbar)    545.50     -0.00      0.00
                               -0.00    545.50     -0.00
                                0.00     -0.00    545.50

     corecor stress (kbar)  -2697.32      0.00      0.00
                                0.00  -2697.32      0.00
                                0.00      0.00  -2697.32

     ewald   stress (kbar)  -7637.38      0.00     -0.00
                                0.00  -7637.38     -0.00
                               -0.00     -0.00  -7637.38

     hubbard stress (kbar)      0.00      0.00      0.00
                                0.00      0.00      0.00
                                0.00      0.00      0.00

     DFT-D   stress (kbar)      0.00      0.00      0.00
                                0.00      0.00      0.00
                                0.00      0.00      0.00

     XDM     stress (kbar)      0.00      0.00      0.00
                                0.00      0.00      0.00
                                0.00      0.00      0.00

     dft-nl  stress (kbar)      0.00      0.00      0.00
                                0.00      0.00      0.00
                                0.00      0.00      0.00

     TS-vdW  stress (kbar)      0.00      0.00      0.00
                                0.00      0.00      0.00
                                0.00      0.00      0.00

     MDB     stress (kbar)      0.00      0.00      0.00
                                0.00      0.00      0.00
                                0.00      0.00      0.00

     3D-RISM stress (kbar)      0.00      0.00      0.00
                                0.00      0.00      0.00
                                0.00      0.00      0.00

     Energy error            =      7.1E-02 Ry
     Gradient error          =      0.0E+00 Ry/Bohr
     Cell gradient error     =      3.0E+01 kbar

     number of scf cycles    =   4
     number of bfgs steps    =   3

     enthalpy           old  =   -1181.8624954521 Ry
     enthalpy           new  =   -1181.9330375102 Ry

     CASE: enthalpy          _new < enthalpy          _old

     new trust radius        =       0.2950102889 bohr
     new conv_thr            =            1.0E-10 Ry

     new unit-cell volume =   1463.04787 a.u.^3 (   216.80133 Ang^3 )
     density =      2.91837 g/cm^3

CELL_PARAMETERS (angstrom)
   6.007410538   0.000000000   0.000000000
   0.000000000   6.007410538   0.000000000
   0.000000000   0.000000000   6.007410538

ATOMIC_POSITIONS (crystal)
Rb               0.0000000000        0.0000000000        0.0000000000
Fe               0.5000000000        0.5000000000        0.5000000000
Br               0.5000000000        0.0000000000        0.0000000000
Br               0.0000000000        0.5000000000        0.0000000000
Br               0.0000000000        0.0000000000        0.5000000000



     Writing config-only to output data dir ./tmp/rbfebr3.save/ :
     XML data file
     NEW-OLD atomic charge density approx. for the potential

     total cpu time spent up to now is     1544.1 secs

     Self-consistent Calculation

     iteration #  1     ecut=    80.00 Ry     beta= 0.40
     Davidson diagonalization with overlap

---- Real-time Memory Report at c_bands before calling an iterative solver
           254 MiB given to the printing process from OS
             0 MiB allocation reported by mallinfo(arena+hblkhd)
         45312 MiB available memory on the node where the printing process lives
------------------
     ethr =  1.00E-06,  avg # of iterations =  7.3

     total cpu time spent up to now is     1586.3 secs

     total energy              =   -1181.89725568 Ry
     estimated scf accuracy    <       0.10671547 Ry

     iteration #  2     ecut=    80.00 Ry     beta= 0.40
     Davidson diagonalization with overlap

---- Real-time Memory Report at c_bands before calling an iterative solver
           254 MiB given to the printing process from OS
             0 MiB allocation reported by mallinfo(arena+hblkhd)
         45477 MiB available memory on the node where the printing process lives
------------------
     ethr =  2.32E-04,  avg # of iterations =  3.0

     total cpu time spent up to now is     1607.0 secs

     total energy              =   -1181.89540217 Ry
     estimated scf accuracy    <       9.52369851 Ry

     iteration #  3     ecut=    80.00 Ry     beta= 0.40
     Davidson diagonalization with overlap

---- Real-time Memory Report at c_bands before calling an iterative solver
           254 MiB given to the printing process from OS
             0 MiB allocation reported by mallinfo(arena+hblkhd)
         45230 MiB available memory on the node where the printing process lives
------------------
     ethr =  2.32E-04,  avg # of iterations =  3.0

     total cpu time spent up to now is     1628.1 secs

     total energy              =   -1181.91540731 Ry
     estimated scf accuracy    <       0.82319546 Ry

     iteration #  4     ecut=    80.00 Ry     beta= 0.40
     Davidson diagonalization with overlap

---- Real-time Memory Report at c_bands before calling an iterative solver
           254 MiB given to the printing process from OS
             0 MiB allocation reported by mallinfo(arena+hblkhd)
         45387 MiB available memory on the node where the printing process lives
------------------
     ethr =  2.32E-04,  avg # of iterations =  1.4

     total cpu time spent up to now is     1643.2 secs

     total energy              =   -1181.96124218 Ry
     estimated scf accuracy    <       0.42131256 Ry

     iteration #  5     ecut=    80.00 Ry     beta= 0.40
     Davidson diagonalization with overlap

---- Real-time Memory Report at c_bands before calling an iterative solver
           254 MiB given to the printing process from OS
             0 MiB allocation reported by mallinfo(arena+hblkhd)
         45288 MiB available memory on the node where the printing process lives
------------------
     ethr =  2.32E-04,  avg # of iterations =  1.0

     total cpu time spent up to now is     1656.8 secs

     total energy              =   -1181.95780781 Ry
     estimated scf accuracy    <       0.29544421 Ry

     iteration #  6     ecut=    80.00 Ry     beta= 0.40
     Davidson diagonalization with overlap

---- Real-time Memory Report at c_bands before calling an iterative solver
           254 MiB given to the printing process from OS
             0 MiB allocation reported by mallinfo(arena+hblkhd)
         45246 MiB available memory on the node where the printing process lives
------------------
     ethr =  2.32E-04,  avg # of iterations =  1.0

     total cpu time spent up to now is     1670.4 secs

     total energy              =   -1181.95645368 Ry
     estimated scf accuracy    <       0.19750422 Ry

     iteration #  7     ecut=    80.00 Ry     beta= 0.40
     Davidson diagonalization with overlap

---- Real-time Memory Report at c_bands before calling an iterative solver
           254 MiB given to the printing process from OS
             0 MiB allocation reported by mallinfo(arena+hblkhd)
         45395 MiB available memory on the node where the printing process lives
------------------
     ethr =  2.32E-04,  avg # of iterations =  1.0

     total cpu time spent up to now is     1684.2 secs

     total energy              =   -1181.94577471 Ry
     estimated scf accuracy    <       0.11956300 Ry

     iteration #  8     ecut=    80.00 Ry     beta= 0.40
     Davidson diagonalization with overlap

---- Real-time Memory Report at c_bands before calling an iterative solver
           254 MiB given to the printing process from OS
             0 MiB allocation reported by mallinfo(arena+hblkhd)
         45278 MiB available memory on the node where the printing process lives
------------------
     ethr =  2.32E-04,  avg # of iterations =  1.0

     total cpu time spent up to now is     1697.4 secs

     total energy              =   -1181.95606320 Ry
     estimated scf accuracy    <       3.32855701 Ry

     iteration #  9     ecut=    80.00 Ry     beta= 0.40
     Davidson diagonalization with overlap

---- Real-time Memory Report at c_bands before calling an iterative solver
           254 MiB given to the printing process from OS
             0 MiB allocation reported by mallinfo(arena+hblkhd)
         45377 MiB available memory on the node where the printing process lives
------------------
     ethr =  2.32E-04,  avg # of iterations =  1.0

     total cpu time spent up to now is     1710.6 secs

     total energy              =   -1181.93887458 Ry
     estimated scf accuracy    <       0.91549274 Ry

     iteration # 10     ecut=    80.00 Ry     beta= 0.40
     Davidson diagonalization with overlap

---- Real-time Memory Report at c_bands before calling an iterative solver
           254 MiB given to the printing process from OS
             0 MiB allocation reported by mallinfo(arena+hblkhd)
         45235 MiB available memory on the node where the printing process lives
------------------
     ethr =  2.32E-04,  avg # of iterations =  1.0

     total cpu time spent up to now is     1724.1 secs

     total energy              =   -1181.95438665 Ry
     estimated scf accuracy    <       0.19047548 Ry

     iteration # 11     ecut=    80.00 Ry     beta= 0.40
     Davidson diagonalization with overlap

---- Real-time Memory Report at c_bands before calling an iterative solver
           254 MiB given to the printing process from OS
             0 MiB allocation reported by mallinfo(arena+hblkhd)
         45338 MiB available memory on the node where the printing process lives
------------------
     ethr =  2.32E-04,  avg # of iterations =  1.0

     total cpu time spent up to now is     1737.8 secs

     total energy              =   -1181.95515367 Ry
     estimated scf accuracy    <       0.03015705 Ry

     iteration # 12     ecut=    80.00 Ry     beta= 0.40
     Davidson diagonalization with overlap

---- Real-time Memory Report at c_bands before calling an iterative solver
           254 MiB given to the printing process from OS
             0 MiB allocation reported by mallinfo(arena+hblkhd)
         45329 MiB available memory on the node where the printing process lives
------------------
     ethr =  6.56E-05,  avg # of iterations =  1.0

     total cpu time spent up to now is     1751.1 secs

     total energy              =   -1181.95435806 Ry
     estimated scf accuracy    <       0.02842906 Ry

     iteration # 13     ecut=    80.00 Ry     beta= 0.40
     Davidson diagonalization with overlap

---- Real-time Memory Report at c_bands before calling an iterative solver
           254 MiB given to the printing process from OS
             0 MiB allocation reported by mallinfo(arena+hblkhd)
         45298 MiB available memory on the node where the printing process lives
------------------
     ethr =  6.18E-05,  avg # of iterations =  1.0

     total cpu time spent up to now is     1764.9 secs

     total energy              =   -1181.95534765 Ry
     estimated scf accuracy    <       0.01483332 Ry

     iteration # 14     ecut=    80.00 Ry     beta= 0.40
     Davidson diagonalization with overlap

---- Real-time Memory Report at c_bands before calling an iterative solver
           254 MiB given to the printing process from OS
             0 MiB allocation reported by mallinfo(arena+hblkhd)
         45351 MiB available memory on the node where the printing process lives
------------------
     ethr =  3.22E-05,  avg # of iterations =  1.0

     total cpu time spent up to now is     1777.8 secs

     total energy              =   -1181.95349384 Ry
     estimated scf accuracy    <       0.08306000 Ry

     iteration # 15     ecut=    80.00 Ry     beta= 0.40
     Davidson diagonalization with overlap

---- Real-time Memory Report at c_bands before calling an iterative solver
           254 MiB given to the printing process from OS
             0 MiB allocation reported by mallinfo(arena+hblkhd)
         45275 MiB available memory on the node where the printing process lives
------------------
     ethr =  3.22E-05,  avg # of iterations =  1.0

     total cpu time spent up to now is     1790.9 secs

     total energy              =   -1181.95466636 Ry
     estimated scf accuracy    <       0.02347602 Ry

     iteration # 16     ecut=    80.00 Ry     beta= 0.40
     Davidson diagonalization with overlap

---- Real-time Memory Report at c_bands before calling an iterative solver
           254 MiB given to the printing process from OS
             0 MiB allocation reported by mallinfo(arena+hblkhd)
         45075 MiB available memory on the node where the printing process lives
------------------
     ethr =  3.22E-05,  avg # of iterations =  1.0

     total cpu time spent up to now is     1805.2 secs

     total energy              =   -1181.95490888 Ry
     estimated scf accuracy    <       0.00028046 Ry

     iteration # 17     ecut=    80.00 Ry     beta= 0.40
     Davidson diagonalization with overlap

---- Real-time Memory Report at c_bands before calling an iterative solver
           254 MiB given to the printing process from OS
             0 MiB allocation reported by mallinfo(arena+hblkhd)
         45488 MiB available memory on the node where the printing process lives
------------------
     ethr =  6.10E-07,  avg # of iterations =  1.0

     total cpu time spent up to now is     1819.7 secs

     total energy              =   -1181.95491104 Ry
     estimated scf accuracy    <       0.00000437 Ry

     iteration # 18     ecut=    80.00 Ry     beta= 0.40
     Davidson diagonalization with overlap

---- Real-time Memory Report at c_bands before calling an iterative solver
           254 MiB given to the printing process from OS
             0 MiB allocation reported by mallinfo(arena+hblkhd)
         45390 MiB available memory on the node where the printing process lives
------------------
     ethr =  9.49E-09,  avg # of iterations =  1.0

     total cpu time spent up to now is     1834.0 secs

     total energy              =   -1181.95491300 Ry
     estimated scf accuracy    <       0.00001136 Ry

     iteration # 19     ecut=    80.00 Ry     beta= 0.40
     Davidson diagonalization with overlap

---- Real-time Memory Report at c_bands before calling an iterative solver
           254 MiB given to the printing process from OS
             0 MiB allocation reported by mallinfo(arena+hblkhd)
         45167 MiB available memory on the node where the printing process lives
------------------
     ethr =  9.49E-09,  avg # of iterations =  2.0

     total cpu time spent up to now is     1852.2 secs

     total energy              =   -1181.95490726 Ry
     estimated scf accuracy    <       0.00125624 Ry

     iteration # 20     ecut=    80.00 Ry     beta= 0.40
     Davidson diagonalization with overlap

---- Real-time Memory Report at c_bands before calling an iterative solver
           254 MiB given to the printing process from OS
             0 MiB allocation reported by mallinfo(arena+hblkhd)
         45385 MiB available memory on the node where the printing process lives
------------------
     ethr =  9.49E-09,  avg # of iterations =  1.0

     total cpu time spent up to now is     1866.2 secs

     total energy              =   -1181.95491071 Ry
     estimated scf accuracy    <       0.00013503 Ry

     iteration # 21     ecut=    80.00 Ry     beta= 0.40
     Davidson diagonalization with overlap

---- Real-time Memory Report at c_bands before calling an iterative solver
           254 MiB given to the printing process from OS
             0 MiB allocation reported by mallinfo(arena+hblkhd)
         45420 MiB available memory on the node where the printing process lives
------------------
     ethr =  9.49E-09,  avg # of iterations =  1.0

     total cpu time spent up to now is     1880.4 secs

     total energy              =   -1181.95491070 Ry
     estimated scf accuracy    <       0.00003291 Ry

     iteration # 22     ecut=    80.00 Ry     beta= 0.40
     Davidson diagonalization with overlap

---- Real-time Memory Report at c_bands before calling an iterative solver
           254 MiB given to the printing process from OS
             0 MiB allocation reported by mallinfo(arena+hblkhd)
         45333 MiB available memory on the node where the printing process lives
------------------
     ethr =  9.49E-09,  avg # of iterations =  1.0

     total cpu time spent up to now is     1893.7 secs

     total energy              =   -1181.95491065 Ry
     estimated scf accuracy    <       0.00000590 Ry

     iteration # 23     ecut=    80.00 Ry     beta= 0.40
     Davidson diagonalization with overlap

---- Real-time Memory Report at c_bands before calling an iterative solver
           254 MiB given to the printing process from OS
             0 MiB allocation reported by mallinfo(arena+hblkhd)
         45250 MiB available memory on the node where the printing process lives
------------------
     ethr =  9.49E-09,  avg # of iterations =  1.0

     total cpu time spent up to now is     1907.7 secs

     total energy              =   -1181.95491073 Ry
     estimated scf accuracy    <       0.00000089 Ry

     iteration # 24     ecut=    80.00 Ry     beta= 0.40
     Davidson diagonalization with overlap

---- Real-time Memory Report at c_bands before calling an iterative solver
           254 MiB given to the printing process from OS
             0 MiB allocation reported by mallinfo(arena+hblkhd)
         45391 MiB available memory on the node where the printing process lives
------------------
     ethr =  1.94E-09,  avg # of iterations =  1.0

     total cpu time spent up to now is     1921.7 secs

     total energy              =   -1181.95491066 Ry
     estimated scf accuracy    <       0.00000606 Ry

     iteration # 25     ecut=    80.00 Ry     beta= 0.40
     Davidson diagonalization with overlap

---- Real-time Memory Report at c_bands before calling an iterative solver
           254 MiB given to the printing process from OS
             0 MiB allocation reported by mallinfo(arena+hblkhd)
         45276 MiB available memory on the node where the printing process lives
------------------
     ethr =  1.94E-09,  avg # of iterations =  2.0

     total cpu time spent up to now is     1939.5 secs

     total energy              =   -1181.95491072 Ry
     estimated scf accuracy    <       0.00000004 Ry

     iteration # 26     ecut=    80.00 Ry     beta= 0.40
     Davidson diagonalization with overlap

---- Real-time Memory Report at c_bands before calling an iterative solver
           254 MiB given to the printing process from OS
             0 MiB allocation reported by mallinfo(arena+hblkhd)
         45327 MiB available memory on the node where the printing process lives
------------------
     ethr =  7.61E-11,  avg # of iterations =  2.0

     total cpu time spent up to now is     1957.5 secs

     total energy              =   -1181.95491071 Ry
     estimated scf accuracy    <       0.00000008 Ry

     iteration # 27     ecut=    80.00 Ry     beta= 0.40
     Davidson diagonalization with overlap

---- Real-time Memory Report at c_bands before calling an iterative solver
           254 MiB given to the printing process from OS
             0 MiB allocation reported by mallinfo(arena+hblkhd)
         45217 MiB available memory on the node where the printing process lives
------------------
     ethr =  7.61E-11,  avg # of iterations =  1.0

     total cpu time spent up to now is     1971.6 secs

     total energy              =   -1181.95491071 Ry
     estimated scf accuracy    <          8.1E-10 Ry

     iteration # 28     ecut=    80.00 Ry     beta= 0.40
     Davidson diagonalization with overlap

---- Real-time Memory Report at c_bands before calling an iterative solver
           254 MiB given to the printing process from OS
             0 MiB allocation reported by mallinfo(arena+hblkhd)
         45274 MiB available memory on the node where the printing process lives
------------------
     ethr =  1.76E-12,  avg # of iterations =  2.0

     total cpu time spent up to now is     1989.5 secs

     End of self-consistent calculation

          k = 0.0000 0.0000 0.0000 ( 10443 PWs)   bands (ev):

   -85.5449 -51.7057 -51.7057 -51.7057 -23.3574 -12.3682 -12.2420 -12.2420
    -7.8391  -7.8391  -7.8391  -0.4954  -0.4954  -0.4954  -0.1189  -0.1189
    -0.1189   0.3096   0.3096   0.3174   0.3174   0.3174   0.4527   0.4527
     0.4527   0.9889   7.3218   7.3218

     occupation numbers 
     1.0000   1.0000   1.0000   1.0000   1.0000   1.0000   1.0000   1.0000
     1.0000   1.0000   1.0000   1.0000   1.0000   1.0000   1.0000   1.0000
     1.0000   0.9444   0.9444   0.9238   0.9238   0.9238   0.0836   0.0836
     0.0836   0.0000   0.0000   0.0000

          k = 0.0000 0.0000 0.1051 ( 10519 PWs)   bands (ev):

   -85.5450 -51.7057 -51.7057 -51.7057 -23.3571 -12.3706 -12.2592 -12.2418
    -7.8383  -7.8383  -7.7735  -0.5514  -0.4885  -0.4885  -0.1470  -0.1446
    -0.1446   0.2598   0.3118   0.3175   0.3281   0.3330   0.3330   0.4437
     0.4437   1.1296   6.0325   6.3755

     occupation numbers 
     1.0000   1.0000   1.0000   1.0000   1.0000   1.0000   1.0000   1.0000
     1.0000   1.0000   1.0000   1.0000   1.0000   1.0000   1.0000   1.0000
     1.0000   0.9957   0.9390   0.9235   0.8865   0.8654   0.8654   0.1159
     0.1159   0.0000   0.0000   0.0000

          k = 0.0000 0.0000 0.2101 ( 10495 PWs)   bands (ev):

   -85.5449 -51.7057 -51.7057 -51.7057 -23.3565 -12.3811 -12.2950 -12.2413
    -7.8361  -7.8361  -7.6115  -0.6652  -0.4663  -0.4663  -0.2089  -0.2089
    -0.2069  -0.1409   0.3174   0.3179   0.3650   0.3651   0.3651   0.4263
     0.4263   1.4142   5.3741   6.1857

     occupation numbers 
     1.0000   1.0000   1.0000   1.0000   1.0000   1.0000   1.0000   1.0000
     1.0000   1.0000   1.0000   1.0000   1.0000   1.0000   1.0000   1.0000
     1.0000   1.0000   0.9237   0.9223   0.6701   0.6696   0.6696   0.2025
     0.2025   0.0000   0.0000   0.0000

          k = 0.0000 0.0000 0.3152 ( 10491 PWs)   bands (ev):

   -85.5449 -51.7057 -51.7057 -51.7057 -23.3558 -12.4016 -12.3187 -12.2409
    -7.8340  -7.8340  -7.4432  -0.7500  -0.5192  -0.4262  -0.4262  -0.2883
    -0.2883  -0.2591   0.3183   0.3229   0.3792   0.3792   0.3947   0.4251
     0.4251   1.6917   4.8669   6.0405

     occupation numbers 
     1.0000   1.0000   1.0000   1.0000   1.0000   1.0000   1.0000   1.0000
     1.0000   1.0000   1.0000   1.0000   1.0000   1.0000   1.0000   1.0000
     1.0000   1.0000   0.9211   0.9058   0.5582   0.5582   0.4296   0.2096
     0.2096   0.0000   0.0000   0.0000

          k = 0.0000 0.0000-0.4202 ( 10516 PWs)   bands (ev):

   -85.5449 -51.7057 -51.7057 -51.7057 -23.3555 -12.4134 -12.3249 -12.2407
    -7.8331  -7.8331  -7.3713  -0.7492  -0.7031  -0.3767  -0.3767  -0.3536
    -0.3536  -0.2792   0.3184   0.3252   0.3770   0.3770   0.4055   0.4322
     0.4322   1.8133   4.6691   5.9872

     occupation numbers 
     1.0000   1.0000   1.0000   1.0000   1.0000   1.0000   1.0000   1.0000
     1.0000   1.0000   1.0000   1.0000   1.0000   1.0000   1.0000   1.0000
     1.0000   1.0000   0.9206   0.8977   0.5755   0.5755   0.3439   0.1693
     0.1693   0.0000   0.0000   0.0000

          k = 0.0000 0.1051 0.1051 ( 10505 PWs)   bands (ev):

   -85.5449 -51.7057 -51.7057 -51.7057 -23.3569 -12.3727 -12.2683 -12.2502
    -7.8374  -7.7742  -7.7711  -0.6193  -0.4822  -0.4672  -0.2245  -0.1676
    -0.1020   0.1934   0.3180   0.3221   0.3282   0.3318   0.3374   0.3555
     0.4340   1.2375   5.8649   6.2857

     occupation numbers 
     1.0000   1.0000   1.0000   1.0000   1.0000   1.0000   1.0000   1.0000
     1.0000   1.0000   1.0000   1.0000   1.0000   1.0000   1.0000   1.0000
     1.0000   1.0000   0.9220   0.9087   0.8859   0.8710   0.8447   0.7381
     0.1604   0.0000   0.0000   0.0000

          k = 0.0000 0.1051 0.2101 ( 10507 PWs)   bands (ev):

   -85.5449 -51.7057 -51.7057 -51.7057 -23.3562 -12.3818 -12.3022 -12.2528
    -7.8353  -7.7707  -7.6107  -0.7335  -0.4622  -0.4514  -0.3156  -0.2260
    -0.1600  -0.0874   0.2816   0.3221   0.3313   0.3471   0.3656   0.3834
     0.4144   1.4729   5.3683   6.1173

     occupation numbers 
     1.0000   1.0000   1.0000   1.0000   1.0000   1.0000   1.0000   1.0000
     1.0000   1.0000   1.0000   1.0000   1.0000   1.0000   1.0000   1.0000
     1.0000   1.0000   0.9852   0.9087   0.8732   0.7918   0.6660   0.5233
     0.2786   0.0000   0.0000   0.0000

          k = 0.0000 0.1051 0.3152 ( 10509 PWs)   bands (ev):

   -85.5449 -51.7057 -51.7057 -51.7057 -23.3555 -12.4014 -12.3264 -12.2528
    -7.8331  -7.7686  -7.4425  -0.8167  -0.5600  -0.4255  -0.4207  -0.3580
    -0.2988  -0.1090   0.2604   0.3279   0.3316   0.3747   0.3785   0.4018
     0.4157   1.7058   4.9383   5.9812

     occupation numbers 
     1.0000   1.0000   1.0000   1.0000   1.0000   1.0000   1.0000   1.0000
     1.0000   1.0000   1.0000   1.0000   1.0000   1.0000   1.0000   1.0000
     1.0000   1.0000   0.9955   0.8871   0.8718   0.5943   0.5638   0.3726
     0.2699   0.0000   0.0000   0.0000

          k = 0.0000 0.1051-0.4202 ( 10500 PWs)   bands (ev):

   -85.5449 -51.7057 -51.7057 -51.7057 -23.3552 -12.4131 -12.3324 -12.2527
    -7.8322  -7.7677  -7.3707  -0.8313  -0.7145  -0.4213  -0.3860  -0.3789
    -0.3599  -0.1177   0.2521   0.3304   0.3318   0.3699   0.3996   0.4008
     0.4249   1.8064   4.7706   5.8831

     occupation numbers 
     1.0000   1.0000   1.0000   1.0000   1.0000   1.0000   1.0000   1.0000
     1.0000   1.0000   1.0000   1.0000   1.0000   1.0000   1.0000   1.0000
     1.0000   1.0000   0.9974   0.8769   0.8710   0.6329   0.3907   0.3809
     0.2108   0.0000   0.0000   0.0000

          k = 0.0000 0.2101 0.2101 ( 10467 PWs)   bands (ev):

   -85.5449 -51.7057 -51.7057 -51.7057 -23.3555 -12.3863 -12.3295 -12.2664
    -7.8331  -7.6120  -7.6057  -0.8608  -0.4483  -0.4329  -0.4297  -0.2700
    -0.2415  -0.0461   0.0763   0.3255   0.3538   0.3547   0.3730   0.3869
     0.3887   1.6069   5.2853   5.9737

     occupation numbers 
     1.0000   1.0000   1.0000   1.0000   1.0000   1.0000   1.0000   1.0000
     1.0000   1.0000   1.0000   1.0000   1.0000   1.0000   1.0000   1.0000
     1.0000   1.0000   1.0000   0.8966   0.7500   0.7439   0.6081   0.4944
     0.4791   0.0000   0.0000   0.0000

          k = 0.0000 0.2101 0.3152 ( 10502 PWs)   bands (ev):

   -85.5449 -51.7057 -51.7057 -51.7057 -23.3548 -12.4011 -12.3542 -12.2705
    -7.8310  -7.6070  -7.4408  -0.9586  -0.6376  -0.4215  -0.4214  -0.3745
    -0.3258  -0.0560   0.0571   0.3343   0.3540   0.3657   0.3673   0.3893
     0.4018   1.7371   5.1107   5.8480

     occupation numbers 
     1.0000   1.0000   1.0000   1.0000   1.0000   1.0000   1.0000   1.0000
     1.0000   1.0000   1.0000   1.0000   1.0000   1.0000   1.0000   1.0000
     1.0000   1.0000   1.0000   0.8595   0.7486   0.6650   0.6528   0.4745
     0.3726   0.0000   0.0000   0.0000

          k = 0.0000 0.2101-0.4202 ( 10500 PWs)   bands (ev):

   -85.5449 -51.7057 -51.7057 -51.7057 -23.3545 -12.4123 -12.3598 -12.2713
    -7.8302  -7.6062  -7.3691  -0.9904  -0.7631  -0.4168  -0.4088  -0.3846
    -0.3746  -0.0552   0.0567   0.3441   0.3468   0.3633   0.3648   0.3943
     0.4137   1.7911   5.0267   5.7994

     occupation numbers 
     1.0000   1.0000   1.0000   1.0000   1.0000   1.0000   1.0000   1.0000
     1.0000   1.0000   1.0000   1.0000   1.0000   1.0000   1.0000   1.0000
     1.0000   1.0000   1.0000   0.8093   0.7934   0.6833   0.6715   0.4330
     0.2835   0.0000   0.0000   0.0000

          k = 0.0000 0.3152 0.3152 ( 10487 PWs)   bands (ev):

   -85.5449 -51.7057 -51.7057 -51.7057 -23.3541 -12.4034 -12.3879 -12.2780
    -7.8289  -7.4409  -7.4375  -1.0732  -0.7806  -0.4312  -0.4106  -0.3702
    -0.3592  -0.2541   0.1307   0.3300   0.3305   0.3616   0.3930   0.3982
     0.3990   1.7663   5.2703   5.7250

     occupation numbers 
     1.0000   1.0000   1.0000   1.0000   1.0000   1.0000   1.0000   1.0000
     1.0000   1.0000   1.0000   1.0000   1.0000   1.0000   1.0000   1.0000
     1.0000   1.0000   1.0000   0.8786   0.8764   0.6952   0.4436   0.4018
     0.3954   0.0000   0.0000   0.0000

          k = 0.0000 0.3152-0.4202 ( 10496 PWs)   bands (ev):

   -85.5449 -51.7057 -51.7057 -51.7057 -23.3539 -12.4116 -12.3954 -12.2797
    -7.8280  -7.4385  -7.3675  -1.1143  -0.8707  -0.4291  -0.3908  -0.3882
    -0.3845  -0.2939   0.1525   0.3197   0.3361   0.3446   0.3941   0.4082
     0.4137   1.7781   5.3079   5.6765

     occupation numbers 
     1.0000   1.0000   1.0000   1.0000   1.0000   1.0000   1.0000   1.0000
     1.0000   1.0000   1.0000   1.0000   1.0000   1.0000   1.0000   1.0000
     1.0000   1.0000   1.0000   0.9165   0.8511   0.8065   0.4345   0.3236
     0.2841   0.0000   0.0000   0.0000

          k = 0.0000-0.4202-0.4202 ( 10488 PWs)   bands (ev):

   -85.5449 -51.7057 -51.7057 -51.7057 -23.3536 -12.4113 -12.4113 -12.2817
    -7.8272  -7.3668  -7.3668  -1.1593  -0.9421  -0.4326  -0.3935  -0.3935
    -0.3682  -0.3682   0.1781   0.3082   0.3252   0.3390   0.4067   0.4067
     0.4312   1.7734   5.4359   5.6276

     occupation numbers 
     1.0000   1.0000   1.0000   1.0000   1.0000   1.0000   1.0000   1.0000
     1.0000   1.0000   1.0000   1.0000   1.0000   1.0000   1.0000   1.0000
     1.0000   1.0000   1.0000   0.9476   0.8977   0.8366   0.3348   0.3348
     0.1746   0.0000   0.0000   0.0000

          k = 0.1051 0.1051 0.1051 ( 10515 PWs)   bands (ev):

   -85.5449 -51.7057 -51.7057 -51.7057 -23.3566 -12.3744 -12.2681 -12.2681
    -7.7749  -7.7703  -7.7703  -0.6709  -0.4760  -0.4760  -0.2273  -0.2273
    -0.0652   0.1310   0.3166   0.3166   0.3217   0.3217   0.3309   0.3661
     0.3661   1.3234   5.6905   6.1556

     occupation numbers 
     1.0000   1.0000   1.0000   1.0000   1.0000   1.0000   1.0000   1.0000
     1.0000   1.0000   1.0000   1.0000   1.0000   1.0000   1.0000   1.0000
     1.0000   1.0000   0.9260   0.9260   0.9102   0.9102   0.8750   0.6620
     0.6620   0.0000   0.0000   0.0000

          k = 0.1051 0.1051 0.2101 ( 10501 PWs)   bands (ev):

   -85.5449 -51.7057 -51.7057 -51.7057 -23.3559 -12.3825 -12.3060 -12.2676
    -7.7714  -7.7682  -7.6099  -0.7729  -0.5072  -0.4693  -0.2879  -0.2741
    -0.1417  -0.0522   0.2450   0.3029   0.3187   0.3376   0.3390   0.3741
     0.3985   1.5180   5.3198   5.9312

     occupation numbers 
     1.0000   1.0000   1.0000   1.0000   1.0000   1.0000   1.0000   1.0000
     1.0000   1.0000   1.0000   1.0000   1.0000   1.0000   1.0000   1.0000
     1.0000   1.0000   0.9983   0.9584   0.9199   0.8437   0.8369   0.5993
     0.3992   0.0000   0.0000   0.0000

          k = 0.1051 0.1051 0.3152 ( 10491 PWs)   bands (ev):

   -85.5449 -51.7057 -51.7057 -51.7057 -23.3552 -12.4012 -12.3316 -12.2671
    -7.7693  -7.7662  -7.4418  -0.8506  -0.5700  -0.5497  -0.4651  -0.3095
    -0.2063  -0.0667   0.2138   0.2854   0.3223   0.3497   0.3739   0.3828
     0.4148   1.7098   4.9933   5.7642

     occupation numbers 
     1.0000   1.0000   1.0000   1.0000   1.0000   1.0000   1.0000   1.0000
     1.0000   1.0000   1.0000   1.0000   1.0000   1.0000   1.0000   1.0000
     1.0000   1.0000   0.9998   0.9819   0.9081   0.7759   0.6007   0.5285
     0.2758   0.0000   0.0000   0.0000

          k = 0.1051 0.1051-0.4202 ( 10498 PWs)   bands (ev):

   -85.5449 -51.7057 -51.7057 -51.7057 -23.3549 -12.4128 -12.3378 -12.2669
    -7.7685  -7.7653  -7.3700  -0.8662  -0.7265  -0.5691  -0.4639  -0.3121
    -0.2109  -0.0766   0.2016   0.2786   0.3237   0.3538   0.3878   0.3958
     0.4140   1.7908   4.8654   5.7030

     occupation numbers 
     1.0000   1.0000   1.0000   1.0000   1.0000   1.0000   1.0000   1.0000
     1.0000   1.0000   1.0000   1.0000   1.0000   1.0000   1.0000   1.0000
     1.0000   1.0000   0.9999   0.9874   0.9029   0.7495   0.4871   0.4207
     0.2819   0.0000   0.0000   0.0000

          k = 0.1051 0.2101 0.2101 ( 10504 PWs)   bands (ev):

   -85.5449 -51.7057 -51.7057 -51.7057 -23.3552 -12.3866 -12.3293 -12.2856
    -7.7678  -7.6112  -7.6049  -0.8696  -0.5625  -0.5178  -0.3656  -0.2403
    -0.2274  -0.0023   0.0737   0.2605   0.3252   0.3337   0.3457   0.3948
     0.4031   1.6201   5.2023   5.8252

     occupation numbers 
     1.0000   1.0000   1.0000   1.0000   1.0000   1.0000   1.0000   1.0000
     1.0000   1.0000   1.0000   1.0000   1.0000   1.0000   1.0000   1.0000
     1.0000   1.0000   1.0000   0.9955   0.8975   0.8626   0.8002   0.4288
     0.3629   0.0000   0.0000   0.0000

          k = 0.1051 0.2101 0.3152 ( 10494 PWs)   bands (ev):

   -85.5449 -51.7057 -51.7057 -51.7057 -23.3545 -12.4009 -12.3549 -12.2892
    -7.7658  -7.6062  -7.4401  -0.9542  -0.6595  -0.5854  -0.5348  -0.2707
    -0.1908  -0.0404   0.0629   0.2366   0.3296   0.3493   0.3682   0.3910
     0.4113   1.7149   5.1216   5.6439

     occupation numbers 
     1.0000   1.0000   1.0000   1.0000   1.0000   1.0000   1.0000   1.0000
     1.0000   1.0000   1.0000   1.0000   1.0000   1.0000   1.0000   1.0000
     1.0000   1.0000   1.0000   0.9991   0.8802   0.7784   0.6461   0.4601
     0.3011   0.0000   0.0000   0.0000

          k = 0.1051 0.2101-0.4202 ( 10490 PWs)   bands (ev):

   -85.5449 -51.7057 -51.7057 -51.7057 -23.3542 -12.4120 -12.3607 -12.2897
    -7.7649  -7.6055  -7.3684  -0.9814  -0.7767  -0.6260  -0.5399  -0.2731
    -0.1669  -0.0639   0.0651   0.2271   0.3324   0.3611   0.3776   0.3924
     0.4081   1.7522   5.1092   5.5423

     occupation numbers 
     1.0000   1.0000   1.0000   1.0000   1.0000   1.0000   1.0000   1.0000
     1.0000   1.0000   1.0000   1.0000   1.0000   1.0000   1.0000   1.0000
     1.0000   1.0000   1.0000   0.9995   0.8682   0.6990   0.5711   0.4485
     0.3243   0.0000   0.0000   0.0000

          k = 0.1051 0.3152 0.3152 ( 10495 PWs)   bands (ev):

   -85.5449 -51.7057 -51.7057 -51.7057 -23.3539 -12.4031 -12.3876 -12.2976
    -7.7637  -7.4402  -7.4368  -1.0561  -0.7961  -0.5997  -0.5883  -0.3359
    -0.1934  -0.1264   0.1394   0.2050   0.3297   0.3534   0.3729   0.3980
     0.4149   1.7143   5.2629   5.5961

     occupation numbers 
     1.0000   1.0000   1.0000   1.0000   1.0000   1.0000   1.0000   1.0000
     1.0000   1.0000   1.0000   1.0000   1.0000   1.0000   1.0000   1.0000
     1.0000   1.0000   1.0000   0.9999   0.8799   0.7525   0.6088   0.4029
     0.2751   0.0000   0.0000   0.0000

          k = 0.1051 0.3152-0.4202 ( 10490 PWs)   bands (ev):

   -85.5449 -51.7057 -51.7057 -51.7057 -23.3536 -12.4113 -12.3952 -12.2993
    -7.7629  -7.4378  -7.3668  -1.0941  -0.8844  -0.6204  -0.5929  -0.3722
    -0.1585  -0.1549   0.1612   0.1914   0.3349   0.3419   0.3855   0.4043
     0.4150   1.7124   5.3844   5.4914

     occupation numbers 
     1.0000   1.0000   1.0000   1.0000   1.0000   1.0000   1.0000   1.0000
     1.0000   1.0000   1.0000   1.0000   1.0000   1.0000   1.0000   1.0000
     1.0000   1.0000   1.0000   1.0000   0.8569   0.8213   0.5058   0.3532
     0.2745   0.0000   0.0000   0.0000

          k = 0.1051-0.4202-0.4202 ( 10488 PWs)   bands (ev):

   -85.5449 -51.7057 -51.7057 -51.7057 -23.3533 -12.4110 -12.4110 -12.3013
    -7.7620  -7.3661  -7.3661  -1.1369  -0.9551  -0.6135  -0.6135  -0.4318
    -0.1498  -0.1498   0.1746   0.1872   0.3244   0.3386   0.4030   0.4030
     0.4220   1.6957   5.5124   5.7144

     occupation numbers 
     1.0000   1.0000   1.0000   1.0000   1.0000   1.0000   1.0000   1.0000
     1.0000   1.0000   1.0000   1.0000   1.0000   1.0000   1.0000   1.0000
     1.0000   1.0000   1.0000   1.0000   0.9007   0.8390   0.3632   0.3632
     0.2281   0.0000   0.0000   0.0000

          k = 0.2101 0.2101 0.2101 ( 10510 PWs)   bands (ev):

   -85.5449 -51.7057 -51.7057 -51.7057 -23.3545 -12.3892 -12.3287 -12.3287
    -7.6127  -7.6030  -7.6030  -0.9094  -0.6512  -0.6512  -0.4450  -0.2124
    -0.2124   0.0676   0.0676   0.0699   0.3240   0.3240   0.3370   0.4139
     0.4139   1.6438   5.1188   5.9378

     occupation numbers 
     1.0000   1.0000   1.0000   1.0000   1.0000   1.0000   1.0000   1.0000
     1.0000   1.0000   1.0000   1.0000   1.0000   1.0000   1.0000   1.0000
     1.0000   1.0000   1.0000   1.0000   0.9021   0.9021   0.8469   0.2825
     0.2825   0.0000   0.0000   0.0000

          k = 0.2101 0.2101 0.3152 ( 10495 PWs)   bands (ev):

   -85.5449 -51.7057 -51.7057 -51.7057 -23.3539 -12.4006 -12.3612 -12.3281
    -7.6077  -7.6012  -7.4384  -0.9647  -0.7507  -0.7140  -0.6548  -0.1943
    -0.1913   0.0033   0.0624   0.1045   0.3243   0.3421   0.3459   0.4114
     0.4136   1.6552   5.1817   5.7129

     occupation numbers 
     1.0000   1.0000   1.0000   1.0000   1.0000   1.0000   1.0000   1.0000
     1.0000   1.0000   1.0000   1.0000   1.0000   1.0000   1.0000   1.0000
     1.0000   1.0000   1.0000   1.0000   0.9010   0.8201   0.7991   0.3003
     0.2848   0.0000   0.0000   0.0000

          k = 0.2101 0.2101-0.4202 ( 10500 PWs)   bands (ev):

   -85.5449 -51.7057 -51.7057 -51.7057 -23.3536 -12.4113 -12.3682 -12.3279
    -7.6069  -7.6004  -7.3668  -0.9824  -0.8314  -0.7868  -0.6711  -0.1873
    -0.1769  -0.0113   0.0603   0.1099   0.3254   0.3491   0.3728   0.3996
     0.4059   1.6561   5.3305   5.4979

     occupation numbers 
     1.0000   1.0000   1.0000   1.0000   1.0000   1.0000   1.0000   1.0000
     1.0000   1.0000   1.0000   1.0000   1.0000   1.0000   1.0000   1.0000
     1.0000   1.0000   1.0000   1.0000   0.8971   0.7796   0.6098   0.3904
     0.3410   0.0000   0.0000   0.0000

          k = 0.2101 0.3152 0.3152 ( 10488 PWs)   bands (ev):

   -85.5449 -51.7057 -51.7057 -51.7057 -23.3532 -12.4027 -12.3869 -12.3435
    -7.6027  -7.4385  -7.4351  -1.0171  -0.8545  -0.7753  -0.7685  -0.3307
    -0.1494   0.0299   0.0423   0.1678   0.3286   0.3386   0.3436   0.4034
     0.4172   1.5875   5.3477   5.7882

     occupation numbers 
     1.0000   1.0000   1.0000   1.0000   1.0000   1.0000   1.0000   1.0000
     1.0000   1.0000   1.0000   1.0000   1.0000   1.0000   1.0000   1.0000
     1.0000   1.0000   1.0000   1.0000   0.8845   0.8387   0.8123   0.3606
     0.2594   0.0000   0.0000   0.0000

          k = 0.2101 0.3152-0.4202 ( 10492 PWs)   bands (ev):

   -85.5449 -51.7057 -51.7057 -51.7057 -23.3529 -12.4106 -12.3949 -12.3451
    -7.6019  -7.4361  -7.3652  -1.0436  -0.9372  -0.8176  -0.7710  -0.3703
    -0.1335   0.0364   0.0436   0.1873   0.3308   0.3343   0.3660   0.3920
     0.4120   1.5571   5.5972   5.5977

     occupation numbers 
     1.0000   1.0000   1.0000   1.0000   1.0000   1.0000   1.0000   1.0000
     1.0000   1.0000   1.0000   1.0000   1.0000   1.0000   1.0000   1.0000
     1.0000   1.0000   1.0000   1.0000   0.8754   0.8598   0.6630   0.4521
     0.2962   0.0000   0.0000   0.0000

          k = 0.2101-0.4202-0.4202 ( 10468 PWs)   bands (ev):

   -85.5449 -51.7057 -51.7057 -51.7057 -23.3526 -12.4103 -12.4103 -12.3473
    -7.6011  -7.3645  -7.3645  -1.0793  -1.0045  -0.8106  -0.8106  -0.4300
    -0.1160   0.0472   0.0472   0.2128   0.3207   0.3367   0.3893   0.3893
     0.3961   1.5153   5.7285   5.7285

     occupation numbers 
     1.0000   1.0000   1.0000   1.0000   1.0000   1.0000   1.0000   1.0000
     1.0000   1.0000   1.0000   1.0000   1.0000   1.0000   1.0000   1.0000
     1.0000   1.0000   1.0000   0.9998   0.9134   0.8481   0.4743   0.4743
     0.4187   0.0000   0.0000   0.0000

          k = 0.3152 0.3152 0.3152 ( 10465 PWs)   bands (ev):

   -85.5449 -51.7057 -51.7057 -51.7057 -23.3525 -12.4035 -12.3863 -12.3863
    -7.4386  -7.4335  -7.4335  -1.0074  -0.9397  -0.8918  -0.8918  -0.3275
    -0.3275   0.1189   0.1189   0.2138   0.3267   0.3278   0.3278   0.3998
     0.3998   1.4588   5.5693   6.0286

     occupation numbers 
     1.0000   1.0000   1.0000   1.0000   1.0000   1.0000   1.0000   1.0000
     1.0000   1.0000   1.0000   1.0000   1.0000   1.0000   1.0000   1.0000
     1.0000   1.0000   1.0000   0.9998   0.8921   0.8878   0.8878   0.3886
     0.3886   0.0000   0.0000   0.0000

          k = 0.3152 0.3152-0.4202 ( 10442 PWs)   bands (ev):

   -85.5449 -51.7057 -51.7057 -51.7057 -23.3522 -12.4099 -12.3975 -12.3860
    -7.4362  -7.4328  -7.3636  -1.0362  -1.0015  -0.9354  -0.8963  -0.3853
    -0.3263   0.1455   0.1556   0.2300   0.3240   0.3267   0.3478   0.3712
     0.3945   1.4048   5.8208   5.8712

     occupation numbers 
     1.0000   1.0000   1.0000   1.0000   1.0000   1.0000   1.0000   1.0000
     1.0000   1.0000   1.0000   1.0000   1.0000   1.0000   1.0000   1.0000
     1.0000   1.0000   1.0000   0.9994   0.9019   0.8918   0.7875   0.6224
     0.4315   0.0000   0.0000   0.0000

          k = 0.3152-0.4202-0.4202 ( 10452 PWs)   bands (ev):

   -85.5449 -51.7057 -51.7057 -51.7057 -23.3519 -12.4096 -12.4096 -12.3915
    -7.4338  -7.3630  -7.3630  -1.0976  -1.0161  -0.9419  -0.9419  -0.4282
    -0.3513   0.1940   0.1940   0.2494   0.3167   0.3338   0.3584   0.3584
     0.3591   1.3420   6.0159   6.0159

     occupation numbers 
     1.0000   1.0000   1.0000   1.0000   1.0000   1.0000   1.0000   1.0000
     1.0000   1.0000   1.0000   1.0000   1.0000   1.0000   1.0000   1.0000
     1.0000   1.0000   1.0000   0.9978   0.9256   0.8622   0.7181   0.7181
     0.7136   0.0000   0.0000   0.0000

          k =-0.4202-0.4202-0.4202 ( 10432 PWs)   bands (ev):

   -85.5449 -51.7057 -51.7057 -51.7057 -23.3516 -12.4093 -12.4093 -12.4093
    -7.3623  -7.3623  -7.3623  -1.1552  -0.9879  -0.9879  -0.9879  -0.4275
    -0.4275   0.2764   0.2764   0.2764   0.3152   0.3152   0.3152   0.3320
     0.3320   1.2716   6.1745   6.1745

     occupation numbers 
     1.0000   1.0000   1.0000   1.0000   1.0000   1.0000   1.0000   1.0000
     1.0000   1.0000   1.0000   1.0000   1.0000   1.0000   1.0000   1.0000
     1.0000   0.9888   0.9888   0.9888   0.9301   0.9301   0.9301   0.8701
     0.8701   0.0000   0.0000   0.0000

     the Fermi energy is     0.3862 ev

!    total energy              =   -1181.95491071 Ry
     total all-electron energy =    -24146.522258 Ry
     estimated scf accuracy    <          9.0E-11 Ry
     smearing contrib. (-TS)   =      -0.01161771 Ry
     internal energy E=F+TS    =   -1181.94329299 Ry

     The total energy is F=E-TS. E is the sum of the following terms:
     one-electron contribution =    -271.50061103 Ry
     hartree contribution      =     148.33111399 Ry
     xc contribution           =     -72.87194753 Ry
     ewald contribution        =    -194.07309379 Ry
     one-center paw contrib.   =    -791.82875463 Ry
      -> PAW hartree energy AE =      29.10546202 Ry
      -> PAW hartree energy PS =     -28.98967326 Ry
      -> PAW xc energy AE      =    -200.66336920 Ry
      -> PAW xc energy PS      =      18.48645134 Ry
      -> total E_H with PAW    =     148.44690274 Ry
      -> total E_XC with PAW   =    -255.04886538 Ry

     convergence has been achieved in  28 iterations

     Forces acting on atoms (cartesian axes, Ry/au):

     atom    1 type  1   force =     0.00000000    0.00000000    0.00000000
     atom    2 type  2   force =     0.00000000    0.00000000    0.00000000
     atom    3 type  3   force =     0.00000000    0.00000000    0.00000000
     atom    4 type  3   force =     0.00000000    0.00000000    0.00000000
     atom    5 type  3   force =     0.00000000    0.00000000    0.00000000
     The non-local contrib.  to forces
     atom    1 type  1   force =     0.00000000    0.00000000    0.00000000
     atom    2 type  2   force =     0.00000000    0.00000000    0.00000000
     atom    3 type  3   force =     0.00000000    0.00000000    0.00000000
     atom    4 type  3   force =     0.00000000    0.00000000    0.00000000
     atom    5 type  3   force =     0.00000000    0.00000000    0.00000000
     The ionic contribution  to forces
     atom    1 type  1   force =     0.00000000    0.00000000    0.00000000
     atom    2 type  2   force =    -0.00000000   -0.00000000    0.00000000
     atom    3 type  3   force =    -0.00000000   -0.00000000   -0.00000000
     atom    4 type  3   force =    -0.00000000   -0.00000000   -0.00000000
     atom    5 type  3   force =    -0.00000000   -0.00000000   -0.00000000
     The local contribution  to forces
     atom    1 type  1   force =     0.00000000   -0.00000000   -0.00000000
     atom    2 type  2   force =     0.00000000    0.00000000    0.00000000
     atom    3 type  3   force =    -0.00000000    0.00000000   -0.00000000
     atom    4 type  3   force =    -0.00000000   -0.00000000   -0.00000000
     atom    5 type  3   force =     0.00000000   -0.00000000   -0.00000000
     The core correction contribution to forces
     atom    1 type  1   force =    -0.00000000   -0.00000000   -0.00000000
     atom    2 type  2   force =    -0.00000000   -0.00000000   -0.00000000
     atom    3 type  3   force =     0.00000000   -0.00000000   -0.00000000
     atom    4 type  3   force =    -0.00000000    0.00000000    0.00000000
     atom    5 type  3   force =    -0.00000000   -0.00000000    0.00000000
     The Hubbard contrib.    to forces
     atom    1 type  1   force =     0.00000000    0.00000000    0.00000000
     atom    2 type  2   force =     0.00000000    0.00000000    0.00000000
     atom    3 type  3   force =     0.00000000    0.00000000    0.00000000
     atom    4 type  3   force =     0.00000000    0.00000000    0.00000000
     atom    5 type  3   force =     0.00000000    0.00000000    0.00000000
     The SCF correction term to forces
     atom    1 type  1   force =     0.00000000    0.00000000   -0.00000000
     atom    2 type  2   force =    -0.00000000   -0.00000000   -0.00000000
     atom    3 type  3   force =    -0.00000000    0.00000000    0.00000000
     atom    4 type  3   force =     0.00000000   -0.00000000    0.00000000
     atom    5 type  3   force =    -0.00000000   -0.00000000    0.00000000

     Total force =     0.000000     Total SCF correction =     0.000000


     Computing stress (Cartesian axis) and pressure

          total   stress  (Ry/bohr**3)                   (kbar)     P=       10.24
   0.00006963   0.00000000   0.00000000           10.24        0.00        0.00
   0.00000000   0.00006963   0.00000000            0.00       10.24        0.00
   0.00000000   0.00000000   0.00006963            0.00        0.00       10.24

     kinetic stress (kbar)   8249.49      0.00      0.00
                                0.00   8249.49      0.00
                                0.00      0.00   8249.49

     local   stress (kbar)  -4776.84      0.00     -0.00
                                0.00  -4776.84      0.00
                               -0.00      0.00  -4776.84

     nonloc. stress (kbar)    -24.51      0.00      0.00
                                0.00    -24.51      0.00
                                0.00      0.00    -24.51

     hartree stress (kbar)   4971.42     -0.00      0.00
                               -0.00   4971.42     -0.00
                                0.00     -0.00   4971.42

     exc-cor stress (kbar)    485.86     -0.00      0.00
                               -0.00    485.86     -0.00
                                0.00     -0.00    485.86

     corecor stress (kbar)  -2390.69      0.00      0.00
                                0.00  -2390.69     -0.00
                                0.00     -0.00  -2390.69

     ewald   stress (kbar)  -6504.49      0.00     -0.00
                                0.00  -6504.49     -0.00
                               -0.00     -0.00  -6504.49

     hubbard stress (kbar)      0.00      0.00      0.00
                                0.00      0.00      0.00
                                0.00      0.00      0.00

     DFT-D   stress (kbar)      0.00      0.00      0.00
                                0.00      0.00      0.00
                                0.00      0.00      0.00

     XDM     stress (kbar)      0.00      0.00      0.00
                                0.00      0.00      0.00
                                0.00      0.00      0.00

     dft-nl  stress (kbar)      0.00      0.00      0.00
                                0.00      0.00      0.00
                                0.00      0.00      0.00

     TS-vdW  stress (kbar)      0.00      0.00      0.00
                                0.00      0.00      0.00
                                0.00      0.00      0.00

     MDB     stress (kbar)      0.00      0.00      0.00
                                0.00      0.00      0.00
                                0.00      0.00      0.00

     3D-RISM stress (kbar)      0.00      0.00      0.00
                                0.00      0.00      0.00
                                0.00      0.00      0.00

     Energy error            =      2.2E-02 Ry
     Gradient error          =      0.0E+00 Ry/Bohr
     Cell gradient error     =      1.0E+01 kbar

     number of scf cycles    =   5
     number of bfgs steps    =   4

     enthalpy           old  =   -1181.9330375102 Ry
     enthalpy           new  =   -1181.9549107096 Ry

     CASE: enthalpy          _new < enthalpy          _old

     new trust radius        =       0.1753602114 bohr
     new conv_thr            =            1.0E-10 Ry

     new unit-cell volume =   1565.98425 a.u.^3 (   232.05492 Ang^3 )
     density =      2.72654 g/cm^3

CELL_PARAMETERS (angstrom)
   6.145118518   0.000000000   0.000000000
   0.000000000   6.145118518   0.000000000
   0.000000000   0.000000000   6.145118518

ATOMIC_POSITIONS (crystal)
Rb               0.0000000000        0.0000000000        0.0000000000
Fe               0.5000000000        0.5000000000        0.5000000000
Br               0.5000000000        0.0000000000        0.0000000000
Br               0.0000000000        0.5000000000        0.0000000000
Br               0.0000000000        0.0000000000        0.5000000000



     Writing config-only to output data dir ./tmp/rbfebr3.save/ :
     XML data file
     NEW-OLD atomic charge density approx. for the potential

     total cpu time spent up to now is     2003.5 secs

     Self-consistent Calculation

     iteration #  1     ecut=    80.00 Ry     beta= 0.40
     Davidson diagonalization with overlap

---- Real-time Memory Report at c_bands before calling an iterative solver
           254 MiB given to the printing process from OS
             0 MiB allocation reported by mallinfo(arena+hblkhd)
         45308 MiB available memory on the node where the printing process lives
------------------
     ethr =  1.00E-06,  avg # of iterations =  5.7

     total cpu time spent up to now is     2038.1 secs

     total energy              =   -1181.95982061 Ry
     estimated scf accuracy    <       0.00170994 Ry

     iteration #  2     ecut=    80.00 Ry     beta= 0.40
     Davidson diagonalization with overlap

---- Real-time Memory Report at c_bands before calling an iterative solver
           254 MiB given to the printing process from OS
             0 MiB allocation reported by mallinfo(arena+hblkhd)
         45358 MiB available memory on the node where the printing process lives
------------------
     ethr =  3.72E-06,  avg # of iterations =  3.0

     total cpu time spent up to now is     2059.8 secs

     total energy              =   -1181.95881311 Ry
     estimated scf accuracy    <       0.19080996 Ry

     iteration #  3     ecut=    80.00 Ry     beta= 0.40
     Davidson diagonalization with overlap

---- Real-time Memory Report at c_bands before calling an iterative solver
           254 MiB given to the printing process from OS
             0 MiB allocation reported by mallinfo(arena+hblkhd)
         45275 MiB available memory on the node where the printing process lives
------------------
     ethr =  3.72E-06,  avg # of iterations =  1.0

     total cpu time spent up to now is     2073.0 secs

     total energy              =   -1181.95941176 Ry
     estimated scf accuracy    <       0.00078285 Ry

     iteration #  4     ecut=    80.00 Ry     beta= 0.40
     Davidson diagonalization with overlap

---- Real-time Memory Report at c_bands before calling an iterative solver
           254 MiB given to the printing process from OS
             0 MiB allocation reported by mallinfo(arena+hblkhd)
         45304 MiB available memory on the node where the printing process lives
------------------
     ethr =  1.70E-06,  avg # of iterations =  1.0

     total cpu time spent up to now is     2087.5 secs

     total energy              =   -1181.95859901 Ry
     estimated scf accuracy    <       0.00998063 Ry

     iteration #  5     ecut=    80.00 Ry     beta= 0.40
     Davidson diagonalization with overlap

---- Real-time Memory Report at c_bands before calling an iterative solver
           254 MiB given to the printing process from OS
             0 MiB allocation reported by mallinfo(arena+hblkhd)
         45350 MiB available memory on the node where the printing process lives
------------------
     ethr =  1.70E-06,  avg # of iterations =  1.3

     total cpu time spent up to now is     2102.7 secs

     total energy              =   -1181.95878037 Ry
     estimated scf accuracy    <       0.00871043 Ry

     iteration #  6     ecut=    80.00 Ry     beta= 0.40
     Davidson diagonalization with overlap

---- Real-time Memory Report at c_bands before calling an iterative solver
           254 MiB given to the printing process from OS
             0 MiB allocation reported by mallinfo(arena+hblkhd)
         45322 MiB available memory on the node where the printing process lives
------------------
     ethr =  1.70E-06,  avg # of iterations =  1.0

     total cpu time spent up to now is     2115.8 secs

     total energy              =   -1181.95880403 Ry
     estimated scf accuracy    <       0.00040658 Ry

     iteration #  7     ecut=    80.00 Ry     beta= 0.40
     Davidson diagonalization with overlap

---- Real-time Memory Report at c_bands before calling an iterative solver
           254 MiB given to the printing process from OS
             0 MiB allocation reported by mallinfo(arena+hblkhd)
         45282 MiB available memory on the node where the printing process lives
------------------
     ethr =  8.84E-07,  avg # of iterations =  1.0

     total cpu time spent up to now is     2129.5 secs

     total energy              =   -1181.95881224 Ry
     estimated scf accuracy    <       0.00032129 Ry

     iteration #  8     ecut=    80.00 Ry     beta= 0.40
     Davidson diagonalization with overlap

---- Real-time Memory Report at c_bands before calling an iterative solver
           254 MiB given to the printing process from OS
             0 MiB allocation reported by mallinfo(arena+hblkhd)
         45344 MiB available memory on the node where the printing process lives
------------------
     ethr =  6.98E-07,  avg # of iterations =  1.0

     total cpu time spent up to now is     2143.5 secs

     total energy              =   -1181.95881159 Ry
     estimated scf accuracy    <       0.00006546 Ry

     iteration #  9     ecut=    80.00 Ry     beta= 0.40
     Davidson diagonalization with overlap

---- Real-time Memory Report at c_bands before calling an iterative solver
           254 MiB given to the printing process from OS
             0 MiB allocation reported by mallinfo(arena+hblkhd)
         45167 MiB available memory on the node where the printing process lives
------------------
     ethr =  1.42E-07,  avg # of iterations =  1.0

     total cpu time spent up to now is     2157.2 secs

     total energy              =   -1181.95881241 Ry
     estimated scf accuracy    <       0.00001220 Ry

     iteration # 10     ecut=    80.00 Ry     beta= 0.40
     Davidson diagonalization with overlap

---- Real-time Memory Report at c_bands before calling an iterative solver
           254 MiB given to the printing process from OS
             0 MiB allocation reported by mallinfo(arena+hblkhd)
         45137 MiB available memory on the node where the printing process lives
------------------
     ethr =  2.65E-08,  avg # of iterations =  1.0

     total cpu time spent up to now is     2171.2 secs

     total energy              =   -1181.95881246 Ry
     estimated scf accuracy    <       0.00000057 Ry

     iteration # 11     ecut=    80.00 Ry     beta= 0.40
     Davidson diagonalization with overlap

---- Real-time Memory Report at c_bands before calling an iterative solver
           254 MiB given to the printing process from OS
             0 MiB allocation reported by mallinfo(arena+hblkhd)
         45332 MiB available memory on the node where the printing process lives
------------------
     ethr =  1.24E-09,  avg # of iterations =  1.0

     total cpu time spent up to now is     2185.2 secs

     total energy              =   -1181.95881247 Ry
     estimated scf accuracy    <       0.00000017 Ry

     iteration # 12     ecut=    80.00 Ry     beta= 0.40
     Davidson diagonalization with overlap

---- Real-time Memory Report at c_bands before calling an iterative solver
           254 MiB given to the printing process from OS
             0 MiB allocation reported by mallinfo(arena+hblkhd)
         45360 MiB available memory on the node where the printing process lives
------------------
     ethr =  3.59E-10,  avg # of iterations =  1.0

     total cpu time spent up to now is     2198.8 secs

     total energy              =   -1181.95881247 Ry
     estimated scf accuracy    <       0.00000010 Ry

     iteration # 13     ecut=    80.00 Ry     beta= 0.40
     Davidson diagonalization with overlap

---- Real-time Memory Report at c_bands before calling an iterative solver
           254 MiB given to the printing process from OS
             0 MiB allocation reported by mallinfo(arena+hblkhd)
         45223 MiB available memory on the node where the printing process lives
------------------
     ethr =  2.07E-10,  avg # of iterations =  1.0

     total cpu time spent up to now is     2212.6 secs

     total energy              =   -1181.95881246 Ry
     estimated scf accuracy    <       0.00000002 Ry

     iteration # 14     ecut=    80.00 Ry     beta= 0.40
     Davidson diagonalization with overlap

---- Real-time Memory Report at c_bands before calling an iterative solver
           254 MiB given to the printing process from OS
             0 MiB allocation reported by mallinfo(arena+hblkhd)
         45167 MiB available memory on the node where the printing process lives
------------------
     ethr =  3.37E-11,  avg # of iterations =  1.0

     total cpu time spent up to now is     2225.6 secs

     total energy              =   -1181.95881246 Ry
     estimated scf accuracy    <          6.1E-10 Ry

     iteration # 15     ecut=    80.00 Ry     beta= 0.40
     Davidson diagonalization with overlap

---- Real-time Memory Report at c_bands before calling an iterative solver
           254 MiB given to the printing process from OS
             0 MiB allocation reported by mallinfo(arena+hblkhd)
         45369 MiB available memory on the node where the printing process lives
------------------
     ethr =  1.32E-12,  avg # of iterations =  1.3

     total cpu time spent up to now is     2240.5 secs

     total energy              =   -1181.95881246 Ry
     estimated scf accuracy    <          4.6E-10 Ry

     iteration # 16     ecut=    80.00 Ry     beta= 0.40
     Davidson diagonalization with overlap

---- Real-time Memory Report at c_bands before calling an iterative solver
           254 MiB given to the printing process from OS
             0 MiB allocation reported by mallinfo(arena+hblkhd)
         45376 MiB available memory on the node where the printing process lives
------------------
     ethr =  1.01E-12,  avg # of iterations =  1.0

     total cpu time spent up to now is     2254.9 secs

     End of self-consistent calculation

          k = 0.0000 0.0000 0.0000 ( 10443 PWs)   bands (ev):

   -86.0039 -52.1679 -52.1679 -52.1679 -23.8194 -12.7146 -12.6062 -12.6062
    -8.2204  -8.2204  -8.2204  -0.8620  -0.8620  -0.8620  -0.5054  -0.5054
    -0.5054  -0.1584  -0.1584  -0.1517  -0.1517  -0.1517  -0.0385  -0.0385
    -0.0385   0.5292   5.8696   5.8696

     occupation numbers 
     1.0000   1.0000   1.0000   1.0000   1.0000   1.0000   1.0000   1.0000
     1.0000   1.0000   1.0000   1.0000   1.0000   1.0000   1.0000   1.0000
     1.0000   0.9255   0.9255   0.9037   0.9037   0.9037   0.1469   0.1469
     0.1469   0.0000   0.0000   0.0000

          k = 0.0000 0.0000 0.1027 ( 10519 PWs)   bands (ev):

   -86.0039 -52.1679 -52.1679 -52.1679 -23.8192 -12.7160 -12.6196 -12.6060
    -8.2197  -8.2197  -8.1696  -0.9091  -0.8543  -0.8543  -0.5303  -0.5280
    -0.5280  -0.2019  -0.1568  -0.1518  -0.1420  -0.1383  -0.1383  -0.0471
    -0.0471   0.6514   5.4555   5.7837

     occupation numbers 
     1.0000   1.0000   1.0000   1.0000   1.0000   1.0000   1.0000   1.0000
     1.0000   1.0000   1.0000   1.0000   1.0000   1.0000   1.0000   1.0000
     1.0000   0.9905   0.9207   0.9041   0.8644   0.8473   0.8473   0.1915
     0.1915   0.0000   0.0000   0.0000

          k = 0.0000 0.0000 0.2054 ( 10495 PWs)   bands (ev):

   -86.0039 -52.1679 -52.1679 -52.1679 -23.8188 -12.7214 -12.6488 -12.6057
    -8.2182  -8.2182  -8.0446  -1.0052  -0.8307  -0.8307  -0.5841  -0.5841
    -0.5827  -0.5430  -0.1523  -0.1516  -0.1130  -0.1130  -0.1090  -0.0616
    -0.0616   0.9002   4.8495   5.6227

     occupation numbers 
     1.0000   1.0000   1.0000   1.0000   1.0000   1.0000   1.0000   1.0000
     1.0000   1.0000   1.0000   1.0000   1.0000   1.0000   1.0000   1.0000
     1.0000   1.0000   0.9057   0.9034   0.6908   0.6908   0.6607   0.2845
     0.2845   0.0000   0.0000   0.0000

          k = 0.0000 0.0000 0.3081 ( 10491 PWs)   bands (ev):

   -86.0039 -52.1680 -52.1679 -52.1679 -23.8183 -12.7327 -12.6711 -12.6054
    -8.2167  -8.2167  -7.9158  -1.0745  -0.8656  -0.7910  -0.7910  -0.6535
    -0.6535  -0.6281  -0.1513  -0.1478  -0.1105  -0.1105  -0.0826  -0.0556
    -0.0556   1.1384   4.3891   5.4946

     occupation numbers 
     1.0000   1.0000   1.0000   1.0000   1.0000   1.0000   1.0000   1.0000
     1.0000   1.0000   1.0000   1.0000   1.0000   1.0000   1.0000   1.0000
     1.0000   1.0000   0.9023   0.8890   0.6722   0.6722   0.4468   0.2439
     0.2439   0.0000   0.0000   0.0000

          k = 0.0000 0.0000-0.4108 ( 10516 PWs)   bands (ev):

   -86.0039 -52.1680 -52.1679 -52.1679 -23.8181 -12.7399 -12.6776 -12.6052
    -8.2160  -8.2160  -7.8612  -1.0663  -1.0282  -0.7521  -0.7521  -0.7042
    -0.7042  -0.6456  -0.1513  -0.1461  -0.1153  -0.1153  -0.0731  -0.0477
    -0.0477   1.2405   4.2129   5.4472

     occupation numbers 
     1.0000   1.0000   1.0000   1.0000   1.0000   1.0000   1.0000   1.0000
     1.0000   1.0000   1.0000   1.0000   1.0000   1.0000   1.0000   1.0000
     1.0000   1.0000   0.9022   0.8823   0.7078   0.7078   0.3702   0.1953
     0.1953   0.0000   0.0000   0.0000

          k = 0.0000 0.1027 0.1027 ( 10505 PWs)   bands (ev):

   -86.0039 -52.1679 -52.1679 -52.1679 -23.8190 -12.7171 -12.6265 -12.6126
    -8.2191  -8.1700  -8.1679  -0.9659  -0.8472  -0.8348  -0.5991  -0.5481
    -0.4912  -0.2655  -0.1515  -0.1476  -0.1428  -0.1347  -0.1339  -0.1175
    -0.0566   0.7456   5.3015   5.7106

     occupation numbers 
     1.0000   1.0000   1.0000   1.0000   1.0000   1.0000   1.0000   1.0000
     1.0000   1.0000   1.0000   1.0000   1.0000   1.0000   1.0000   1.0000
     1.0000   0.9999   0.9031   0.8885   0.8683   0.8290   0.8245   0.7227
     0.2500   0.0000   0.0000   0.0000

          k = 0.0000 0.1027 0.2054 ( 10507 PWs)   bands (ev):

   -86.0039 -52.1680 -52.1679 -52.1679 -23.8186 -12.7218 -12.6539 -12.6147
    -8.2176  -8.1675  -8.0440  -1.0617  -0.8253  -0.8160  -0.6849  -0.5989
    -0.5586  -0.4806  -0.1814  -0.1480  -0.1400  -0.1252  -0.1125  -0.0922
    -0.0730   0.9509   4.8460   5.5656

     occupation numbers 
     1.0000   1.0000   1.0000   1.0000   1.0000   1.0000   1.0000   1.0000
     1.0000   1.0000   1.0000   1.0000   1.0000   1.0000   1.0000   1.0000
     1.0000   1.0000   0.9725   0.8897   0.8553   0.7738   0.6872   0.5262
     0.3697   0.0000   0.0000   0.0000

          k = 0.0000 0.1027 0.3081 ( 10509 PWs)   bands (ev):

   -86.0039 -52.1680 -52.1679 -52.1679 -23.8181 -12.7325 -12.6764 -12.6147
    -8.2161  -8.1660  -7.9153  -1.1294  -0.9060  -0.7883  -0.7841  -0.7185
    -0.6627  -0.4968  -0.2046  -0.1432  -0.1395  -0.1162  -0.0967  -0.0756
    -0.0635   1.1507   4.4544   5.4453

     occupation numbers 
     1.0000   1.0000   1.0000   1.0000   1.0000   1.0000   1.0000   1.0000
     1.0000   1.0000   1.0000   1.0000   1.0000   1.0000   1.0000   1.0000
     1.0000   1.0000   0.9918   0.8698   0.8530   0.7139   0.5632   0.3898
     0.2974   0.0000   0.0000   0.0000

          k = 0.0000 0.1027-0.4108 ( 10500 PWs)   bands (ev):

   -86.0039 -52.1680 -52.1679 -52.1679 -23.8179 -12.7396 -12.6828 -12.6146
    -8.2154  -8.1654  -7.8607  -1.1359  -1.0417  -0.7674  -0.7582  -0.7510
    -0.7107  -0.5038  -0.2138  -0.1411  -0.1390  -0.1233  -0.0771  -0.0771
    -0.0542   1.2356   4.3037   5.3442

     occupation numbers 
     1.0000   1.0000   1.0000   1.0000   1.0000   1.0000   1.0000   1.0000
     1.0000   1.0000   1.0000   1.0000   1.0000   1.0000   1.0000   1.0000
     1.0000   1.0000   0.9953   0.8606   0.8505   0.7618   0.4023   0.4020
     0.2342   0.0000   0.0000   0.0000

          k = 0.0000 0.2054 0.2054 ( 10467 PWs)   bands (ev):

   -86.0039 -52.1679 -52.1679 -52.1679 -23.8181 -12.7243 -12.6740 -12.6262
    -8.2161  -8.0449  -8.0406  -1.1679  -0.8086  -0.8010  -0.7965  -0.6370
    -0.6273  -0.4468  -0.3366  -0.1451  -0.1261  -0.1182  -0.1019  -0.0957
    -0.0899   1.0667   4.7743   5.4424

     occupation numbers 
     1.0000   1.0000   1.0000   1.0000   1.0000   1.0000   1.0000   1.0000
     1.0000   1.0000   1.0000   1.0000   1.0000   1.0000   1.0000   1.0000
     1.0000   1.0000   1.0000   0.8783   0.7793   0.7282   0.6055   0.5555
     0.5071   0.0000   0.0000   0.0000

          k = 0.0000 0.2054 0.3081 ( 10502 PWs)   bands (ev):

   -86.0039 -52.1680 -52.1679 -52.1679 -23.8177 -12.7324 -12.6954 -12.6298
    -8.2145  -8.0414  -7.9141  -1.2489  -0.9890  -0.7830  -0.7798  -0.7286
    -0.6858  -0.4569  -0.3541  -0.1386  -0.1373  -0.1092  -0.1067  -0.0868
    -0.0755   1.1787   4.6124   5.3330

     occupation numbers 
     1.0000   1.0000   1.0000   1.0000   1.0000   1.0000   1.0000   1.0000
     1.0000   1.0000   1.0000   1.0000   1.0000   1.0000   1.0000   1.0000
     1.0000   1.0000   1.0000   0.8486   0.8420   0.6622   0.6432   0.4815
     0.3896   0.0000   0.0000   0.0000

          k = 0.0000 0.2054-0.4108 ( 10500 PWs)   bands (ev):

   -86.0039 -52.1680 -52.1679 -52.1679 -23.8175 -12.7391 -12.7014 -12.6305
    -8.2139  -8.0408  -7.8595  -1.2734  -1.0950  -0.7714  -0.7647  -0.7483
    -0.7253  -0.4570  -0.3556  -0.1475  -0.1284  -0.1108  -0.1098  -0.0812
    -0.0647   1.2249   4.5334   5.2906

     occupation numbers 
     1.0000   1.0000   1.0000   1.0000   1.0000   1.0000   1.0000   1.0000
     1.0000   1.0000   1.0000   1.0000   1.0000   1.0000   1.0000   1.0000
     1.0000   1.0000   1.0000   0.8878   0.7935   0.6742   0.6674   0.4351
     0.3065   0.0000   0.0000   0.0000

          k = 0.0000 0.3081 0.3081 ( 10487 PWs)   bands (ev):

   -86.0039 -52.1680 -52.1680 -52.1679 -23.8172 -12.7338 -12.7198 -12.6370
    -8.2130  -7.9140  -7.9118  -1.3468  -1.1216  -0.7830  -0.7647  -0.7241
    -0.7144  -0.6149  -0.2948  -0.1644  -0.1414  -0.1130  -0.0837  -0.0796
    -0.0739   1.2052   4.7572   5.2285

     occupation numbers 
     1.0000   1.0000   1.0000   1.0000   1.0000   1.0000   1.0000   1.0000
     1.0000   1.0000   1.0000   1.0000   1.0000   1.0000   1.0000   1.0000
     1.0000   1.0000   1.0000   0.9413   0.8619   0.6905   0.4558   0.4227
     0.3769   0.0000   0.0000   0.0000

          k = 0.0000 0.3081-0.4108 ( 10496 PWs)   bands (ev):

   -86.0039 -52.1680 -52.1680 -52.1679 -23.8170 -12.7386 -12.7268 -12.6386
    -8.2124  -7.9124  -7.8584  -1.3818  -1.1977  -0.7768  -0.7455  -0.7389
    -0.7359  -0.6506  -0.2778  -0.1758  -0.1360  -0.1283  -0.0832  -0.0705
    -0.0596   1.2159   4.7860   5.1871

     occupation numbers 
     1.0000   1.0000   1.0000   1.0000   1.0000   1.0000   1.0000   1.0000
     1.0000   1.0000   1.0000   1.0000   1.0000   1.0000   1.0000   1.0000
     1.0000   1.0000   1.0000   0.9644   0.8356   0.7928   0.4517   0.3504
     0.2703   0.0000   0.0000   0.0000

          k = 0.0000-0.4108-0.4108 ( 10488 PWs)   bands (ev):

   -86.0039 -52.1680 -52.1680 -52.1679 -23.8168 -12.7383 -12.7383 -12.6406
    -8.2118  -7.8579  -7.8579  -1.4213  -1.2593  -0.7670  -0.7442  -0.7442
    -0.7211  -0.7211  -0.2580  -0.1882  -0.1460  -0.1333  -0.0721  -0.0721
    -0.0420   1.2128   4.9009   5.1457

     occupation numbers 
     1.0000   1.0000   1.0000   1.0000   1.0000   1.0000   1.0000   1.0000
     1.0000   1.0000   1.0000   1.0000   1.0000   1.0000   1.0000   1.0000
     1.0000   1.0000   0.9998   0.9804   0.8819   0.8213   0.3625   0.3625
     0.1641   0.0000   0.0000   0.0000

          k = 0.1027 0.1027 0.1027 ( 10515 PWs)   bands (ev):

   -86.0039 -52.1679 -52.1679 -52.1679 -23.8188 -12.7180 -12.6263 -12.6263
    -8.1704  -8.1673  -8.1673  -1.0101  -0.8384  -0.8384  -0.6034  -0.6034
    -0.4583  -0.3258  -0.1531  -0.1531  -0.1460  -0.1460  -0.1405  -0.1064
    -0.1064   0.8206   5.1500   5.5833

     occupation numbers 
     1.0000   1.0000   1.0000   1.0000   1.0000   1.0000   1.0000   1.0000
     1.0000   1.0000   1.0000   1.0000   1.0000   1.0000   1.0000   1.0000
     1.0000   1.0000   0.9086   0.9086   0.8820   0.8820   0.8576   0.6411
     0.6411   0.0000   0.0000   0.0000

          k = 0.1027 0.1027 0.2054 ( 10501 PWs)   bands (ev):

   -86.0039 -52.1680 -52.1679 -52.1679 -23.8184 -12.7223 -12.6567 -12.6259
    -8.1680  -8.1658  -8.0435  -1.0959  -0.8540  -0.8279  -0.6646  -0.6577
    -0.5430  -0.4472  -0.2130  -0.1658  -0.1512  -0.1335  -0.1324  -0.1010
    -0.0773   0.9898   4.8095   5.3849

     occupation numbers 
     1.0000   1.0000   1.0000   1.0000   1.0000   1.0000   1.0000   1.0000
     1.0000   1.0000   1.0000   1.0000   1.0000   1.0000   1.0000   1.0000
     1.0000   1.0000   0.9950   0.9446   0.9020   0.8224   0.8164   0.5979
     0.4040   0.0000   0.0000   0.0000

          k = 0.1027 0.1027 0.3081 ( 10491 PWs)   bands (ev):

   -86.0039 -52.1680 -52.1679 -52.1679 -23.8179 -12.7324 -12.6800 -12.6256
    -8.1665  -8.1644  -7.9148  -1.1587  -0.9193  -0.8805  -0.8217  -0.6906
    -0.5826  -0.4598  -0.2468  -0.1839  -0.1483  -0.1225  -0.1005  -0.0935
    -0.0626   1.1545   4.5071   5.2415

     occupation numbers 
     1.0000   1.0000   1.0000   1.0000   1.0000   1.0000   1.0000   1.0000
     1.0000   1.0000   1.0000   1.0000   1.0000   1.0000   1.0000   1.0000
     1.0000   1.0000   0.9995   0.9757   0.8910   0.7566   0.5946   0.5366
     0.2916   0.0000   0.0000   0.0000

          k = 0.1027 0.1027-0.4108 ( 10498 PWs)   bands (ev):

   -86.0039 -52.1680 -52.1679 -52.1679 -23.8177 -12.7394 -12.6866 -12.6254
    -8.1659  -8.1637  -7.8602  -1.1661  -1.0559  -0.8941  -0.8198  -0.6948
    -0.5843  -0.4683  -0.2605  -0.1912  -0.1471  -0.1190  -0.0889  -0.0813
    -0.0630   1.2233   4.3895   5.1891

     occupation numbers 
     1.0000   1.0000   1.0000   1.0000   1.0000   1.0000   1.0000   1.0000
     1.0000   1.0000   1.0000   1.0000   1.0000   1.0000   1.0000   1.0000
     1.0000   1.0000   0.9998   0.9832   0.8861   0.7336   0.4985   0.4360
     0.2945   0.0000   0.0000   0.0000

          k = 0.1027 0.2054 0.2054 ( 10504 PWs)   bands (ev):

   -86.0039 -52.1680 -52.1679 -52.1679 -23.8179 -12.7246 -12.6739 -12.6405
    -8.1655  -8.0443  -8.0400  -1.1769  -0.8994  -0.8607  -0.7558  -0.6233
    -0.6178  -0.4055  -0.3396  -0.2040  -0.1455  -0.1373  -0.1267  -0.0816
    -0.0740   1.0780   4.7116   5.2722

     occupation numbers 
     1.0000   1.0000   1.0000   1.0000   1.0000   1.0000   1.0000   1.0000
     1.0000   1.0000   1.0000   1.0000   1.0000   1.0000   1.0000   1.0000
     1.0000   1.0000   1.0000   0.9916   0.8796   0.8422   0.7831   0.4389
     0.3771   0.0000   0.0000   0.0000

          k = 0.1027 0.2054 0.3081 ( 10494 PWs)   bands (ev):

   -86.0039 -52.1680 -52.1679 -52.1679 -23.8175 -12.7322 -12.6960 -12.6437
    -8.1640  -8.0408  -7.9136  -1.2457  -1.0067  -0.9160  -0.8736  -0.6541
    -0.5758  -0.4419  -0.3489  -0.2283  -0.1416  -0.1234  -0.1057  -0.0851
    -0.0664   1.1603   4.6309   5.1165

     occupation numbers 
     1.0000   1.0000   1.0000   1.0000   1.0000   1.0000   1.0000   1.0000
     1.0000   1.0000   1.0000   1.0000   1.0000   1.0000   1.0000   1.0000
     1.0000   1.0000   1.0000   0.9981   0.8626   0.7627   0.6359   0.4678
     0.3187   0.0000   0.0000   0.0000

          k = 0.1027 0.2054-0.4108 ( 10490 PWs)   bands (ev):

   -86.0039 -52.1680 -52.1679 -52.1679 -23.8173 -12.7389 -12.7023 -12.6442
    -8.1634  -8.0402  -7.8591  -1.2652  -1.1107  -0.9450  -0.8780  -0.6574
    -0.5477  -0.4686  -0.3478  -0.2381  -0.1390  -0.1133  -0.0974  -0.0828
    -0.0693   1.1928   4.6096   5.0356

     occupation numbers 
     1.0000   1.0000   1.0000   1.0000   1.0000   1.0000   1.0000   1.0000
     1.0000   1.0000   1.0000   1.0000   1.0000   1.0000   1.0000   1.0000
     1.0000   1.0000   1.0000   0.9990   0.8507   0.6934   0.5693   0.4484
     0.3409   0.0000   0.0000   0.0000

          k = 0.1027 0.3081 0.3081 ( 10495 PWs)   bands (ev):

   -86.0039 -52.1680 -52.1680 -52.1679 -23.8170 -12.7336 -12.7197 -12.6516
    -8.1625  -7.9135  -7.9113  -1.3315  -1.1373  -0.9248  -0.9148  -0.6938
    -0.5785  -0.5101  -0.2866  -0.2610  -0.1417  -0.1205  -0.0999  -0.0786
    -0.0620   1.1619   4.7617   5.0523

     occupation numbers 
     1.0000   1.0000   1.0000   1.0000   1.0000   1.0000   1.0000   1.0000
     1.0000   1.0000   1.0000   1.0000   1.0000   1.0000   1.0000   1.0000
     1.0000   1.0000   1.0000   0.9998   0.8633   0.7434   0.5896   0.4143
     0.2868   0.0000   0.0000   0.0000

          k = 0.1027 0.3081-0.4108 ( 10490 PWs)   bands (ev):

   -86.0039 -52.1680 -52.1680 -52.1679 -23.8168 -12.7384 -12.7266 -12.6532
    -8.1619  -7.9119  -7.8579  -1.3631  -1.2129  -0.9407  -0.9186  -0.7218
    -0.5436  -0.5377  -0.2756  -0.2698  -0.1371  -0.1307  -0.0891  -0.0734
    -0.0598   1.1614   4.8574   4.9719

     occupation numbers 
     1.0000   1.0000   1.0000   1.0000   1.0000   1.0000   1.0000   1.0000
     1.0000   1.0000   1.0000   1.0000   1.0000   1.0000   1.0000   1.0000
     1.0000   1.0000   0.9999   0.9999   0.8411   0.8067   0.5004   0.3728
     0.2717   0.0000   0.0000   0.0000

          k = 0.1027-0.4108-0.4108 ( 10488 PWs)   bands (ev):

   -86.0039 -52.1680 -52.1680 -52.1679 -23.8167 -12.7381 -12.7381 -12.6553
    -8.1613  -7.8574  -7.8574  -1.4005  -1.2738  -0.9348  -0.9348  -0.7664
    -0.5332  -0.5332  -0.2943  -0.2499  -0.1468  -0.1338  -0.0748  -0.0748
    -0.0501   1.1482   4.9723   5.2121

     occupation numbers 
     1.0000   1.0000   1.0000   1.0000   1.0000   1.0000   1.0000   1.0000
     1.0000   1.0000   1.0000   1.0000   1.0000   1.0000   1.0000   1.0000
     1.0000   1.0000   1.0000   0.9996   0.8849   0.8238   0.3837   0.3837
     0.2092   0.0000   0.0000   0.0000

          k = 0.2054 0.2054 0.2054 ( 10510 PWs)   bands (ev):

   -86.0039 -52.1680 -52.1679 -52.1679 -23.8175 -12.7260 -12.6735 -12.6735
    -8.0452  -8.0387  -8.0387  -1.2125  -0.9701  -0.9701  -0.8380  -0.6059
    -0.6059  -0.3472  -0.3472  -0.3399  -0.1467  -0.1467  -0.1350  -0.0640
    -0.0640   1.0993   4.6454   5.3727

     occupation numbers 
     1.0000   1.0000   1.0000   1.0000   1.0000   1.0000   1.0000   1.0000
     1.0000   1.0000   1.0000   1.0000   1.0000   1.0000   1.0000   1.0000
     1.0000   1.0000   1.0000   1.0000   0.8848   0.8848   0.8301   0.3015
     0.3015   0.0000   0.0000   0.0000

          k = 0.2054 0.2054 0.3081 ( 10495 PWs)   bands (ev):

   -86.0039 -52.1680 -52.1679 -52.1679 -23.8170 -12.7320 -12.7007 -12.6730
    -8.0417  -8.0373  -7.9123  -1.2564  -1.0595  -1.0542  -0.9802  -0.5918
    -0.5843  -0.4011  -0.3527  -0.3114  -0.1466  -0.1303  -0.1259  -0.0658
    -0.0639   1.1113   4.6968   5.1703

     occupation numbers 
     1.0000   1.0000   1.0000   1.0000   1.0000   1.0000   1.0000   1.0000
     1.0000   1.0000   1.0000   1.0000   1.0000   1.0000   1.0000   1.0000
     1.0000   1.0000   1.0000   1.0000   0.8843   0.8045   0.7784   0.3149
     0.3004   0.0000   0.0000   0.0000

          k = 0.2054 0.2054-0.4108 ( 10500 PWs)   bands (ev):

   -86.0039 -52.1680 -52.1680 -52.1679 -23.8169 -12.7384 -12.7079 -12.6729
    -8.0411  -8.0367  -7.8579  -1.2651  -1.1683  -1.0850  -0.9875  -0.5859
    -0.5701  -0.4157  -0.3550  -0.3079  -0.1457  -0.1243  -0.1009  -0.0761
    -0.0704   1.1133   4.8125   4.9929

     occupation numbers 
     1.0000   1.0000   1.0000   1.0000   1.0000   1.0000   1.0000   1.0000
     1.0000   1.0000   1.0000   1.0000   1.0000   1.0000   1.0000   1.0000
     1.0000   1.0000   1.0000   1.0000   0.8808   0.7685   0.5972   0.3941
     0.3493   0.0000   0.0000   0.0000

          k = 0.2054 0.3081 0.3081 ( 10488 PWs)   bands (ev):

   -86.0039 -52.1680 -52.1680 -52.1679 -23.8166 -12.7333 -12.7192 -12.6861
    -8.0382  -7.9123  -7.9100  -1.2989  -1.1895  -1.0811  -1.0705  -0.6887
    -0.5519  -0.3788  -0.3690  -0.2590  -0.1426  -0.1337  -0.1269  -0.0724
    -0.0593   1.0559   4.8456   5.2280

     occupation numbers 
     1.0000   1.0000   1.0000   1.0000   1.0000   1.0000   1.0000   1.0000
     1.0000   1.0000   1.0000   1.0000   1.0000   1.0000   1.0000   1.0000
     1.0000   1.0000   1.0000   0.9998   0.8673   0.8235   0.7846   0.3644
     0.2682   0.0000   0.0000   0.0000

          k = 0.2054 0.3081-0.4108 ( 10492 PWs)   bands (ev):

   -86.0039 -52.1680 -52.1680 -52.1679 -23.8164 -12.7379 -12.7264 -12.6876
    -8.0376  -7.9106  -7.8567  -1.3165  -1.2678  -1.1129  -1.0730  -0.7192
    -0.5377  -0.3744  -0.3675  -0.2451  -0.1406  -0.1377  -0.1053  -0.0826
    -0.0631   1.0310   5.0537   5.0708

     occupation numbers 
     1.0000   1.0000   1.0000   1.0000   1.0000   1.0000   1.0000   1.0000
     1.0000   1.0000   1.0000   1.0000   1.0000   1.0000   1.0000   1.0000
     1.0000   1.0000   1.0000   0.9994   0.8582   0.8440   0.6321   0.4468
     0.2950   0.0000   0.0000   0.0000

          k = 0.2054-0.4108-0.4108 ( 10468 PWs)   bands (ev):

   -86.0039 -52.1680 -52.1679 -52.1679 -23.8162 -12.7376 -12.7376 -12.6898
    -8.0371  -7.8562  -7.8562  -1.3471  -1.3258  -1.1068  -1.1068  -0.7649
    -0.5224  -0.3645  -0.3645  -0.2268  -0.1495  -0.1357  -0.0849  -0.0849
    -0.0733   0.9961   5.1710   5.1710

     occupation numbers 
     1.0000   1.0000   1.0000   1.0000   1.0000   1.0000   1.0000   1.0000
     1.0000   1.0000   1.0000   1.0000   1.0000   1.0000   1.0000   1.0000
     1.0000   1.0000   1.0000   0.9979   0.8958   0.8340   0.4661   0.4661
     0.3722   0.0000   0.0000   0.0000

          k = 0.3081 0.3081 0.3081 ( 10465 PWs)   bands (ev):

   -86.0039 -52.1680 -52.1679 -52.1679 -23.8161 -12.7338 -12.7187 -12.7187
    -7.9122  -7.9088  -7.9088  -1.3161  -1.2461  -1.1778  -1.1778  -0.6858
    -0.6858  -0.3045  -0.3045  -0.2147  -0.1442  -0.1434  -0.1434  -0.0735
    -0.0735   0.9473   5.0424   5.4431

     occupation numbers 
     1.0000   1.0000   1.0000   1.0000   1.0000   1.0000   1.0000   1.0000
     1.0000   1.0000   1.0000   1.0000   1.0000   1.0000   1.0000   1.0000
     1.0000   1.0000   1.0000   0.9955   0.8745   0.8709   0.8709   0.3734
     0.3734   0.0000   0.0000   0.0000

          k = 0.3081 0.3081-0.4108 ( 10442 PWs)   bands (ev):

   -86.0039 -52.1679 -52.1679 -52.1679 -23.8159 -12.7374 -12.7286 -12.7185
    -7.9106  -7.9083  -7.8555  -1.3609  -1.2771  -1.2158  -1.1823  -0.7304
    -0.6847  -0.2810  -0.2740  -0.2046  -0.1464  -0.1443  -0.1221  -0.0986
    -0.0772   0.9015   5.2651   5.3010

     occupation numbers 
     1.0000   1.0000   1.0000   1.0000   1.0000   1.0000   1.0000   1.0000
     1.0000   1.0000   1.0000   1.0000   1.0000   1.0000   1.0000   1.0000
     1.0000   1.0000   0.9999   0.9919   0.8834   0.8747   0.7542   0.5790
     0.4025   0.0000   0.0000   0.0000

          k = 0.3081-0.4108-0.4108 ( 10452 PWs)   bands (ev):

   -86.0039 -52.1679 -52.1679 -52.1679 -23.8158 -12.7372 -12.7372 -12.7234
    -7.9089  -7.8550  -7.8550  -1.4144  -1.2885  -1.2219  -1.2219  -0.7634
    -0.7038  -0.2395  -0.2395  -0.1926  -0.1530  -0.1384  -0.1092  -0.1092
    -0.1078   0.8476   5.4286   5.4286

     occupation numbers 
     1.0000   1.0000   1.0000   1.0000   1.0000   1.0000   1.0000   1.0000
     1.0000   1.0000   1.0000   1.0000   1.0000   1.0000   1.0000   1.0000
     1.0000   0.9991   0.9991   0.9844   0.9082   0.8475   0.6625   0.6625
     0.6517   0.0000   0.0000   0.0000

          k =-0.4108-0.4108-0.4108 ( 10432 PWs)   bands (ev):

   -86.0039 -52.1679 -52.1679 -52.1679 -23.8156 -12.7370 -12.7370 -12.7370
    -7.8546  -7.8546  -7.8546  -1.4652  -1.2623  -1.2623  -1.2623  -0.7628
    -0.7628  -0.1605  -0.1605  -0.1605  -0.1542  -0.1542  -0.1542  -0.1399
    -0.1399   0.7867   5.5663   5.5663

     occupation numbers 
     1.0000   1.0000   1.0000   1.0000   1.0000   1.0000   1.0000   1.0000
     1.0000   1.0000   1.0000   1.0000   1.0000   1.0000   1.0000   1.0000
     1.0000   0.9315   0.9315   0.9315   0.9123   0.9123   0.9123   0.8546
     0.8546   0.0000   0.0000   0.0000

     the Fermi energy is    -0.0890 ev

!    total energy              =   -1181.95881246 Ry
     total all-electron energy =    -24146.526159 Ry
     estimated scf accuracy    <          1.1E-11 Ry
     smearing contrib. (-TS)   =      -0.01198932 Ry
     internal energy E=F+TS    =   -1181.94682315 Ry

     The total energy is F=E-TS. E is the sum of the following terms:
     one-electron contribution =    -278.85368503 Ry
     hartree contribution      =     151.28163850 Ry
     xc contribution           =     -72.82777838 Ry
     ewald contribution        =    -189.72404606 Ry
     one-center paw contrib.   =    -791.82295217 Ry
      -> PAW hartree energy AE =      29.01771892 Ry
      -> PAW hartree energy PS =     -28.90223770 Ry
      -> PAW xc energy AE      =    -200.64908664 Ry
      -> PAW xc energy PS      =      18.47387817 Ry
      -> total E_H with PAW    =     151.39711972 Ry
      -> total E_XC with PAW   =    -255.00298685 Ry

     convergence has been achieved in  16 iterations

     Forces acting on atoms (cartesian axes, Ry/au):

     atom    1 type  1   force =     0.00000000    0.00000000    0.00000000
     atom    2 type  2   force =     0.00000000    0.00000000    0.00000000
     atom    3 type  3   force =     0.00000000    0.00000000    0.00000000
     atom    4 type  3   force =     0.00000000    0.00000000    0.00000000
     atom    5 type  3   force =     0.00000000    0.00000000    0.00000000
     The non-local contrib.  to forces
     atom    1 type  1   force =     0.00000000    0.00000000    0.00000000
     atom    2 type  2   force =     0.00000000    0.00000000    0.00000000
     atom    3 type  3   force =     0.00000000    0.00000000    0.00000000
     atom    4 type  3   force =     0.00000000    0.00000000    0.00000000
     atom    5 type  3   force =     0.00000000    0.00000000    0.00000000
     The ionic contribution  to forces
     atom    1 type  1   force =    -0.00000000   -0.00000000   -0.00000000
     atom    2 type  2   force =    -0.00000000   -0.00000000   -0.00000000
     atom    3 type  3   force =    -0.00000000   -0.00000000   -0.00000000
     atom    4 type  3   force =    -0.00000000   -0.00000000   -0.00000000
     atom    5 type  3   force =    -0.00000000   -0.00000000   -0.00000000
     The local contribution  to forces
     atom    1 type  1   force =     0.00000000   -0.00000000   -0.00000000
     atom    2 type  2   force =     0.00000000    0.00000000    0.00000000
     atom    3 type  3   force =    -0.00000000   -0.00000000    0.00000000
     atom    4 type  3   force =    -0.00000000   -0.00000000    0.00000000
     atom    5 type  3   force =     0.00000000   -0.00000000   -0.00000000
     The core correction contribution to forces
     atom    1 type  1   force =     0.00000000    0.00000000    0.00000000
     atom    2 type  2   force =    -0.00000000   -0.00000000   -0.00000000
     atom    3 type  3   force =     0.00000000   -0.00000000    0.00000000
     atom    4 type  3   force =    -0.00000000    0.00000000    0.00000000
     atom    5 type  3   force =     0.00000000   -0.00000000    0.00000000
     The Hubbard contrib.    to forces
     atom    1 type  1   force =     0.00000000    0.00000000    0.00000000
     atom    2 type  2   force =     0.00000000    0.00000000    0.00000000
     atom    3 type  3   force =     0.00000000    0.00000000    0.00000000
     atom    4 type  3   force =     0.00000000    0.00000000    0.00000000
     atom    5 type  3   force =     0.00000000    0.00000000    0.00000000
     The SCF correction term to forces
     atom    1 type  1   force =    -0.00000000   -0.00000000    0.00000000
     atom    2 type  2   force =     0.00000000    0.00000000    0.00000000
     atom    3 type  3   force =     0.00000000   -0.00000000   -0.00000000
     atom    4 type  3   force =     0.00000000    0.00000000   -0.00000000
     atom    5 type  3   force =    -0.00000000   -0.00000000   -0.00000000

     Total force =     0.000000     Total SCF correction =     0.000000


     Computing stress (Cartesian axis) and pressure

          total   stress  (Ry/bohr**3)                   (kbar)     P=        1.11
   0.00000756   0.00000000   0.00000000            1.11        0.00        0.00
   0.00000000   0.00000756   0.00000000            0.00        1.11        0.00
   0.00000000   0.00000000   0.00000756            0.00        0.00        1.11

     kinetic stress (kbar)   7702.64      0.00      0.00
                                0.00   7702.64      0.00
                                0.00      0.00   7702.64

     local   stress (kbar)  -4691.50     -0.00     -0.00
                               -0.00  -4691.50      0.00
                               -0.00      0.00  -4691.50

     nonloc. stress (kbar)    -27.82      0.00      0.00
                                0.00    -27.82      0.00
                                0.00      0.00    -27.82

     hartree stress (kbar)   4737.02     -0.00      0.00
                               -0.00   4737.02     -0.00
                                0.00     -0.00   4737.02

     exc-cor stress (kbar)    454.78     -0.00     -0.00
                               -0.00    454.78      0.00
                               -0.00      0.00    454.78

     corecor stress (kbar)  -2233.25     -0.00      0.00
                               -0.00  -2233.25      0.00
                                0.00      0.00  -2233.25

     ewald   stress (kbar)  -5940.75      0.00     -0.00
                                0.00  -5940.75     -0.00
                               -0.00     -0.00  -5940.75

     hubbard stress (kbar)      0.00      0.00      0.00
                                0.00      0.00      0.00
                                0.00      0.00      0.00

     DFT-D   stress (kbar)      0.00      0.00      0.00
                                0.00      0.00      0.00
                                0.00      0.00      0.00

     XDM     stress (kbar)      0.00      0.00      0.00
                                0.00      0.00      0.00
                                0.00      0.00      0.00

     dft-nl  stress (kbar)      0.00      0.00      0.00
                                0.00      0.00      0.00
                                0.00      0.00      0.00

     TS-vdW  stress (kbar)      0.00      0.00      0.00
                                0.00      0.00      0.00
                                0.00      0.00      0.00

     MDB     stress (kbar)      0.00      0.00      0.00
                                0.00      0.00      0.00
                                0.00      0.00      0.00

     3D-RISM stress (kbar)      0.00      0.00      0.00
                                0.00      0.00      0.00
                                0.00      0.00      0.00

     Energy error            =      3.9E-03 Ry
     Gradient error          =      0.0E+00 Ry/Bohr
     Cell gradient error     =      1.1E+00 kbar

     number of scf cycles    =   6
     number of bfgs steps    =   5

     enthalpy           old  =   -1181.9549107096 Ry
     enthalpy           new  =   -1181.9588124641 Ry

     CASE: enthalpy          _new < enthalpy          _old

     new trust radius        =       0.0227430391 bohr
     new conv_thr            =            1.0E-10 Ry

     new unit-cell volume =   1579.52308 a.u.^3 (   234.06117 Ang^3 )
     density =      2.70317 g/cm^3

CELL_PARAMETERS (angstrom)
   6.162777069   0.000000000   0.000000000
   0.000000000   6.162777069   0.000000000
   0.000000000   0.000000000   6.162777069

ATOMIC_POSITIONS (crystal)
Rb               0.0000000000        0.0000000000        0.0000000000
Fe               0.5000000000        0.5000000000        0.5000000000
Br               0.5000000000        0.0000000000        0.0000000000
Br               0.0000000000        0.5000000000        0.0000000000
Br               0.0000000000        0.0000000000        0.5000000000



     Writing config-only to output data dir ./tmp/rbfebr3.save/ :
     XML data file
     NEW-OLD atomic charge density approx. for the potential

     total cpu time spent up to now is     2269.1 secs

     Self-consistent Calculation

     iteration #  1     ecut=    80.00 Ry     beta= 0.40
     Davidson diagonalization with overlap

---- Real-time Memory Report at c_bands before calling an iterative solver
           254 MiB given to the printing process from OS
             0 MiB allocation reported by mallinfo(arena+hblkhd)
         45373 MiB available memory on the node where the printing process lives
------------------
     ethr =  1.00E-06,  avg # of iterations =  3.0

     total cpu time spent up to now is     2292.6 secs

     total energy              =   -1181.95868782 Ry
     estimated scf accuracy    <       0.00033717 Ry

     iteration #  2     ecut=    80.00 Ry     beta= 0.40
     Davidson diagonalization with overlap

---- Real-time Memory Report at c_bands before calling an iterative solver
           254 MiB given to the printing process from OS
             0 MiB allocation reported by mallinfo(arena+hblkhd)
         45282 MiB available memory on the node where the printing process lives
------------------
     ethr =  7.33E-07,  avg # of iterations =  3.8

     total cpu time spent up to now is     2315.8 secs

     total energy              =   -1181.95670823 Ry
     estimated scf accuracy    <       0.26654262 Ry

     iteration #  3     ecut=    80.00 Ry     beta= 0.40
     Davidson diagonalization with overlap

---- Real-time Memory Report at c_bands before calling an iterative solver
           254 MiB given to the printing process from OS
             0 MiB allocation reported by mallinfo(arena+hblkhd)
         45293 MiB available memory on the node where the printing process lives
------------------
     ethr =  7.33E-07,  avg # of iterations =  3.1

     total cpu time spent up to now is     2336.9 secs

     total energy              =   -1181.95884600 Ry
     estimated scf accuracy    <       0.00201839 Ry

     iteration #  4     ecut=    80.00 Ry     beta= 0.40
     Davidson diagonalization with overlap

---- Real-time Memory Report at c_bands before calling an iterative solver
           254 MiB given to the printing process from OS
             0 MiB allocation reported by mallinfo(arena+hblkhd)
         45271 MiB available memory on the node where the printing process lives
------------------
     ethr =  7.33E-07,  avg # of iterations =  1.0

     total cpu time spent up to now is     2350.2 secs

     total energy              =   -1181.95886430 Ry
     estimated scf accuracy    <       0.00061538 Ry

     iteration #  5     ecut=    80.00 Ry     beta= 0.40
     Davidson diagonalization with overlap

---- Real-time Memory Report at c_bands before calling an iterative solver
           254 MiB given to the printing process from OS
             0 MiB allocation reported by mallinfo(arena+hblkhd)
         45259 MiB available memory on the node where the printing process lives
------------------
     ethr =  7.33E-07,  avg # of iterations =  1.0

     total cpu time spent up to now is     2364.0 secs

     total energy              =   -1181.95886270 Ry
     estimated scf accuracy    <       0.00005198 Ry

     iteration #  6     ecut=    80.00 Ry     beta= 0.40
     Davidson diagonalization with overlap

---- Real-time Memory Report at c_bands before calling an iterative solver
           254 MiB given to the printing process from OS
             0 MiB allocation reported by mallinfo(arena+hblkhd)
         45316 MiB available memory on the node where the printing process lives
------------------
     ethr =  1.13E-07,  avg # of iterations =  1.0

     total cpu time spent up to now is     2377.3 secs

     total energy              =   -1181.95886243 Ry
     estimated scf accuracy    <       0.00001552 Ry

     iteration #  7     ecut=    80.00 Ry     beta= 0.40
     Davidson diagonalization with overlap

---- Real-time Memory Report at c_bands before calling an iterative solver
           254 MiB given to the printing process from OS
             0 MiB allocation reported by mallinfo(arena+hblkhd)
         45292 MiB available memory on the node where the printing process lives
------------------
     ethr =  3.37E-08,  avg # of iterations =  1.0

     total cpu time spent up to now is     2390.6 secs

     total energy              =   -1181.95886261 Ry
     estimated scf accuracy    <       0.00000428 Ry

     iteration #  8     ecut=    80.00 Ry     beta= 0.40
     Davidson diagonalization with overlap

---- Real-time Memory Report at c_bands before calling an iterative solver
           254 MiB given to the printing process from OS
             0 MiB allocation reported by mallinfo(arena+hblkhd)
         45326 MiB available memory on the node where the printing process lives
------------------
     ethr =  9.30E-09,  avg # of iterations =  1.0

     total cpu time spent up to now is     2403.8 secs

     total energy              =   -1181.95886266 Ry
     estimated scf accuracy    <       0.00000027 Ry

     iteration #  9     ecut=    80.00 Ry     beta= 0.40
     Davidson diagonalization with overlap

---- Real-time Memory Report at c_bands before calling an iterative solver
           254 MiB given to the printing process from OS
             0 MiB allocation reported by mallinfo(arena+hblkhd)
         45237 MiB available memory on the node where the printing process lives
------------------
     ethr =  5.80E-10,  avg # of iterations =  1.0

     total cpu time spent up to now is     2417.3 secs

     total energy              =   -1181.95886266 Ry
     estimated scf accuracy    <       0.00000015 Ry

     iteration # 10     ecut=    80.00 Ry     beta= 0.40
     Davidson diagonalization with overlap

---- Real-time Memory Report at c_bands before calling an iterative solver
           254 MiB given to the printing process from OS
             0 MiB allocation reported by mallinfo(arena+hblkhd)
         45292 MiB available memory on the node where the printing process lives
------------------
     ethr =  3.32E-10,  avg # of iterations =  1.0

     total cpu time spent up to now is     2431.1 secs

     total energy              =   -1181.95886266 Ry
     estimated scf accuracy    <       0.00000002 Ry

     iteration # 11     ecut=    80.00 Ry     beta= 0.40
     Davidson diagonalization with overlap

---- Real-time Memory Report at c_bands before calling an iterative solver
           254 MiB given to the printing process from OS
             0 MiB allocation reported by mallinfo(arena+hblkhd)
         45233 MiB available memory on the node where the printing process lives
------------------
     ethr =  4.69E-11,  avg # of iterations =  1.0

     total cpu time spent up to now is     2444.6 secs

     total energy              =   -1181.95886266 Ry
     estimated scf accuracy    <          9.8E-09 Ry

     iteration # 12     ecut=    80.00 Ry     beta= 0.40
     Davidson diagonalization with overlap

---- Real-time Memory Report at c_bands before calling an iterative solver
           254 MiB given to the printing process from OS
             0 MiB allocation reported by mallinfo(arena+hblkhd)
         45305 MiB available memory on the node where the printing process lives
------------------
     ethr =  2.13E-11,  avg # of iterations =  1.0

     total cpu time spent up to now is     2458.4 secs

     End of self-consistent calculation

          k = 0.0000 0.0000 0.0000 ( 10443 PWs)   bands (ev):

   -86.0585 -52.2230 -52.2230 -52.2230 -23.8779 -12.7567 -12.6504 -12.6504
    -8.2694  -8.2694  -8.2694  -0.9064  -0.9064  -0.9064  -0.5523  -0.5523
    -0.5523  -0.2142  -0.2142  -0.2076  -0.2076  -0.2076  -0.0972  -0.0972
    -0.0972   0.4735   5.7949   5.7949

     occupation numbers 
     1.0000   1.0000   1.0000   1.0000   1.0000   1.0000   1.0000   1.0000
     1.0000   1.0000   1.0000   1.0000   1.0000   1.0000   1.0000   1.0000
     1.0000   0.9229   0.9229   0.9010   0.9010   0.9010   0.1569   0.1569
     0.1569   0.0000   0.0000   0.0000

          k = 0.0000 0.0000 0.1024 ( 10519 PWs)   bands (ev):

   -86.0586 -52.2230 -52.2230 -52.2230 -23.8777 -12.7579 -12.6634 -12.6503
    -8.2688  -8.2688  -8.2203  -0.9524  -0.8986  -0.8986  -0.5768  -0.5745
    -0.5745  -0.2572  -0.2127  -0.2077  -0.1980  -0.1945  -0.1945  -0.1057
    -0.1057   0.5934   5.3854   5.7116

     occupation numbers 
     1.0000   1.0000   1.0000   1.0000   1.0000   1.0000   1.0000   1.0000
     1.0000   1.0000   1.0000   1.0000   1.0000   1.0000   1.0000   1.0000
     1.0000   0.9898   0.9183   0.9016   0.8617   0.8451   0.8451   0.2030
     0.2030   0.0000   0.0000   0.0000

          k = 0.0000 0.0000 0.2048 ( 10495 PWs)   bands (ev):

   -86.0585 -52.2230 -52.2230 -52.2230 -23.8773 -12.7628 -12.6919 -12.6499
    -8.2674  -8.2674  -8.0995  -1.0463  -0.8749  -0.8749  -0.6296  -0.6296
    -0.6283  -0.5913  -0.2082  -0.2075  -0.1701  -0.1701  -0.1655  -0.1198
    -0.1198   0.8379   4.7860   5.5541

     occupation numbers 
     1.0000   1.0000   1.0000   1.0000   1.0000   1.0000   1.0000   1.0000
     1.0000   1.0000   1.0000   1.0000   1.0000   1.0000   1.0000   1.0000
     1.0000   1.0000   0.9033   0.9008   0.6942   0.6942   0.6597   0.2953
     0.2953   0.0000   0.0000   0.0000

          k = 0.0000 0.0000 0.3072 ( 10491 PWs)   bands (ev):

   -86.0585 -52.2230 -52.2230 -52.2230 -23.8769 -12.7732 -12.7139 -12.6496
    -8.2659  -8.2659  -7.9751  -1.1138  -0.9075  -0.8353  -0.8353  -0.6978
    -0.6978  -0.6729  -0.2072  -0.2039  -0.1689  -0.1689  -0.1395  -0.1130
    -0.1130   1.0715   4.3312   5.4281

     occupation numbers 
     1.0000   1.0000   1.0000   1.0000   1.0000   1.0000   1.0000   1.0000
     1.0000   1.0000   1.0000   1.0000   1.0000   1.0000   1.0000   1.0000
     1.0000   1.0000   0.8998   0.8868   0.6855   0.6855   0.4491   0.2484
     0.2484   0.0000   0.0000   0.0000

          k = 0.0000 0.0000-0.4096 ( 10516 PWs)   bands (ev):

   -86.0586 -52.2230 -52.2230 -52.2230 -23.8767 -12.7799 -12.7204 -12.6495
    -8.2653  -8.2653  -7.9224  -1.1047  -1.0676  -0.7975  -0.7975  -0.7469
    -0.7469  -0.6900  -0.2072  -0.2022  -0.1740  -0.1740  -0.1302  -0.1050
    -0.1050   1.1713   4.1575   5.3815

     occupation numbers 
     1.0000   1.0000   1.0000   1.0000   1.0000   1.0000   1.0000   1.0000
     1.0000   1.0000   1.0000   1.0000   1.0000   1.0000   1.0000   1.0000
     1.0000   1.0000   0.8998   0.8802   0.7223   0.7223   0.3736   0.1991
     0.1991   0.0000   0.0000   0.0000

          k = 0.0000 0.1024 0.1024 ( 10505 PWs)   bands (ev):

   -86.0585 -52.2230 -52.2230 -52.2230 -23.8775 -12.7589 -12.6700 -12.6566
    -8.2682  -8.2207  -8.2187  -1.0079  -0.8914  -0.8793  -0.6445  -0.5942
    -0.5383  -0.3203  -0.2075  -0.2036  -0.1990  -0.1906  -0.1901  -0.1738
    -0.1152   0.6859   5.2331   5.6404

     occupation numbers 
     1.0000   1.0000   1.0000   1.0000   1.0000   1.0000   1.0000   1.0000
     1.0000   1.0000   1.0000   1.0000   1.0000   1.0000   1.0000   1.0000
     1.0000   0.9999   0.9006   0.8860   0.8661   0.8251   0.8220   0.7208
     0.2630   0.0000   0.0000   0.0000

          k = 0.0000 0.1024 0.2048 ( 10507 PWs)   bands (ev):

   -86.0585 -52.2230 -52.2230 -52.2230 -23.8771 -12.7633 -12.6967 -12.6587
    -8.2668  -8.2183  -8.0989  -1.1015  -0.8694  -0.8602  -0.7297  -0.6442
    -0.6065  -0.5282  -0.2368  -0.2039  -0.1962  -0.1815  -0.1696  -0.1489
    -0.1311   0.8876   4.7827   5.4983

     occupation numbers 
     1.0000   1.0000   1.0000   1.0000   1.0000   1.0000   1.0000   1.0000
     1.0000   1.0000   1.0000   1.0000   1.0000   1.0000   1.0000   1.0000
     1.0000   1.0000   0.9709   0.8872   0.8532   0.7716   0.6908   0.5267
     0.3807   0.0000   0.0000   0.0000

          k = 0.0000 0.1024 0.3072 ( 10509 PWs)   bands (ev):

   -86.0585 -52.2230 -52.2230 -52.2230 -23.8767 -12.7731 -12.7189 -12.6587
    -8.2653  -8.2169  -7.9746  -1.1674  -0.9478  -0.8324  -0.8284  -0.7620
    -0.7068  -0.5438  -0.2602  -0.1993  -0.1957  -0.1747  -0.1533  -0.1325
    -0.1206   1.0835   4.3958   5.3800

     occupation numbers 
     1.0000   1.0000   1.0000   1.0000   1.0000   1.0000   1.0000   1.0000
     1.0000   1.0000   1.0000   1.0000   1.0000   1.0000   1.0000   1.0000
     1.0000   1.0000   0.9914   0.8676   0.8508   0.7271   0.5633   0.3920
     0.3012   0.0000   0.0000   0.0000

          k = 0.0000 0.1024-0.4096 ( 10500 PWs)   bands (ev):

   -86.0585 -52.2230 -52.2230 -52.2230 -23.8765 -12.7797 -12.7254 -12.6586
    -8.2647  -8.2163  -7.9219  -1.1729  -1.0814  -0.8095  -0.8032  -0.7961
    -0.7534  -0.5506  -0.2696  -0.1973  -0.1951  -0.1821  -0.1341  -0.1339
    -0.1113   1.1667   4.2472   5.2786

     occupation numbers 
     1.0000   1.0000   1.0000   1.0000   1.0000   1.0000   1.0000   1.0000
     1.0000   1.0000   1.0000   1.0000   1.0000   1.0000   1.0000   1.0000
     1.0000   1.0000   0.9950   0.8585   0.8478   0.7754   0.4048   0.4037
     0.2377   0.0000   0.0000   0.0000

          k = 0.0000 0.2048 0.2048 ( 10467 PWs)   bands (ev):

   -86.0585 -52.2230 -52.2230 -52.2230 -23.8767 -12.7656 -12.7161 -12.6699
    -8.2653  -8.0997  -8.0956  -1.2053  -0.8524  -0.8460  -0.8405  -0.6815
    -0.6736  -0.4953  -0.3866  -0.2012  -0.1837  -0.1745  -0.1585  -0.1532
    -0.1467   1.0013   4.7123   5.3776

     occupation numbers 
     1.0000   1.0000   1.0000   1.0000   1.0000   1.0000   1.0000   1.0000
     1.0000   1.0000   1.0000   1.0000   1.0000   1.0000   1.0000   1.0000
     1.0000   1.0000   1.0000   0.8759   0.7857   0.7255   0.6052   0.5620
     0.5087   0.0000   0.0000   0.0000

          k = 0.0000 0.2048 0.3072 ( 10502 PWs)   bands (ev):

   -86.0585 -52.2230 -52.2230 -52.2230 -23.8763 -12.7729 -12.7371 -12.6735
    -8.2639  -8.0964  -7.9734  -1.2842  -1.0314  -0.8268  -0.8234  -0.7716
    -0.7295  -0.5053  -0.4038  -0.1974  -0.1934  -0.1657  -0.1632  -0.1435
    -0.1325   1.1111   4.5521   5.2702

     occupation numbers 
     1.0000   1.0000   1.0000   1.0000   1.0000   1.0000   1.0000   1.0000
     1.0000   1.0000   1.0000   1.0000   1.0000   1.0000   1.0000   1.0000
     1.0000   1.0000   1.0000   0.8589   0.8397   0.6613   0.6421   0.4824
     0.3920   0.0000   0.0000   0.0000

          k = 0.0000 0.2048-0.4096 ( 10500 PWs)   bands (ev):

   -86.0585 -52.2230 -52.2230 -52.2230 -23.8761 -12.7792 -12.7431 -12.6742
    -8.2632  -8.0958  -7.9208  -1.3079  -1.1353  -0.8153  -0.8069  -0.7925
    -0.7680  -0.5055  -0.4054  -0.2064  -0.1847  -0.1673  -0.1664  -0.1379
    -0.1218   1.1564   4.4737   5.2285

     occupation numbers 
     1.0000   1.0000   1.0000   1.0000   1.0000   1.0000   1.0000   1.0000
     1.0000   1.0000   1.0000   1.0000   1.0000   1.0000   1.0000   1.0000
     1.0000   1.0000   1.0000   0.8966   0.7915   0.6732   0.6668   0.4357
     0.3097   0.0000   0.0000   0.0000

          k = 0.0000 0.3072 0.3072 ( 10487 PWs)   bands (ev):

   -86.0585 -52.2230 -52.2230 -52.2230 -23.8758 -12.7743 -12.7605 -12.6805
    -8.2624  -7.9733  -7.9712  -1.3802  -1.1625  -0.8257  -0.8077  -0.7671
    -0.7576  -0.6588  -0.3461  -0.2234  -0.1976  -0.1695  -0.1405  -0.1366
    -0.1304   1.1373   4.6951   5.1679

     occupation numbers 
     1.0000   1.0000   1.0000   1.0000   1.0000   1.0000   1.0000   1.0000
     1.0000   1.0000   1.0000   1.0000   1.0000   1.0000   1.0000   1.0000
     1.0000   1.0000   1.0000   0.9469   0.8597   0.6899   0.4575   0.4253
     0.3752   0.0000   0.0000   0.0000

          k = 0.0000 0.3072-0.4096 ( 10496 PWs)   bands (ev):

   -86.0585 -52.2230 -52.2230 -52.2230 -23.8757 -12.7787 -12.7674 -12.6822
    -8.2618  -7.9718  -7.9196  -1.4145  -1.2371  -0.8190  -0.7886  -0.7815
    -0.7785  -0.6940  -0.3297  -0.2350  -0.1922  -0.1846  -0.1401  -0.1276
    -0.1161   1.1479   4.7229   5.1273

     occupation numbers 
     1.0000   1.0000   1.0000   1.0000   1.0000   1.0000   1.0000   1.0000
     1.0000   1.0000   1.0000   1.0000   1.0000   1.0000   1.0000   1.0000
     1.0000   1.0000   0.9999   0.9683   0.8336   0.7910   0.4539   0.3538
     0.2693   0.0000   0.0000   0.0000

          k = 0.0000-0.4096-0.4096 ( 10488 PWs)   bands (ev):

   -86.0585 -52.2230 -52.2230 -52.2230 -23.8755 -12.7785 -12.7785 -12.6842
    -8.2612  -7.9192  -7.9192  -1.4533  -1.2975  -0.8079  -0.7869  -0.7869
    -0.7640  -0.7640  -0.3105  -0.2474  -0.2021  -0.1896  -0.1292  -0.1292
    -0.0985   1.1449   4.8362   5.0868

     occupation numbers 
     1.0000   1.0000   1.0000   1.0000   1.0000   1.0000   1.0000   1.0000
     1.0000   1.0000   1.0000   1.0000   1.0000   1.0000   1.0000   1.0000
     1.0000   1.0000   0.9997   0.9828   0.8798   0.8193   0.3660   0.3660
     0.1636   0.0000   0.0000   0.0000

          k = 0.1024 0.1024 0.1024 ( 10515 PWs)   bands (ev):

   -86.0586 -52.2230 -52.2230 -52.2230 -23.8774 -12.7598 -12.6699 -12.6699
    -8.2211  -8.2181  -8.2181  -1.0512  -0.8823  -0.8823  -0.6490  -0.6490
    -0.5059  -0.3804  -0.2091  -0.2091  -0.2020  -0.2020  -0.1966  -0.1628
    -0.1628   0.7596   5.0843   5.5137

     occupation numbers 
     1.0000   1.0000   1.0000   1.0000   1.0000   1.0000   1.0000   1.0000
     1.0000   1.0000   1.0000   1.0000   1.0000   1.0000   1.0000   1.0000
     1.0000   1.0000   0.9064   0.9064   0.8794   0.8794   0.8553   0.6388
     0.6388   0.0000   0.0000   0.0000

          k = 0.1024 0.1024 0.2048 ( 10501 PWs)   bands (ev):

   -86.0585 -52.2230 -52.2230 -52.2230 -23.8769 -12.7637 -12.6994 -12.6695
    -8.2188  -8.2167  -8.0984  -1.1351  -0.8962  -0.8714  -0.7100  -0.7041
    -0.5911  -0.4950  -0.2678  -0.2219  -0.2072  -0.1896  -0.1885  -0.1576
    -0.1341   0.9258   4.7476   5.3184

     occupation numbers 
     1.0000   1.0000   1.0000   1.0000   1.0000   1.0000   1.0000   1.0000
     1.0000   1.0000   1.0000   1.0000   1.0000   1.0000   1.0000   1.0000
     1.0000   1.0000   0.9944   0.9434   0.8997   0.8197   0.8136   0.5978
     0.4050   0.0000   0.0000   0.0000

          k = 0.1024 0.1024 0.3072 ( 10491 PWs)   bands (ev):

   -86.0585 -52.2230 -52.2230 -52.2230 -23.8765 -12.7730 -12.7224 -12.6692
    -8.2173  -8.2153  -7.9741  -1.1961  -0.9615  -0.9208  -0.8650  -0.7366
    -0.6282  -0.5075  -0.3019  -0.2401  -0.2044  -0.1787  -0.1571  -0.1502
    -0.1196   1.0873   4.4481   5.1779

     occupation numbers 
     1.0000   1.0000   1.0000   1.0000   1.0000   1.0000   1.0000   1.0000
     1.0000   1.0000   1.0000   1.0000   1.0000   1.0000   1.0000   1.0000
     1.0000   1.0000   0.9994   0.9752   0.8888   0.7541   0.5940   0.5375
     0.2938   0.0000   0.0000   0.0000

          k = 0.1024 0.1024-0.4096 ( 10498 PWs)   bands (ev):

   -86.0585 -52.2230 -52.2230 -52.2230 -23.8763 -12.7795 -12.7290 -12.6690
    -8.2167  -8.2147  -7.9214  -1.2026  -1.0958  -0.9337  -0.8629  -0.7411
    -0.6296  -0.5158  -0.3158  -0.2474  -0.2031  -0.1754  -0.1456  -0.1382
    -0.1199   1.1547   4.3318   5.1265

     occupation numbers 
     1.0000   1.0000   1.0000   1.0000   1.0000   1.0000   1.0000   1.0000
     1.0000   1.0000   1.0000   1.0000   1.0000   1.0000   1.0000   1.0000
     1.0000   1.0000   0.9998   0.9828   0.8839   0.7316   0.4998   0.4381
     0.2963   0.0000   0.0000   0.0000

          k = 0.1024 0.2048 0.2048 ( 10504 PWs)   bands (ev):

   -86.0585 -52.2230 -52.2230 -52.2230 -23.8765 -12.7658 -12.7160 -12.6837
    -8.2164  -8.0992  -8.0951  -1.2144  -0.9404  -0.9024  -0.8026  -0.6695
    -0.6648  -0.4543  -0.3896  -0.2596  -0.2016  -0.1934  -0.1830  -0.1384
    -0.1308   1.0124   4.6519   5.2051

     occupation numbers 
     1.0000   1.0000   1.0000   1.0000   1.0000   1.0000   1.0000   1.0000
     1.0000   1.0000   1.0000   1.0000   1.0000   1.0000   1.0000   1.0000
     1.0000   1.0000   1.0000   0.9911   0.8774   0.8396   0.7809   0.4402
     0.3790   0.0000   0.0000   0.0000

          k = 0.1024 0.2048 0.3072 ( 10494 PWs)   bands (ev):

   -86.0585 -52.2230 -52.2230 -52.2230 -23.8761 -12.7728 -12.7377 -12.6869
    -8.2149  -8.0959  -7.9729  -1.2812  -1.0487  -0.9560  -0.9148  -0.7005
    -0.6224  -0.4904  -0.3988  -0.2839  -0.1977  -0.1798  -0.1622  -0.1419
    -0.1233   1.0932   4.5713   5.0523

     occupation numbers 
     1.0000   1.0000   1.0000   1.0000   1.0000   1.0000   1.0000   1.0000
     1.0000   1.0000   1.0000   1.0000   1.0000   1.0000   1.0000   1.0000
     1.0000   1.0000   1.0000   0.9980   0.8603   0.7608   0.6347   0.4688
     0.3211   0.0000   0.0000   0.0000

          k = 0.1024 0.2048-0.4096 ( 10490 PWs)   bands (ev):

   -86.0585 -52.2230 -52.2230 -52.2230 -23.8759 -12.7790 -12.7439 -12.6873
    -8.2144  -8.0953  -7.9203  -1.2998  -1.1511  -0.9838  -0.9190  -0.7038
    -0.5938  -0.5174  -0.3978  -0.2938  -0.1952  -0.1699  -0.1540  -0.1395
    -0.1262   1.1251   4.5491   4.9738

     occupation numbers 
     1.0000   1.0000   1.0000   1.0000   1.0000   1.0000   1.0000   1.0000
     1.0000   1.0000   1.0000   1.0000   1.0000   1.0000   1.0000   1.0000
     1.0000   1.0000   1.0000   0.9990   0.8484   0.6926   0.5692   0.4487
     0.3431   0.0000   0.0000   0.0000

          k = 0.1024 0.3072 0.3072 ( 10495 PWs)   bands (ev):

   -86.0585 -52.2230 -52.2230 -52.2230 -23.8757 -12.7741 -12.7603 -12.6947
    -8.2135  -7.9728  -7.9707  -1.3651  -1.1783  -0.9644  -0.9546  -0.7373
    -0.6252  -0.5567  -0.3381  -0.3167  -0.1979  -0.1769  -0.1563  -0.1354
    -0.1188   1.0950   4.7008   4.9865

     occupation numbers 
     1.0000   1.0000   1.0000   1.0000   1.0000   1.0000   1.0000   1.0000
     1.0000   1.0000   1.0000   1.0000   1.0000   1.0000   1.0000   1.0000
     1.0000   1.0000   1.0000   0.9998   0.8611   0.7422   0.5875   0.4159
     0.2884   0.0000   0.0000   0.0000

          k = 0.1024 0.3072-0.4096 ( 10490 PWs)   bands (ev):

   -86.0585 -52.2230 -52.2230 -52.2230 -23.8755 -12.7785 -12.7672 -12.6963
    -8.2129  -7.9713  -7.9192  -1.3960  -1.2525  -0.9797  -0.9582  -0.7644
    -0.5903  -0.5841  -0.3314  -0.3218  -0.1933  -0.1870  -0.1457  -0.1304
    -0.1164   1.0947   4.7937   4.9085

     occupation numbers 
     1.0000   1.0000   1.0000   1.0000   1.0000   1.0000   1.0000   1.0000
     1.0000   1.0000   1.0000   1.0000   1.0000   1.0000   1.0000   1.0000
     1.0000   1.0000   0.9999   0.9999   0.8390   0.8048   0.5002   0.3753
     0.2717   0.0000   0.0000   0.0000

          k = 0.1024-0.4096-0.4096 ( 10488 PWs)   bands (ev):

   -86.0585 -52.2230 -52.2230 -52.2230 -23.8753 -12.7783 -12.7783 -12.6983
    -8.2124  -7.9187  -7.9187  -1.4327  -1.3122  -0.9739  -0.9739  -0.8073
    -0.5797  -0.5797  -0.3503  -0.3025  -0.2029  -0.1900  -0.1318  -0.1318
    -0.1065   1.0818   4.9069   5.1509

     occupation numbers 
     1.0000   1.0000   1.0000   1.0000   1.0000   1.0000   1.0000   1.0000
     1.0000   1.0000   1.0000   1.0000   1.0000   1.0000   1.0000   1.0000
     1.0000   1.0000   1.0000   0.9994   0.8829   0.8218   0.3864   0.3864
     0.2077   0.0000   0.0000   0.0000

          k = 0.2048 0.2048 0.2048 ( 10510 PWs)   bands (ev):

   -86.0585 -52.2230 -52.2230 -52.2230 -23.8761 -12.7671 -12.7156 -12.7156
    -8.1000  -8.0938  -8.0938  -1.2494  -1.0090  -1.0090  -0.8848  -0.6534
    -0.6534  -0.3973  -0.3973  -0.3896  -0.2028  -0.2028  -0.1912  -0.1210
    -0.1210   1.0333   4.5878   5.3042

     occupation numbers 
     1.0000   1.0000   1.0000   1.0000   1.0000   1.0000   1.0000   1.0000
     1.0000   1.0000   1.0000   1.0000   1.0000   1.0000   1.0000   1.0000
     1.0000   1.0000   1.0000   1.0000   0.8826   0.8826   0.8280   0.3040
     0.3040   0.0000   0.0000   0.0000

          k = 0.2048 0.2048 0.3072 ( 10495 PWs)   bands (ev):

   -86.0585 -52.2230 -52.2230 -52.2230 -23.8757 -12.7726 -12.7422 -12.7152
    -8.0967  -8.0925  -7.9718  -1.2920  -1.1014  -1.0913  -1.0193  -0.6397
    -0.6316  -0.4500  -0.4028  -0.3617  -0.2027  -0.1866  -0.1821  -0.1228
    -0.1208   1.0454   4.6378   5.1045

     occupation numbers 
     1.0000   1.0000   1.0000   1.0000   1.0000   1.0000   1.0000   1.0000
     1.0000   1.0000   1.0000   1.0000   1.0000   1.0000   1.0000   1.0000
     1.0000   1.0000   1.0000   1.0000   0.8821   0.8025   0.7758   0.3170
     0.3025   0.0000   0.0000   0.0000

          k = 0.2048 0.2048-0.4096 ( 10500 PWs)   bands (ev):

   -86.0585 -52.2230 -52.2230 -52.2230 -23.8755 -12.7785 -12.7494 -12.7150
    -8.0961  -8.0920  -7.9192  -1.2995  -1.2090  -1.1214  -1.0261  -0.6339
    -0.6174  -0.4646  -0.4052  -0.3585  -0.2018  -0.1807  -0.1573  -0.1328
    -0.1272   1.0475   4.7497   4.9315

     occupation numbers 
     1.0000   1.0000   1.0000   1.0000   1.0000   1.0000   1.0000   1.0000
     1.0000   1.0000   1.0000   1.0000   1.0000   1.0000   1.0000   1.0000
     1.0000   1.0000   1.0000   1.0000   0.8786   0.7670   0.5958   0.3948
     0.3507   0.0000   0.0000   0.0000

          k = 0.2048 0.3072 0.3072 ( 10488 PWs)   bands (ev):

   -86.0585 -52.2230 -52.2230 -52.2230 -23.8752 -12.7738 -12.7599 -12.7279
    -8.0933  -7.9717  -7.9695  -1.3335  -1.2298  -1.1181  -1.1073  -0.7322
    -0.6004  -0.4282  -0.4187  -0.3106  -0.1987  -0.1900  -0.1830  -0.1291
    -0.1161   0.9914   4.7845   5.1601

     occupation numbers 
     1.0000   1.0000   1.0000   1.0000   1.0000   1.0000   1.0000   1.0000
     1.0000   1.0000   1.0000   1.0000   1.0000   1.0000   1.0000   1.0000
     1.0000   1.0000   1.0000   0.9997   0.8651   0.8216   0.7810   0.3652
     0.2697   0.0000   0.0000   0.0000

          k = 0.2048 0.3072-0.4096 ( 10492 PWs)   bands (ev):

   -86.0585 -52.2230 -52.2230 -52.2230 -23.8751 -12.7780 -12.7670 -12.7294
    -8.0928  -7.9701  -7.9180  -1.3498  -1.3075  -1.1489  -1.1099  -0.7617
    -0.5864  -0.4240  -0.4172  -0.2973  -0.1968  -0.1939  -0.1614  -0.1392
    -0.1198   0.9671   4.9879   5.0068

     occupation numbers 
     1.0000   1.0000   1.0000   1.0000   1.0000   1.0000   1.0000   1.0000
     1.0000   1.0000   1.0000   1.0000   1.0000   1.0000   1.0000   1.0000
     1.0000   1.0000   1.0000   0.9992   0.8559   0.8419   0.6285   0.4465
     0.2953   0.0000   0.0000   0.0000

          k = 0.2048-0.4096-0.4096 ( 10468 PWs)   bands (ev):

   -86.0585 -52.2230 -52.2230 -52.2230 -23.8749 -12.7778 -12.7778 -12.7316
    -8.0922  -7.9176  -7.9176  -1.3798  -1.3645  -1.1430  -1.1430  -0.8058
    -0.5713  -0.4142  -0.4142  -0.2798  -0.2056  -0.1920  -0.1415  -0.1415
    -0.1294   0.9330   5.1035   5.1035

     occupation numbers 
     1.0000   1.0000   1.0000   1.0000   1.0000   1.0000   1.0000   1.0000
     1.0000   1.0000   1.0000   1.0000   1.0000   1.0000   1.0000   1.0000
     1.0000   1.0000   1.0000   0.9974   0.8934   0.8321   0.4655   0.4655
     0.3674   0.0000   0.0000   0.0000

          k = 0.3072 0.3072 0.3072 ( 10465 PWs)   bands (ev):

   -86.0585 -52.2230 -52.2230 -52.2230 -23.8748 -12.7742 -12.7594 -12.7594
    -7.9716  -7.9684  -7.9684  -1.3547  -1.2817  -1.2128  -1.2128  -0.7293
    -0.7293  -0.3556  -0.3556  -0.2665  -0.2003  -0.1995  -0.1995  -0.1300
    -0.1300   0.8851   4.9784   5.3722

     occupation numbers 
     1.0000   1.0000   1.0000   1.0000   1.0000   1.0000   1.0000   1.0000
     1.0000   1.0000   1.0000   1.0000   1.0000   1.0000   1.0000   1.0000
     1.0000   1.0000   1.0000   0.9940   0.8722   0.8686   0.8686   0.3722
     0.3722   0.0000   0.0000   0.0000

          k = 0.3072 0.3072-0.4096 ( 10442 PWs)   bands (ev):

   -86.0585 -52.2230 -52.2230 -52.2230 -23.8746 -12.7775 -12.7691 -12.7593
    -7.9700  -7.9679  -7.9169  -1.3998  -1.3107  -1.2501  -1.2173  -0.7724
    -0.7282  -0.3325  -0.3258  -0.2572  -0.2024  -0.2004  -0.1780  -0.1547
    -0.1334   0.8403   5.1977   5.2319

     occupation numbers 
     1.0000   1.0000   1.0000   1.0000   1.0000   1.0000   1.0000   1.0000
     1.0000   1.0000   1.0000   1.0000   1.0000   1.0000   1.0000   1.0000
     1.0000   0.9999   0.9999   0.9898   0.8809   0.8724   0.7495   0.5741
     0.3997   0.0000   0.0000   0.0000

          k = 0.3072-0.4096-0.4096 ( 10452 PWs)   bands (ev):

   -86.0585 -52.2230 -52.2230 -52.2230 -23.8744 -12.7773 -12.7773 -12.7640
    -7.9685  -7.9165  -7.9165  -1.4524  -1.3218  -1.2561  -1.2561  -0.8043
    -0.7467  -0.2919  -0.2919  -0.2461  -0.2090  -0.1946  -0.1650  -0.1650
    -0.1634   0.7874   5.3574   5.3574

     occupation numbers 
     1.0000   1.0000   1.0000   1.0000   1.0000   1.0000   1.0000   1.0000
     1.0000   1.0000   1.0000   1.0000   1.0000   1.0000   1.0000   1.0000
     1.0000   0.9988   0.9988   0.9816   0.9059   0.8454   0.6558   0.6558
     0.6435   0.0000   0.0000   0.0000

          k =-0.4096-0.4096-0.4096 ( 10432 PWs)   bands (ev):

   -86.0585 -52.2230 -52.2230 -52.2230 -23.8743 -12.7771 -12.7771 -12.7771
    -7.9160  -7.9160  -7.9160  -1.5024  -1.2958  -1.2958  -1.2958  -0.8037
    -0.8037  -0.2134  -0.2134  -0.2134  -0.2101  -0.2101  -0.2101  -0.1960
    -0.1960   0.7276   5.4927   5.4927

     occupation numbers 
     1.0000   1.0000   1.0000   1.0000   1.0000   1.0000   1.0000   1.0000
     1.0000   1.0000   1.0000   1.0000   1.0000   1.0000   1.0000   1.0000
     1.0000   0.9203   0.9203   0.9203   0.9099   0.9099   0.9099   0.8524
     0.8524   0.0000   0.0000   0.0000

     the Fermi energy is    -0.1457 ev

!    total energy              =   -1181.95886266 Ry
     total all-electron energy =    -24146.526210 Ry
     estimated scf accuracy    <          1.0E-10 Ry
     smearing contrib. (-TS)   =      -0.01203405 Ry
     internal energy E=F+TS    =   -1181.94682861 Ry

     The total energy is F=E-TS. E is the sum of the following terms:
     one-electron contribution =    -279.77662900 Ry
     hartree contribution      =     151.65519792 Ry
     xc contribution           =     -72.82275175 Ry
     ewald contribution        =    -189.18041910 Ry
     one-center paw contrib.   =    -791.82222667 Ry
      -> PAW hartree energy AE =      29.00718243 Ry
      -> PAW hartree energy PS =     -28.89173760 Ry
      -> PAW xc energy AE      =    -200.64736473 Ry
      -> PAW xc energy PS      =      18.47236111 Ry
      -> total E_H with PAW    =     151.77064274 Ry
      -> total E_XC with PAW   =    -254.99775538 Ry

     convergence has been achieved in  12 iterations

     Forces acting on atoms (cartesian axes, Ry/au):

     atom    1 type  1   force =     0.00000000    0.00000000    0.00000000
     atom    2 type  2   force =     0.00000000    0.00000000    0.00000000
     atom    3 type  3   force =     0.00000000    0.00000000    0.00000000
     atom    4 type  3   force =     0.00000000    0.00000000    0.00000000
     atom    5 type  3   force =     0.00000000    0.00000000    0.00000000
     The non-local contrib.  to forces
     atom    1 type  1   force =     0.00000000    0.00000000    0.00000000
     atom    2 type  2   force =     0.00000000    0.00000000    0.00000000
     atom    3 type  3   force =     0.00000000    0.00000000    0.00000000
     atom    4 type  3   force =     0.00000000    0.00000000    0.00000000
     atom    5 type  3   force =     0.00000000    0.00000000    0.00000000
     The ionic contribution  to forces
     atom    1 type  1   force =    -0.00000000   -0.00000000   -0.00000000
     atom    2 type  2   force =    -0.00000000   -0.00000000   -0.00000000
     atom    3 type  3   force =    -0.00000000   -0.00000000   -0.00000000
     atom    4 type  3   force =    -0.00000000   -0.00000000   -0.00000000
     atom    5 type  3   force =    -0.00000000   -0.00000000   -0.00000000
     The local contribution  to forces
     atom    1 type  1   force =     0.00000000   -0.00000000   -0.00000000
     atom    2 type  2   force =     0.00000000    0.00000000    0.00000000
     atom    3 type  3   force =    -0.00000000   -0.00000000   -0.00000000
     atom    4 type  3   force =     0.00000000   -0.00000000   -0.00000000
     atom    5 type  3   force =     0.00000000   -0.00000000   -0.00000000
     The core correction contribution to forces
     atom    1 type  1   force =     0.00000000    0.00000000    0.00000000
     atom    2 type  2   force =    -0.00000000   -0.00000000   -0.00000000
     atom    3 type  3   force =     0.00000000    0.00000000   -0.00000000
     atom    4 type  3   force =    -0.00000000    0.00000000   -0.00000000
     atom    5 type  3   force =    -0.00000000    0.00000000    0.00000000
     The Hubbard contrib.    to forces
     atom    1 type  1   force =     0.00000000    0.00000000    0.00000000
     atom    2 type  2   force =     0.00000000    0.00000000    0.00000000
     atom    3 type  3   force =     0.00000000    0.00000000    0.00000000
     atom    4 type  3   force =     0.00000000    0.00000000    0.00000000
     atom    5 type  3   force =     0.00000000    0.00000000    0.00000000
     The SCF correction term to forces
     atom    1 type  1   force =    -0.00000000    0.00000000   -0.00000000
     atom    2 type  2   force =    -0.00000000    0.00000000   -0.00000000
     atom    3 type  3   force =    -0.00000000    0.00000000    0.00000000
     atom    4 type  3   force =     0.00000000    0.00000000   -0.00000000
     atom    5 type  3   force =     0.00000000   -0.00000000    0.00000000

     Total force =     0.000000     Total SCF correction =     0.000000


     Computing stress (Cartesian axis) and pressure

          total   stress  (Ry/bohr**3)                   (kbar)     P=       -0.00
  -0.00000003   0.00000000   0.00000000           -0.00        0.00        0.00
   0.00000000  -0.00000003   0.00000000            0.00       -0.00        0.00
   0.00000000   0.00000000  -0.00000003            0.00        0.00       -0.00

     kinetic stress (kbar)   7636.21      0.00      0.00
                                0.00   7636.21      0.00
                                0.00      0.00   7636.21

     local   stress (kbar)  -4679.80      0.00     -0.00
                                0.00  -4679.80      0.00
                               -0.00      0.00  -4679.80

     nonloc. stress (kbar)    -28.38      0.00      0.00
                                0.00    -28.38      0.00
                                0.00      0.00    -28.38

     hartree stress (kbar)   4708.01     -0.00      0.00
                               -0.00   4708.01     -0.00
                                0.00     -0.00   4708.01

     exc-cor stress (kbar)    450.97     -0.00      0.00
                               -0.00    450.97     -0.00
                                0.00     -0.00    450.97

     corecor stress (kbar)  -2214.07      0.00      0.00
                                0.00  -2214.07     -0.00
                                0.00     -0.00  -2214.07

     ewald   stress (kbar)  -5872.95      0.00     -0.00
                                0.00  -5872.95     -0.00
                               -0.00     -0.00  -5872.95

     hubbard stress (kbar)      0.00      0.00      0.00
                                0.00      0.00      0.00
                                0.00      0.00      0.00

     DFT-D   stress (kbar)      0.00      0.00      0.00
                                0.00      0.00      0.00
                                0.00      0.00      0.00

     XDM     stress (kbar)      0.00      0.00      0.00
                                0.00      0.00      0.00
                                0.00      0.00      0.00

     dft-nl  stress (kbar)      0.00      0.00      0.00
                                0.00      0.00      0.00
                                0.00      0.00      0.00

     TS-vdW  stress (kbar)      0.00      0.00      0.00
                                0.00      0.00      0.00
                                0.00      0.00      0.00

     MDB     stress (kbar)      0.00      0.00      0.00
                                0.00      0.00      0.00
                                0.00      0.00      0.00

     3D-RISM stress (kbar)      0.00      0.00      0.00
                                0.00      0.00      0.00
                                0.00      0.00      0.00

     Energy error            =      5.0E-05 Ry
     Gradient error          =      0.0E+00 Ry/Bohr
     Cell gradient error     =      4.0E-03 kbar

     bfgs converged in   7 scf cycles and   6 bfgs steps
     (criteria: energy <  1.0E-04 Ry, force <  1.0E-03 Ry/Bohr, cell <  5.0E-01 kbar)

     End of BFGS Geometry Optimization

     Final enthalpy           =   -1181.9588626617 Ry

     File ./tmp/rbfebr3.bfgs deleted, as requested
Begin final coordinates
     new unit-cell volume =   1579.52308 a.u.^3 (   234.06117 Ang^3 )
     density =      2.70317 g/cm^3

CELL_PARAMETERS (angstrom)
   6.162777069   0.000000000   0.000000000
   0.000000000   6.162777069   0.000000000
   0.000000000   0.000000000   6.162777069

ATOMIC_POSITIONS (crystal)
Rb               0.0000000000        0.0000000000        0.0000000000
Fe               0.5000000000        0.5000000000        0.5000000000
Br               0.5000000000        0.0000000000        0.0000000000
Br               0.0000000000        0.5000000000        0.0000000000
Br               0.0000000000        0.0000000000        0.5000000000
End final coordinates



     Writing config-only to output data dir ./tmp/rbfebr3.save/ :
     XML data file

     Final scf calculation at the relaxed structure.
     The G-vectors are recalculated for the final unit cell
     Results may differ from those at the preceding step.

     Parallelization info
     --------------------
     sticks:   dense  smooth     PW     G-vecs:    dense   smooth      PW
     Min        3454    1728    474               215988    76356   11070
     Max        3455    1729    475               215989    76359   11073
     Sum        6909    3457    949               431977   152715   22143

     Using Slab Decomposition



     bravais-lattice index     =            0
     lattice parameter (alat)  =       9.5407  a.u.
     unit-cell volume          =    1579.5231 (a.u.)^3
     number of atoms/cell      =            5
     number of atomic types    =            3
     number of electrons       =        46.00
     number of Kohn-Sham states=           28
     kinetic-energy cutoff     =      80.0000  Ry
     charge density cutoff     =     640.0000  Ry
     scf convergence threshold =      1.0E-10
     mixing beta               =       0.4000
     number of iterations used =            8  plain     mixing
     press convergence thresh. =      5.0E-01
     Exchange-correlation= PBE
                           (   1   4   3   4   0   0   0)

     celldm(1)=   9.540740  celldm(2)=   0.000000  celldm(3)=   0.000000
     celldm(4)=   0.000000  celldm(5)=   0.000000  celldm(6)=   0.000000

     crystal axes: (cart. coord. in units of alat)
               a(1) = (   1.220656   0.000000   0.000000 )  
               a(2) = (   0.000000   1.220656   0.000000 )  
               a(3) = (   0.000000   0.000000   1.220656 )  

     reciprocal axes: (cart. coord. in units 2 pi/alat)
               b(1) = (  0.819232  0.000000  0.000000 )  
               b(2) = (  0.000000  0.819232  0.000000 )  
               b(3) = (  0.000000  0.000000  0.819232 )  


     PseudoPot. # 1 for Rb read from file:
     /home/administrator/Downloads/BURAI/BURAI1.3/pseudopot/Rb.pbe-spn-kjpaw_psl.1.0.0.UPF
     MD5 check sum: 2771e311bc20ea25cdd5c0a9866b789c
     Pseudo is Projector augmented-wave + core cor, Zval =  9.0
     Generated using "atomic" code by A. Dal Corso  v.5.1.2
     Shape of augmentation charge: PSQ
     Using radial grid of 1219 points,  6 beta functions with: 
                l(1) =   0
                l(2) =   0
                l(3) =   1
                l(4) =   1
                l(5) =   2
                l(6) =   2
     Q(r) pseudized with 0 coefficients 


     PseudoPot. # 2 for Fe read from file:
     /home/administrator/Downloads/BURAI/BURAI1.3/pseudopot/Fe.pbe-spn-kjpaw_psl.1.0.0.UPF
     MD5 check sum: 04029f3f376fc501f927dd43ca5e13d6
     Pseudo is Projector augmented-wave + core cor, Zval = 16.0
     Generated using "atomic" code by A. Dal Corso  v.5.1.2
     Shape of augmentation charge: PSQ
     Using radial grid of 1191 points,  6 beta functions with: 
                l(1) =   0
                l(2) =   0
                l(3) =   1
                l(4) =   1
                l(5) =   2
                l(6) =   2
     Q(r) pseudized with 0 coefficients 


     PseudoPot. # 3 for Br read from file:
     /home/administrator/Downloads/BURAI/BURAI1.3/pseudopot/Br.pbe-n-kjpaw_psl.1.0.0.UPF
     MD5 check sum: 4e719ecb11afb5eb9a83625d9f5c08f4
     Pseudo is Projector augmented-wave + core cor, Zval =  7.0
     Generated using "atomic" code by A. Dal Corso  v.5.1.2
     Shape of augmentation charge: PSQ
     Using radial grid of 1213 points,  4 beta functions with: 
                l(1) =   0
                l(2) =   0
                l(3) =   1
                l(4) =   1
     Q(r) pseudized with 0 coefficients 


     atomic species   valence    mass     pseudopotential
     Rb                9.00    85.46780     Rb( 1.00)
     Fe               16.00    55.84500     Fe( 1.00)
     Br                7.00    79.90400     Br( 1.00)

     48 Sym. Ops., with inversion, found


                                    s                        frac. trans.

      isym =  1     identity                                     

 cryst.   s( 1) = (     1          0          0      )
                  (     0          1          0      )
                  (     0          0          1      )

 cart.    s( 1) = (  1.0000000  0.0000000  0.0000000 )
                  (  0.0000000  1.0000000  0.0000000 )
                  (  0.0000000  0.0000000  1.0000000 )


      isym =  2     180 deg rotation - cart. axis [0,0,1]        

 cryst.   s( 2) = (    -1          0          0      )
                  (     0         -1          0      )
                  (     0          0          1      )

 cart.    s( 2) = ( -1.0000000  0.0000000  0.0000000 )
                  (  0.0000000 -1.0000000  0.0000000 )
                  (  0.0000000  0.0000000  1.0000000 )


      isym =  3     180 deg rotation - cart. axis [0,1,0]        

 cryst.   s( 3) = (    -1          0          0      )
                  (     0          1          0      )
                  (     0          0         -1      )

 cart.    s( 3) = ( -1.0000000  0.0000000  0.0000000 )
                  (  0.0000000  1.0000000  0.0000000 )
                  (  0.0000000  0.0000000 -1.0000000 )


      isym =  4     180 deg rotation - cart. axis [1,0,0]        

 cryst.   s( 4) = (     1          0          0      )
                  (     0         -1          0      )
                  (     0          0         -1      )

 cart.    s( 4) = (  1.0000000  0.0000000  0.0000000 )
                  (  0.0000000 -1.0000000  0.0000000 )
                  (  0.0000000  0.0000000 -1.0000000 )


      isym =  5     180 deg rotation - cart. axis [1,1,0]        

 cryst.   s( 5) = (     0          1          0      )
                  (     1          0          0      )
                  (     0          0         -1      )

 cart.    s( 5) = (  0.0000000  1.0000000  0.0000000 )
                  (  1.0000000  0.0000000  0.0000000 )
                  (  0.0000000  0.0000000 -1.0000000 )


      isym =  6     180 deg rotation - cart. axis [1,-1,0]       

 cryst.   s( 6) = (     0         -1          0      )
                  (    -1          0          0      )
                  (     0          0         -1      )

 cart.    s( 6) = (  0.0000000 -1.0000000  0.0000000 )
                  ( -1.0000000  0.0000000  0.0000000 )
                  (  0.0000000  0.0000000 -1.0000000 )


      isym =  7      90 deg rotation - cart. axis [0,0,-1]       

 cryst.   s( 7) = (     0         -1          0      )
                  (     1          0          0      )
                  (     0          0          1      )

 cart.    s( 7) = (  0.0000000  1.0000000  0.0000000 )
                  ( -1.0000000  0.0000000  0.0000000 )
                  (  0.0000000  0.0000000  1.0000000 )


      isym =  8      90 deg rotation - cart. axis [0,0,1]        

 cryst.   s( 8) = (     0          1          0      )
                  (    -1          0          0      )
                  (     0          0          1      )

 cart.    s( 8) = (  0.0000000 -1.0000000  0.0000000 )
                  (  1.0000000  0.0000000  0.0000000 )
                  (  0.0000000  0.0000000  1.0000000 )


      isym =  9     180 deg rotation - cart. axis [1,0,1]        

 cryst.   s( 9) = (     0          0          1      )
                  (     0         -1          0      )
                  (     1          0          0      )

 cart.    s( 9) = (  0.0000000  0.0000000  1.0000000 )
                  (  0.0000000 -1.0000000  0.0000000 )
                  (  1.0000000  0.0000000  0.0000000 )


      isym = 10     180 deg rotation - cart. axis [-1,0,1]       

 cryst.   s(10) = (     0          0         -1      )
                  (     0         -1          0      )
                  (    -1          0          0      )

 cart.    s(10) = (  0.0000000  0.0000000 -1.0000000 )
                  (  0.0000000 -1.0000000  0.0000000 )
                  ( -1.0000000  0.0000000  0.0000000 )


      isym = 11      90 deg rotation - cart. axis [0,1,0]        

 cryst.   s(11) = (     0          0         -1      )
                  (     0          1          0      )
                  (     1          0          0      )

 cart.    s(11) = (  0.0000000  0.0000000  1.0000000 )
                  (  0.0000000  1.0000000  0.0000000 )
                  ( -1.0000000  0.0000000  0.0000000 )


      isym = 12      90 deg rotation - cart. axis [0,-1,0]       

 cryst.   s(12) = (     0          0          1      )
                  (     0          1          0      )
                  (    -1          0          0      )

 cart.    s(12) = (  0.0000000  0.0000000 -1.0000000 )
                  (  0.0000000  1.0000000  0.0000000 )
                  (  1.0000000  0.0000000  0.0000000 )


      isym = 13     180 deg rotation - cart. axis [0,1,1]        

 cryst.   s(13) = (    -1          0          0      )
                  (     0          0          1      )
                  (     0          1          0      )

 cart.    s(13) = ( -1.0000000  0.0000000  0.0000000 )
                  (  0.0000000  0.0000000  1.0000000 )
                  (  0.0000000  1.0000000  0.0000000 )


      isym = 14     180 deg rotation - cart. axis [0,1,-1]       

 cryst.   s(14) = (    -1          0          0      )
                  (     0          0         -1      )
                  (     0         -1          0      )

 cart.    s(14) = ( -1.0000000  0.0000000  0.0000000 )
                  (  0.0000000  0.0000000 -1.0000000 )
                  (  0.0000000 -1.0000000  0.0000000 )


      isym = 15      90 deg rotation - cart. axis [-1,0,0]       

 cryst.   s(15) = (     1          0          0      )
                  (     0          0         -1      )
                  (     0          1          0      )

 cart.    s(15) = (  1.0000000  0.0000000  0.0000000 )
                  (  0.0000000  0.0000000  1.0000000 )
                  (  0.0000000 -1.0000000  0.0000000 )


      isym = 16      90 deg rotation - cart. axis [1,0,0]        

 cryst.   s(16) = (     1          0          0      )
                  (     0          0          1      )
                  (     0         -1          0      )

 cart.    s(16) = (  1.0000000  0.0000000  0.0000000 )
                  (  0.0000000  0.0000000 -1.0000000 )
                  (  0.0000000  1.0000000  0.0000000 )


      isym = 17     120 deg rotation - cart. axis [-1,-1,-1]     

 cryst.   s(17) = (     0          0          1      )
                  (     1          0          0      )
                  (     0          1          0      )

 cart.    s(17) = (  0.0000000  1.0000000  0.0000000 )
                  (  0.0000000  0.0000000  1.0000000 )
                  (  1.0000000  0.0000000  0.0000000 )


      isym = 18     120 deg rotation - cart. axis [-1,1,1]       

 cryst.   s(18) = (     0          0         -1      )
                  (    -1          0          0      )
                  (     0          1          0      )

 cart.    s(18) = (  0.0000000 -1.0000000  0.0000000 )
                  (  0.0000000  0.0000000  1.0000000 )
                  ( -1.0000000  0.0000000  0.0000000 )


      isym = 19     120 deg rotation - cart. axis [1,1,-1]       

 cryst.   s(19) = (     0          0         -1      )
                  (     1          0          0      )
                  (     0         -1          0      )

 cart.    s(19) = (  0.0000000  1.0000000  0.0000000 )
                  (  0.0000000  0.0000000 -1.0000000 )
                  ( -1.0000000  0.0000000  0.0000000 )


      isym = 20     120 deg rotation - cart. axis [1,-1,1]       

 cryst.   s(20) = (     0          0          1      )
                  (    -1          0          0      )
                  (     0         -1          0      )

 cart.    s(20) = (  0.0000000 -1.0000000  0.0000000 )
                  (  0.0000000  0.0000000 -1.0000000 )
                  (  1.0000000  0.0000000  0.0000000 )


      isym = 21     120 deg rotation - cart. axis [1,1,1]        

 cryst.   s(21) = (     0          1          0      )
                  (     0          0          1      )
                  (     1          0          0      )

 cart.    s(21) = (  0.0000000  0.0000000  1.0000000 )
                  (  1.0000000  0.0000000  0.0000000 )
                  (  0.0000000  1.0000000  0.0000000 )


      isym = 22     120 deg rotation - cart. axis [-1,1,-1]      

 cryst.   s(22) = (     0         -1          0      )
                  (     0          0         -1      )
                  (     1          0          0      )

 cart.    s(22) = (  0.0000000  0.0000000  1.0000000 )
                  ( -1.0000000  0.0000000  0.0000000 )
                  (  0.0000000 -1.0000000  0.0000000 )


      isym = 23     120 deg rotation - cart. axis [1,-1,-1]      

 cryst.   s(23) = (     0         -1          0      )
                  (     0          0          1      )
                  (    -1          0          0      )

 cart.    s(23) = (  0.0000000  0.0000000 -1.0000000 )
                  ( -1.0000000  0.0000000  0.0000000 )
                  (  0.0000000  1.0000000  0.0000000 )


      isym = 24     120 deg rotation - cart. axis [-1,-1,1]      

 cryst.   s(24) = (     0          1          0      )
                  (     0          0         -1      )
                  (    -1          0          0      )

 cart.    s(24) = (  0.0000000  0.0000000 -1.0000000 )
                  (  1.0000000  0.0000000  0.0000000 )
                  (  0.0000000 -1.0000000  0.0000000 )


      isym = 25     inversion                                    

 cryst.   s(25) = (    -1          0          0      )
                  (     0         -1          0      )
                  (     0          0         -1      )

 cart.    s(25) = ( -1.0000000  0.0000000  0.0000000 )
                  (  0.0000000 -1.0000000  0.0000000 )
                  (  0.0000000  0.0000000 -1.0000000 )


      isym = 26     inv. 180 deg rotation - cart. axis [0,0,1]   

 cryst.   s(26) = (     1          0          0      )
                  (     0          1          0      )
                  (     0          0         -1      )

 cart.    s(26) = (  1.0000000  0.0000000  0.0000000 )
                  (  0.0000000  1.0000000  0.0000000 )
                  (  0.0000000  0.0000000 -1.0000000 )


      isym = 27     inv. 180 deg rotation - cart. axis [0,1,0]   

 cryst.   s(27) = (     1          0          0      )
                  (     0         -1          0      )
                  (     0          0          1      )

 cart.    s(27) = (  1.0000000  0.0000000  0.0000000 )
                  (  0.0000000 -1.0000000  0.0000000 )
                  (  0.0000000  0.0000000  1.0000000 )


      isym = 28     inv. 180 deg rotation - cart. axis [1,0,0]   

 cryst.   s(28) = (    -1          0          0      )
                  (     0          1          0      )
                  (     0          0          1      )

 cart.    s(28) = ( -1.0000000  0.0000000  0.0000000 )
                  (  0.0000000  1.0000000  0.0000000 )
                  (  0.0000000  0.0000000  1.0000000 )


      isym = 29     inv. 180 deg rotation - cart. axis [1,1,0]   

 cryst.   s(29) = (     0         -1          0      )
                  (    -1          0          0      )
                  (     0          0          1      )

 cart.    s(29) = (  0.0000000 -1.0000000  0.0000000 )
                  ( -1.0000000  0.0000000  0.0000000 )
                  (  0.0000000  0.0000000  1.0000000 )


      isym = 30     inv. 180 deg rotation - cart. axis [1,-1,0]  

 cryst.   s(30) = (     0          1          0      )
                  (     1          0          0      )
                  (     0          0          1      )

 cart.    s(30) = (  0.0000000  1.0000000  0.0000000 )
                  (  1.0000000  0.0000000  0.0000000 )
                  (  0.0000000  0.0000000  1.0000000 )


      isym = 31     inv.  90 deg rotation - cart. axis [0,0,-1]  

 cryst.   s(31) = (     0          1          0      )
                  (    -1          0          0      )
                  (     0          0         -1      )

 cart.    s(31) = (  0.0000000 -1.0000000  0.0000000 )
                  (  1.0000000  0.0000000  0.0000000 )
                  (  0.0000000  0.0000000 -1.0000000 )


      isym = 32     inv.  90 deg rotation - cart. axis [0,0,1]   

 cryst.   s(32) = (     0         -1          0      )
                  (     1          0          0      )
                  (     0          0         -1      )

 cart.    s(32) = (  0.0000000  1.0000000  0.0000000 )
                  ( -1.0000000  0.0000000  0.0000000 )
                  (  0.0000000  0.0000000 -1.0000000 )


      isym = 33     inv. 180 deg rotation - cart. axis [1,0,1]   

 cryst.   s(33) = (     0          0         -1      )
                  (     0          1          0      )
                  (    -1          0          0      )

 cart.    s(33) = (  0.0000000  0.0000000 -1.0000000 )
                  (  0.0000000  1.0000000  0.0000000 )
                  ( -1.0000000  0.0000000  0.0000000 )


      isym = 34     inv. 180 deg rotation - cart. axis [-1,0,1]  

 cryst.   s(34) = (     0          0          1      )
                  (     0          1          0      )
                  (     1          0          0      )

 cart.    s(34) = (  0.0000000  0.0000000  1.0000000 )
                  (  0.0000000  1.0000000  0.0000000 )
                  (  1.0000000  0.0000000  0.0000000 )


      isym = 35     inv.  90 deg rotation - cart. axis [0,1,0]   

 cryst.   s(35) = (     0          0          1      )
                  (     0         -1          0      )
                  (    -1          0          0      )

 cart.    s(35) = (  0.0000000  0.0000000 -1.0000000 )
                  (  0.0000000 -1.0000000  0.0000000 )
                  (  1.0000000  0.0000000  0.0000000 )


      isym = 36     inv.  90 deg rotation - cart. axis [0,-1,0]  

 cryst.   s(36) = (     0          0         -1      )
                  (     0         -1          0      )
                  (     1          0          0      )

 cart.    s(36) = (  0.0000000  0.0000000  1.0000000 )
                  (  0.0000000 -1.0000000  0.0000000 )
                  ( -1.0000000  0.0000000  0.0000000 )


      isym = 37     inv. 180 deg rotation - cart. axis [0,1,1]   

 cryst.   s(37) = (     1          0          0      )
                  (     0          0         -1      )
                  (     0         -1          0      )

 cart.    s(37) = (  1.0000000  0.0000000  0.0000000 )
                  (  0.0000000  0.0000000 -1.0000000 )
                  (  0.0000000 -1.0000000  0.0000000 )


      isym = 38     inv. 180 deg rotation - cart. axis [0,1,-1]  

 cryst.   s(38) = (     1          0          0      )
                  (     0          0          1      )
                  (     0          1          0      )

 cart.    s(38) = (  1.0000000  0.0000000  0.0000000 )
                  (  0.0000000  0.0000000  1.0000000 )
                  (  0.0000000  1.0000000  0.0000000 )


      isym = 39     inv.  90 deg rotation - cart. axis [-1,0,0]  

 cryst.   s(39) = (    -1          0          0      )
                  (     0          0          1      )
                  (     0         -1          0      )

 cart.    s(39) = ( -1.0000000  0.0000000  0.0000000 )
                  (  0.0000000  0.0000000 -1.0000000 )
                  (  0.0000000  1.0000000  0.0000000 )


      isym = 40     inv.  90 deg rotation - cart. axis [1,0,0]   

 cryst.   s(40) = (    -1          0          0      )
                  (     0          0         -1      )
                  (     0          1          0      )

 cart.    s(40) = ( -1.0000000  0.0000000  0.0000000 )
                  (  0.0000000  0.0000000  1.0000000 )
                  (  0.0000000 -1.0000000  0.0000000 )


      isym = 41     inv. 120 deg rotation - cart. axis [-1,-1,-1]

 cryst.   s(41) = (     0          0         -1      )
                  (    -1          0          0      )
                  (     0         -1          0      )

 cart.    s(41) = (  0.0000000 -1.0000000  0.0000000 )
                  (  0.0000000  0.0000000 -1.0000000 )
                  ( -1.0000000  0.0000000  0.0000000 )


      isym = 42     inv. 120 deg rotation - cart. axis [-1,1,1]  

 cryst.   s(42) = (     0          0          1      )
                  (     1          0          0      )
                  (     0         -1          0      )

 cart.    s(42) = (  0.0000000  1.0000000  0.0000000 )
                  (  0.0000000  0.0000000 -1.0000000 )
                  (  1.0000000  0.0000000  0.0000000 )


      isym = 43     inv. 120 deg rotation - cart. axis [1,1,-1]  

 cryst.   s(43) = (     0          0          1      )
                  (    -1          0          0      )
                  (     0          1          0      )

 cart.    s(43) = (  0.0000000 -1.0000000  0.0000000 )
                  (  0.0000000  0.0000000  1.0000000 )
                  (  1.0000000  0.0000000  0.0000000 )


      isym = 44     inv. 120 deg rotation - cart. axis [1,-1,1]  

 cryst.   s(44) = (     0          0         -1      )
                  (     1          0          0      )
                  (     0          1          0      )

 cart.    s(44) = (  0.0000000  1.0000000  0.0000000 )
                  (  0.0000000  0.0000000  1.0000000 )
                  ( -1.0000000  0.0000000  0.0000000 )


      isym = 45     inv. 120 deg rotation - cart. axis [1,1,1]   

 cryst.   s(45) = (     0         -1          0      )
                  (     0          0         -1      )
                  (    -1          0          0      )

 cart.    s(45) = (  0.0000000  0.0000000 -1.0000000 )
                  ( -1.0000000  0.0000000  0.0000000 )
                  (  0.0000000 -1.0000000  0.0000000 )


      isym = 46     inv. 120 deg rotation - cart. axis [-1,1,-1] 

 cryst.   s(46) = (     0          1          0      )
                  (     0          0          1      )
                  (    -1          0          0      )

 cart.    s(46) = (  0.0000000  0.0000000 -1.0000000 )
                  (  1.0000000  0.0000000  0.0000000 )
                  (  0.0000000  1.0000000  0.0000000 )


      isym = 47     inv. 120 deg rotation - cart. axis [1,-1,-1] 

 cryst.   s(47) = (     0          1          0      )
                  (     0          0         -1      )
                  (     1          0          0      )

 cart.    s(47) = (  0.0000000  0.0000000  1.0000000 )
                  (  1.0000000  0.0000000  0.0000000 )
                  (  0.0000000 -1.0000000  0.0000000 )


      isym = 48     inv. 120 deg rotation - cart. axis [-1,-1,1] 

 cryst.   s(48) = (     0         -1          0      )
                  (     0          0          1      )
                  (     1          0          0      )

 cart.    s(48) = (  0.0000000  0.0000000  1.0000000 )
                  ( -1.0000000  0.0000000  0.0000000 )
                  (  0.0000000  1.0000000  0.0000000 )


   Cartesian axes

     site n.     atom                  positions (alat units)
         1        Rb     tau(   1) = (   0.0000000   0.0000000   0.0000000  )
         2        Fe     tau(   2) = (   0.6103279   0.6103279   0.6103279  )
         3        Br     tau(   3) = (   0.6103279   0.0000000   0.0000000  )
         4        Br     tau(   4) = (   0.0000000   0.6103279   0.0000000  )
         5        Br     tau(   5) = (   0.0000000   0.0000000   0.6103279  )

   Crystallographic axes

     site n.     atom                  positions (cryst. coord.)
         1        Rb     tau(   1) = (  0.0000000  0.0000000  0.0000000  )
         2        Fe     tau(   2) = (  0.5000000  0.5000000  0.5000000  )
         3        Br     tau(   3) = (  0.5000000  0.0000000  0.0000000  )
         4        Br     tau(   4) = (  0.0000000  0.5000000  0.0000000  )
         5        Br     tau(   5) = (  0.0000000  0.0000000  0.5000000  )

     number of k points=    35  Gaussian smearing, width (Ry)=  0.0050
                       cart. coord. in units 2pi/alat
        k(    1) = (   0.0000000   0.0000000   0.0000000), wk =   0.0039062
        k(    2) = (   0.0000000   0.0000000   0.1024040), wk =   0.0234375
        k(    3) = (   0.0000000   0.0000000   0.2048079), wk =   0.0234375
        k(    4) = (   0.0000000   0.0000000   0.3072119), wk =   0.0234375
        k(    5) = (   0.0000000   0.0000000  -0.4096159), wk =   0.0117188
        k(    6) = (   0.0000000   0.1024040   0.1024040), wk =   0.0468750
        k(    7) = (   0.0000000   0.1024040   0.2048079), wk =   0.0937500
        k(    8) = (   0.0000000   0.1024040   0.3072119), wk =   0.0937500
        k(    9) = (   0.0000000   0.1024040  -0.4096159), wk =   0.0468750
        k(   10) = (   0.0000000   0.2048079   0.2048079), wk =   0.0468750
        k(   11) = (   0.0000000   0.2048079   0.3072119), wk =   0.0937500
        k(   12) = (   0.0000000   0.2048079  -0.4096159), wk =   0.0468750
        k(   13) = (   0.0000000   0.3072119   0.3072119), wk =   0.0468750
        k(   14) = (   0.0000000   0.3072119  -0.4096159), wk =   0.0468750
        k(   15) = (   0.0000000  -0.4096159  -0.4096159), wk =   0.0117188
        k(   16) = (   0.1024040   0.1024040   0.1024040), wk =   0.0312500
        k(   17) = (   0.1024040   0.1024040   0.2048079), wk =   0.0937500
        k(   18) = (   0.1024040   0.1024040   0.3072119), wk =   0.0937500
        k(   19) = (   0.1024040   0.1024040  -0.4096159), wk =   0.0468750
        k(   20) = (   0.1024040   0.2048079   0.2048079), wk =   0.0937500
        k(   21) = (   0.1024040   0.2048079   0.3072119), wk =   0.1875000
        k(   22) = (   0.1024040   0.2048079  -0.4096159), wk =   0.0937500
        k(   23) = (   0.1024040   0.3072119   0.3072119), wk =   0.0937500
        k(   24) = (   0.1024040   0.3072119  -0.4096159), wk =   0.0937500
        k(   25) = (   0.1024040  -0.4096159  -0.4096159), wk =   0.0234375
        k(   26) = (   0.2048079   0.2048079   0.2048079), wk =   0.0312500
        k(   27) = (   0.2048079   0.2048079   0.3072119), wk =   0.0937500
        k(   28) = (   0.2048079   0.2048079  -0.4096159), wk =   0.0468750
        k(   29) = (   0.2048079   0.3072119   0.3072119), wk =   0.0937500
        k(   30) = (   0.2048079   0.3072119  -0.4096159), wk =   0.0937500
        k(   31) = (   0.2048079  -0.4096159  -0.4096159), wk =   0.0234375
        k(   32) = (   0.3072119   0.3072119   0.3072119), wk =   0.0312500
        k(   33) = (   0.3072119   0.3072119  -0.4096159), wk =   0.0468750
        k(   34) = (   0.3072119  -0.4096159  -0.4096159), wk =   0.0234375
        k(   35) = (  -0.4096159  -0.4096159  -0.4096159), wk =   0.0039062

                       cryst. coord.
        k(    1) = (   0.0000000   0.0000000   0.0000000), wk =   0.0039062
        k(    2) = (   0.0000000   0.0000000   0.1250000), wk =   0.0234375
        k(    3) = (   0.0000000   0.0000000   0.2500000), wk =   0.0234375
        k(    4) = (   0.0000000   0.0000000   0.3750000), wk =   0.0234375
        k(    5) = (   0.0000000   0.0000000  -0.5000000), wk =   0.0117188
        k(    6) = (   0.0000000   0.1250000   0.1250000), wk =   0.0468750
        k(    7) = (   0.0000000   0.1250000   0.2500000), wk =   0.0937500
        k(    8) = (   0.0000000   0.1250000   0.3750000), wk =   0.0937500
        k(    9) = (   0.0000000   0.1250000  -0.5000000), wk =   0.0468750
        k(   10) = (   0.0000000   0.2500000   0.2500000), wk =   0.0468750
        k(   11) = (   0.0000000   0.2500000   0.3750000), wk =   0.0937500
        k(   12) = (   0.0000000   0.2500000  -0.5000000), wk =   0.0468750
        k(   13) = (   0.0000000   0.3750000   0.3750000), wk =   0.0468750
        k(   14) = (   0.0000000   0.3750000  -0.5000000), wk =   0.0468750
        k(   15) = (   0.0000000  -0.5000000  -0.5000000), wk =   0.0117188
        k(   16) = (   0.1250000   0.1250000   0.1250000), wk =   0.0312500
        k(   17) = (   0.1250000   0.1250000   0.2500000), wk =   0.0937500
        k(   18) = (   0.1250000   0.1250000   0.3750000), wk =   0.0937500
        k(   19) = (   0.1250000   0.1250000  -0.5000000), wk =   0.0468750
        k(   20) = (   0.1250000   0.2500000   0.2500000), wk =   0.0937500
        k(   21) = (   0.1250000   0.2500000   0.3750000), wk =   0.1875000
        k(   22) = (   0.1250000   0.2500000  -0.5000000), wk =   0.0937500
        k(   23) = (   0.1250000   0.3750000   0.3750000), wk =   0.0937500
        k(   24) = (   0.1250000   0.3750000  -0.5000000), wk =   0.0937500
        k(   25) = (   0.1250000  -0.5000000  -0.5000000), wk =   0.0234375
        k(   26) = (   0.2500000   0.2500000   0.2500000), wk =   0.0312500
        k(   27) = (   0.2500000   0.2500000   0.3750000), wk =   0.0937500
        k(   28) = (   0.2500000   0.2500000  -0.5000000), wk =   0.0468750
        k(   29) = (   0.2500000   0.3750000   0.3750000), wk =   0.0937500
        k(   30) = (   0.2500000   0.3750000  -0.5000000), wk =   0.0937500
        k(   31) = (   0.2500000  -0.5000000  -0.5000000), wk =   0.0234375
        k(   32) = (   0.3750000   0.3750000   0.3750000), wk =   0.0312500
        k(   33) = (   0.3750000   0.3750000  -0.5000000), wk =   0.0468750
        k(   34) = (   0.3750000  -0.5000000  -0.5000000), wk =   0.0234375
        k(   35) = (  -0.5000000  -0.5000000  -0.5000000), wk =   0.0039062

     Dense  grid:   431977 G-vectors     FFT dimensions: (  96,  96,  96)

     Smooth grid:   152715 G-vectors     FFT dimensions: (  72,  72,  72)

     Dynamical RAM for                 wfc:       4.08 MB

     Dynamical RAM for     wfc (w. buffer):      40.77 MB

     Dynamical RAM for           str. fact:       9.89 MB

     Dynamical RAM for           local pot:       2.72 MB

     Dynamical RAM for          nlocal pot:       8.74 MB

     Dynamical RAM for                qrad:      12.18 MB

     Dynamical RAM for          rho,v,vnew:      20.01 MB

     Dynamical RAM for               rhoin:       6.67 MB

     Dynamical RAM for            rho*nmix:      52.73 MB

     Dynamical RAM for           G-vectors:      12.94 MB

     Dynamical RAM for          h,s,v(r/c):       0.14 MB

     Dynamical RAM for          <psi|beta>:       0.03 MB

     Dynamical RAM for                 psi:       8.15 MB

     Dynamical RAM for                hpsi:       8.15 MB

     Dynamical RAM for                spsi:       8.15 MB

     Dynamical RAM for      wfcinit/wfcrot:       8.76 MB

     Dynamical RAM for           addusdens:     158.19 MB

     Dynamical RAM for          addusforce:     160.68 MB

     Dynamical RAM for         addusstress:     166.85 MB

     Estimated static dynamical RAM per process >     143.97 MB

     Estimated max dynamical RAM per process >     363.55 MB

     Estimated total dynamical RAM >       2.53 GB

     Initial potential from superposition of free atoms

     starting charge      45.9766, renormalised to      46.0000
     Starting wfcs are   30 randomized atomic wfcs
     Checking if some PAW data can be deallocated... 
       PAW data deallocated on    6 nodes for type:  1
       PAW data deallocated on    6 nodes for type:  2
       PAW data deallocated on    4 nodes for type:  3

     total cpu time spent up to now is     2481.7 secs

     Self-consistent Calculation

     iteration #  1     ecut=    80.00 Ry     beta= 0.40
     Davidson diagonalization with overlap

---- Real-time Memory Report at c_bands before calling an iterative solver
           286 MiB given to the printing process from OS
             0 MiB allocation reported by mallinfo(arena+hblkhd)
         45227 MiB available memory on the node where the printing process lives
------------------
     c_bands:  1 eigenvalues not converged
     c_bands:  1 eigenvalues not converged
     c_bands:  1 eigenvalues not converged
     c_bands:  1 eigenvalues not converged
     ethr =  1.00E-06,  avg # of iterations = 16.3

     total cpu time spent up to now is     2568.6 secs

     total energy              =   -1181.69898652 Ry
     estimated scf accuracy    <       0.80900839 Ry

     iteration #  2     ecut=    80.00 Ry     beta= 0.40
     Davidson diagonalization with overlap

---- Real-time Memory Report at c_bands before calling an iterative solver
           395 MiB given to the printing process from OS
             0 MiB allocation reported by mallinfo(arena+hblkhd)
         44187 MiB available memory on the node where the printing process lives
------------------
     ethr =  1.76E-03,  avg # of iterations =  2.0

     total cpu time spent up to now is     2594.6 secs

     total energy              =   -1181.57020457 Ry
     estimated scf accuracy    <      13.42321490 Ry

     iteration #  3     ecut=    80.00 Ry     beta= 0.40
     Davidson diagonalization with overlap

---- Real-time Memory Report at c_bands before calling an iterative solver
           397 MiB given to the printing process from OS
             0 MiB allocation reported by mallinfo(arena+hblkhd)
         44179 MiB available memory on the node where the printing process lives
------------------
     ethr =  1.76E-03,  avg # of iterations =  2.0

     total cpu time spent up to now is     2619.2 secs

     total energy              =   -1181.94187192 Ry
     estimated scf accuracy    <       0.42927130 Ry

     iteration #  4     ecut=    80.00 Ry     beta= 0.40
     Davidson diagonalization with overlap

---- Real-time Memory Report at c_bands before calling an iterative solver
           399 MiB given to the printing process from OS
             0 MiB allocation reported by mallinfo(arena+hblkhd)
         44304 MiB available memory on the node where the printing process lives
------------------
     ethr =  9.33E-04,  avg # of iterations =  1.2

     total cpu time spent up to now is     2639.8 secs

     total energy              =   -1181.81321788 Ry
     estimated scf accuracy    <       5.07125978 Ry

     iteration #  5     ecut=    80.00 Ry     beta= 0.40
     Davidson diagonalization with overlap

---- Real-time Memory Report at c_bands before calling an iterative solver
           402 MiB given to the printing process from OS
             0 MiB allocation reported by mallinfo(arena+hblkhd)
         43927 MiB available memory on the node where the printing process lives
------------------
     ethr =  9.33E-04,  avg # of iterations =  1.3

     total cpu time spent up to now is     2661.6 secs

     total energy              =   -1181.92022645 Ry
     estimated scf accuracy    <       0.54435982 Ry

     iteration #  6     ecut=    80.00 Ry     beta= 0.40
     Davidson diagonalization with overlap

---- Real-time Memory Report at c_bands before calling an iterative solver
           404 MiB given to the printing process from OS
             0 MiB allocation reported by mallinfo(arena+hblkhd)
         43965 MiB available memory on the node where the printing process lives
------------------
     ethr =  9.33E-04,  avg # of iterations =  1.9

     total cpu time spent up to now is     2685.2 secs

     total energy              =   -1181.98398506 Ry
     estimated scf accuracy    <       6.91449920 Ry

     iteration #  7     ecut=    80.00 Ry     beta= 0.40
     Davidson diagonalization with overlap

---- Real-time Memory Report at c_bands before calling an iterative solver
           406 MiB given to the printing process from OS
             0 MiB allocation reported by mallinfo(arena+hblkhd)
         44069 MiB available memory on the node where the printing process lives
------------------
     ethr =  9.33E-04,  avg # of iterations =  1.0

     total cpu time spent up to now is     2705.7 secs

     total energy              =   -1181.87859872 Ry
     estimated scf accuracy    <       3.69576713 Ry

     iteration #  8     ecut=    80.00 Ry     beta= 0.40
     Davidson diagonalization with overlap

---- Real-time Memory Report at c_bands before calling an iterative solver
           409 MiB given to the printing process from OS
             0 MiB allocation reported by mallinfo(arena+hblkhd)
         44127 MiB available memory on the node where the printing process lives
------------------
     ethr =  9.33E-04,  avg # of iterations =  1.0

     total cpu time spent up to now is     2725.8 secs

     total energy              =   -1181.98571997 Ry
     estimated scf accuracy    <       0.42731766 Ry

     iteration #  9     ecut=    80.00 Ry     beta= 0.40
     Davidson diagonalization with overlap

---- Real-time Memory Report at c_bands before calling an iterative solver
           411 MiB given to the printing process from OS
             0 MiB allocation reported by mallinfo(arena+hblkhd)
         44004 MiB available memory on the node where the printing process lives
------------------
     ethr =  9.29E-04,  avg # of iterations =  1.0

     total cpu time spent up to now is     2746.0 secs

     total energy              =   -1181.98586245 Ry
     estimated scf accuracy    <       0.40635882 Ry

     iteration # 10     ecut=    80.00 Ry     beta= 0.40
     Davidson diagonalization with overlap

---- Real-time Memory Report at c_bands before calling an iterative solver
           413 MiB given to the printing process from OS
             0 MiB allocation reported by mallinfo(arena+hblkhd)
         44144 MiB available memory on the node where the printing process lives
------------------
     ethr =  8.83E-04,  avg # of iterations =  1.2

     total cpu time spent up to now is     2766.5 secs

     total energy              =   -1181.97161206 Ry
     estimated scf accuracy    <       0.41465687 Ry

     iteration # 11     ecut=    80.00 Ry     beta= 0.40
     Davidson diagonalization with overlap

---- Real-time Memory Report at c_bands before calling an iterative solver
           414 MiB given to the printing process from OS
             0 MiB allocation reported by mallinfo(arena+hblkhd)
         44052 MiB available memory on the node where the printing process lives
------------------
     ethr =  8.83E-04,  avg # of iterations =  1.0

     total cpu time spent up to now is     2786.8 secs

     total energy              =   -1181.96662908 Ry
     estimated scf accuracy    <       0.21592605 Ry

     iteration # 12     ecut=    80.00 Ry     beta= 0.40
     Davidson diagonalization with overlap

---- Real-time Memory Report at c_bands before calling an iterative solver
           414 MiB given to the printing process from OS
             0 MiB allocation reported by mallinfo(arena+hblkhd)
         44030 MiB available memory on the node where the printing process lives
------------------
     ethr =  4.69E-04,  avg # of iterations =  1.0

     total cpu time spent up to now is     2806.7 secs

     total energy              =   -1181.97131706 Ry
     estimated scf accuracy    <       0.07815211 Ry

     iteration # 13     ecut=    80.00 Ry     beta= 0.40
     Davidson diagonalization with overlap

---- Real-time Memory Report at c_bands before calling an iterative solver
           414 MiB given to the printing process from OS
             0 MiB allocation reported by mallinfo(arena+hblkhd)
         44163 MiB available memory on the node where the printing process lives
------------------
     ethr =  1.70E-04,  avg # of iterations =  1.0

     total cpu time spent up to now is     2826.6 secs

     total energy              =   -1181.97581158 Ry
     estimated scf accuracy    <       0.24328260 Ry

     iteration # 14     ecut=    80.00 Ry     beta= 0.40
     Davidson diagonalization with overlap

---- Real-time Memory Report at c_bands before calling an iterative solver
           414 MiB given to the printing process from OS
             0 MiB allocation reported by mallinfo(arena+hblkhd)
         44025 MiB available memory on the node where the printing process lives
------------------
     ethr =  1.70E-04,  avg # of iterations =  1.0

     total cpu time spent up to now is     2847.0 secs

     total energy              =   -1181.97798886 Ry
     estimated scf accuracy    <       1.82737771 Ry

     iteration # 15     ecut=    80.00 Ry     beta= 0.40
     Davidson diagonalization with overlap

---- Real-time Memory Report at c_bands before calling an iterative solver
           414 MiB given to the printing process from OS
             0 MiB allocation reported by mallinfo(arena+hblkhd)
         44157 MiB available memory on the node where the printing process lives
------------------
     ethr =  1.70E-04,  avg # of iterations =  1.0

     total cpu time spent up to now is     2867.1 secs

     total energy              =   -1181.95246523 Ry
     estimated scf accuracy    <       1.55017420 Ry

     iteration # 16     ecut=    80.00 Ry     beta= 0.40
     Davidson diagonalization with overlap

---- Real-time Memory Report at c_bands before calling an iterative solver
           414 MiB given to the printing process from OS
             0 MiB allocation reported by mallinfo(arena+hblkhd)
         43956 MiB available memory on the node where the printing process lives
------------------
     ethr =  1.70E-04,  avg # of iterations =  1.0

     total cpu time spent up to now is     2887.2 secs

     total energy              =   -1181.97164320 Ry
     estimated scf accuracy    <       0.14436201 Ry

     iteration # 17     ecut=    80.00 Ry     beta= 0.40
     Davidson diagonalization with overlap

---- Real-time Memory Report at c_bands before calling an iterative solver
           414 MiB given to the printing process from OS
             0 MiB allocation reported by mallinfo(arena+hblkhd)
         44268 MiB available memory on the node where the printing process lives
------------------
     ethr =  1.70E-04,  avg # of iterations =  1.0

     total cpu time spent up to now is     2907.4 secs

     total energy              =   -1181.97193401 Ry
     estimated scf accuracy    <       0.13547939 Ry

     iteration # 18     ecut=    80.00 Ry     beta= 0.40
     Davidson diagonalization with overlap

---- Real-time Memory Report at c_bands before calling an iterative solver
           414 MiB given to the printing process from OS
             0 MiB allocation reported by mallinfo(arena+hblkhd)
         44085 MiB available memory on the node where the printing process lives
------------------
     ethr =  1.70E-04,  avg # of iterations =  1.0

     total cpu time spent up to now is     2928.0 secs

     total energy              =   -1181.97198886 Ry
     estimated scf accuracy    <       0.15315652 Ry

     iteration # 19     ecut=    80.00 Ry     beta= 0.40
     Davidson diagonalization with overlap

---- Real-time Memory Report at c_bands before calling an iterative solver
           414 MiB given to the printing process from OS
             0 MiB allocation reported by mallinfo(arena+hblkhd)
         43946 MiB available memory on the node where the printing process lives
------------------
     ethr =  1.70E-04,  avg # of iterations =  1.0

     total cpu time spent up to now is     2948.4 secs

     total energy              =   -1181.97142679 Ry
     estimated scf accuracy    <       0.15537796 Ry

     iteration # 20     ecut=    80.00 Ry     beta= 0.40
     Davidson diagonalization with overlap

---- Real-time Memory Report at c_bands before calling an iterative solver
           414 MiB given to the printing process from OS
             0 MiB allocation reported by mallinfo(arena+hblkhd)
         43860 MiB available memory on the node where the printing process lives
------------------
     ethr =  1.70E-04,  avg # of iterations =  1.0

     total cpu time spent up to now is     2968.5 secs

     total energy              =   -1181.97023046 Ry
     estimated scf accuracy    <       0.11838672 Ry

     iteration # 21     ecut=    80.00 Ry     beta= 0.40
     Davidson diagonalization with overlap

---- Real-time Memory Report at c_bands before calling an iterative solver
           414 MiB given to the printing process from OS
             0 MiB allocation reported by mallinfo(arena+hblkhd)
         44251 MiB available memory on the node where the printing process lives
------------------
     ethr =  1.70E-04,  avg # of iterations =  1.0

     total cpu time spent up to now is     2989.1 secs

     total energy              =   -1181.97125268 Ry
     estimated scf accuracy    <       0.03594665 Ry

     iteration # 22     ecut=    80.00 Ry     beta= 0.40
     Davidson diagonalization with overlap

---- Real-time Memory Report at c_bands before calling an iterative solver
           414 MiB given to the printing process from OS
             0 MiB allocation reported by mallinfo(arena+hblkhd)
         44060 MiB available memory on the node where the printing process lives
------------------
     ethr =  7.81E-05,  avg # of iterations =  1.0

     total cpu time spent up to now is     3009.1 secs

     total energy              =   -1181.96918731 Ry
     estimated scf accuracy    <       0.13219121 Ry

     iteration # 23     ecut=    80.00 Ry     beta= 0.40
     Davidson diagonalization with overlap

---- Real-time Memory Report at c_bands before calling an iterative solver
           414 MiB given to the printing process from OS
             0 MiB allocation reported by mallinfo(arena+hblkhd)
         44156 MiB available memory on the node where the printing process lives
------------------
     ethr =  7.81E-05,  avg # of iterations =  1.0

     total cpu time spent up to now is     3029.4 secs

     total energy              =   -1181.97018384 Ry
     estimated scf accuracy    <       0.00032281 Ry

     iteration # 24     ecut=    80.00 Ry     beta= 0.40
     Davidson diagonalization with overlap

---- Real-time Memory Report at c_bands before calling an iterative solver
           414 MiB given to the printing process from OS
             0 MiB allocation reported by mallinfo(arena+hblkhd)
         44088 MiB available memory on the node where the printing process lives
------------------
     ethr =  7.02E-07,  avg # of iterations =  2.0

     total cpu time spent up to now is     3054.7 secs

     total energy              =   -1181.96994151 Ry
     estimated scf accuracy    <       0.02281898 Ry

     iteration # 25     ecut=    80.00 Ry     beta= 0.40
     Davidson diagonalization with overlap

---- Real-time Memory Report at c_bands before calling an iterative solver
           414 MiB given to the printing process from OS
             0 MiB allocation reported by mallinfo(arena+hblkhd)
         44166 MiB available memory on the node where the printing process lives
------------------
     ethr =  7.02E-07,  avg # of iterations =  1.0

     total cpu time spent up to now is     3075.1 secs

     total energy              =   -1181.97020054 Ry
     estimated scf accuracy    <       0.00148086 Ry

     iteration # 26     ecut=    80.00 Ry     beta= 0.40
     Davidson diagonalization with overlap

---- Real-time Memory Report at c_bands before calling an iterative solver
           414 MiB given to the printing process from OS
             0 MiB allocation reported by mallinfo(arena+hblkhd)
         44014 MiB available memory on the node where the printing process lives
------------------
     ethr =  7.02E-07,  avg # of iterations =  1.0

     total cpu time spent up to now is     3095.4 secs

     total energy              =   -1181.97020126 Ry
     estimated scf accuracy    <       0.00220850 Ry

     iteration # 27     ecut=    80.00 Ry     beta= 0.40
     Davidson diagonalization with overlap

---- Real-time Memory Report at c_bands before calling an iterative solver
           414 MiB given to the printing process from OS
             0 MiB allocation reported by mallinfo(arena+hblkhd)
         43986 MiB available memory on the node where the printing process lives
------------------
     ethr =  7.02E-07,  avg # of iterations =  1.0

     total cpu time spent up to now is     3115.4 secs

     total energy              =   -1181.97021174 Ry
     estimated scf accuracy    <       0.00202962 Ry

     iteration # 28     ecut=    80.00 Ry     beta= 0.40
     Davidson diagonalization with overlap

---- Real-time Memory Report at c_bands before calling an iterative solver
           414 MiB given to the printing process from OS
             0 MiB allocation reported by mallinfo(arena+hblkhd)
         44124 MiB available memory on the node where the printing process lives
------------------
     ethr =  7.02E-07,  avg # of iterations =  1.0

     total cpu time spent up to now is     3135.4 secs

     total energy              =   -1181.97018414 Ry
     estimated scf accuracy    <       0.00381563 Ry

     iteration # 29     ecut=    80.00 Ry     beta= 0.40
     Davidson diagonalization with overlap

---- Real-time Memory Report at c_bands before calling an iterative solver
           414 MiB given to the printing process from OS
             0 MiB allocation reported by mallinfo(arena+hblkhd)
         44123 MiB available memory on the node where the printing process lives
------------------
     ethr =  7.02E-07,  avg # of iterations =  1.0

     total cpu time spent up to now is     3155.9 secs

     total energy              =   -1181.97019094 Ry
     estimated scf accuracy    <       0.00074639 Ry

     iteration # 30     ecut=    80.00 Ry     beta= 0.40
     Davidson diagonalization with overlap

---- Real-time Memory Report at c_bands before calling an iterative solver
           414 MiB given to the printing process from OS
             0 MiB allocation reported by mallinfo(arena+hblkhd)
         44185 MiB available memory on the node where the printing process lives
------------------
     ethr =  7.02E-07,  avg # of iterations =  1.0

     total cpu time spent up to now is     3175.9 secs

     total energy              =   -1181.97018950 Ry
     estimated scf accuracy    <       0.00053479 Ry

     iteration # 31     ecut=    80.00 Ry     beta= 0.40
     Davidson diagonalization with overlap

---- Real-time Memory Report at c_bands before calling an iterative solver
           414 MiB given to the printing process from OS
             0 MiB allocation reported by mallinfo(arena+hblkhd)
         44243 MiB available memory on the node where the printing process lives
------------------
     ethr =  7.02E-07,  avg # of iterations =  1.0

     total cpu time spent up to now is     3196.0 secs

     total energy              =   -1181.97018523 Ry
     estimated scf accuracy    <       0.00034569 Ry

     iteration # 32     ecut=    80.00 Ry     beta= 0.40
     Davidson diagonalization with overlap

---- Real-time Memory Report at c_bands before calling an iterative solver
           414 MiB given to the printing process from OS
             0 MiB allocation reported by mallinfo(arena+hblkhd)
         43921 MiB available memory on the node where the printing process lives
------------------
     ethr =  7.02E-07,  avg # of iterations =  1.0

     total cpu time spent up to now is     3216.4 secs

     total energy              =   -1181.97018732 Ry
     estimated scf accuracy    <       0.00000162 Ry

     iteration # 33     ecut=    80.00 Ry     beta= 0.40
     Davidson diagonalization with overlap

---- Real-time Memory Report at c_bands before calling an iterative solver
           414 MiB given to the printing process from OS
             0 MiB allocation reported by mallinfo(arena+hblkhd)
         44079 MiB available memory on the node where the printing process lives
------------------
     ethr =  3.53E-09,  avg # of iterations =  1.0

     total cpu time spent up to now is     3237.1 secs

     total energy              =   -1181.97018731 Ry
     estimated scf accuracy    <       0.00000074 Ry

     iteration # 34     ecut=    80.00 Ry     beta= 0.40
     Davidson diagonalization with overlap

---- Real-time Memory Report at c_bands before calling an iterative solver
           414 MiB given to the printing process from OS
             0 MiB allocation reported by mallinfo(arena+hblkhd)
         44016 MiB available memory on the node where the printing process lives
------------------
     ethr =  1.61E-09,  avg # of iterations =  1.0

     total cpu time spent up to now is     3257.3 secs

     total energy              =   -1181.97018732 Ry
     estimated scf accuracy    <          7.7E-09 Ry

     iteration # 35     ecut=    80.00 Ry     beta= 0.40
     Davidson diagonalization with overlap

---- Real-time Memory Report at c_bands before calling an iterative solver
           414 MiB given to the printing process from OS
             0 MiB allocation reported by mallinfo(arena+hblkhd)
         44047 MiB available memory on the node where the printing process lives
------------------
     ethr =  1.66E-11,  avg # of iterations =  2.1

     total cpu time spent up to now is     3282.2 secs

     total energy              =   -1181.97018732 Ry
     estimated scf accuracy    <          3.3E-10 Ry

     iteration # 36     ecut=    80.00 Ry     beta= 0.40
     Davidson diagonalization with overlap

---- Real-time Memory Report at c_bands before calling an iterative solver
           414 MiB given to the printing process from OS
             0 MiB allocation reported by mallinfo(arena+hblkhd)
         44094 MiB available memory on the node where the printing process lives
------------------
     ethr =  7.14E-13,  avg # of iterations =  3.2

     total cpu time spent up to now is     3311.5 secs

     total energy              =   -1181.97018732 Ry
     estimated scf accuracy    <          5.1E-10 Ry

     iteration # 37     ecut=    80.00 Ry     beta= 0.40
     Davidson diagonalization with overlap

---- Real-time Memory Report at c_bands before calling an iterative solver
           414 MiB given to the printing process from OS
             0 MiB allocation reported by mallinfo(arena+hblkhd)
         44432 MiB available memory on the node where the printing process lives
------------------
     ethr =  7.14E-13,  avg # of iterations =  1.0

     total cpu time spent up to now is     3331.5 secs

     total energy              =   -1181.97018732 Ry
     estimated scf accuracy    <          7.3E-10 Ry

     iteration # 38     ecut=    80.00 Ry     beta= 0.40
     Davidson diagonalization with overlap

---- Real-time Memory Report at c_bands before calling an iterative solver
           414 MiB given to the printing process from OS
             0 MiB allocation reported by mallinfo(arena+hblkhd)
         43998 MiB available memory on the node where the printing process lives
------------------
     ethr =  7.14E-13,  avg # of iterations =  1.0

     total cpu time spent up to now is     3352.4 secs

     End of self-consistent calculation

          k = 0.0000 0.0000 0.0000 ( 19093 PWs)   bands (ev):

   -86.0474 -52.2159 -52.2159 -52.2159 -23.8787 -12.7577 -12.6515 -12.6515
    -8.2703  -8.2703  -8.2703  -0.9069  -0.9069  -0.9069  -0.5529  -0.5529
    -0.5529  -0.2149  -0.2149  -0.2087  -0.2087  -0.2087  -0.0978  -0.0978
    -0.0978   0.4690   5.7962   5.7962

     occupation numbers 
     1.0000   1.0000   1.0000   1.0000   1.0000   1.0000   1.0000   1.0000
     1.0000   1.0000   1.0000   1.0000   1.0000   1.0000   1.0000   1.0000
     1.0000   0.9233   0.9233   0.9028   0.9028   0.9028   0.1569   0.1569
     0.1569   0.0000   0.0000   0.0000

          k = 0.0000 0.0000 0.1024 ( 19133 PWs)   bands (ev):

   -86.0474 -52.2160 -52.2159 -52.2159 -23.8785 -12.7589 -12.6644 -12.6513
    -8.2697  -8.2697  -8.2212  -0.9530  -0.8991  -0.8991  -0.5774  -0.5750
    -0.5750  -0.2578  -0.2132  -0.2086  -0.1984  -0.1950  -0.1950  -0.1063
    -0.1063   0.5893   5.3857   5.7128

     occupation numbers 
     1.0000   1.0000   1.0000   1.0000   1.0000   1.0000   1.0000   1.0000
     1.0000   1.0000   1.0000   1.0000   1.0000   1.0000   1.0000   1.0000
     1.0000   0.9898   0.9179   0.9025   0.8608   0.8443   0.8443   0.2030
     0.2030   0.0000   0.0000   0.0000

          k = 0.0000 0.0000 0.2048 ( 19105 PWs)   bands (ev):

   -86.0474 -52.2159 -52.2159 -52.2159 -23.8781 -12.7639 -12.6929 -12.6510
    -8.2682  -8.2682  -8.1004  -1.0471  -0.8754  -0.8754  -0.6302  -0.6302
    -0.6288  -0.5920  -0.2088  -0.2083  -0.1707  -0.1707  -0.1659  -0.1204
    -0.1204   0.8337   4.7859   5.5553

     occupation numbers 
     1.0000   1.0000   1.0000   1.0000   1.0000   1.0000   1.0000   1.0000
     1.0000   1.0000   1.0000   1.0000   1.0000   1.0000   1.0000   1.0000
     1.0000   1.0000   0.9033   0.9013   0.6944   0.6944   0.6583   0.2955
     0.2955   0.0000   0.0000   0.0000

          k = 0.0000 0.0000 0.3072 ( 19085 PWs)   bands (ev):

   -86.0474 -52.2159 -52.2159 -52.2159 -23.8776 -12.7743 -12.7149 -12.6507
    -8.2668  -8.2668  -7.9760  -1.1146  -0.9082  -0.8358  -0.8358  -0.6983
    -0.6983  -0.6735  -0.2080  -0.2045  -0.1695  -0.1695  -0.1399  -0.1136
    -0.1136   1.0669   4.3313   5.4293

     occupation numbers 
     1.0000   1.0000   1.0000   1.0000   1.0000   1.0000   1.0000   1.0000
     1.0000   1.0000   1.0000   1.0000   1.0000   1.0000   1.0000   1.0000
     1.0000   1.0000   0.9003   0.8869   0.6852   0.6852   0.4477   0.2487
     0.2487   0.0000   0.0000   0.0000

          k = 0.0000 0.0000-0.4096 ( 19066 PWs)   bands (ev):

   -86.0474 -52.2159 -52.2159 -52.2158 -23.8775 -12.7809 -12.7214 -12.6505
    -8.2662  -8.2662  -7.9233  -1.1056  -1.0682  -0.7980  -0.7980  -0.7474
    -0.7474  -0.6906  -0.2079  -0.2027  -0.1745  -0.1745  -0.1305  -0.1055
    -0.1055   1.1667   4.1577   5.3826

     occupation numbers 
     1.0000   1.0000   1.0000   1.0000   1.0000   1.0000   1.0000   1.0000
     1.0000   1.0000   1.0000   1.0000   1.0000   1.0000   1.0000   1.0000
     1.0000   1.0000   0.8998   0.8795   0.7216   0.7216   0.3714   0.1985
     0.1985   0.0000   0.0000   0.0000

          k = 0.0000 0.1024 0.1024 ( 19143 PWs)   bands (ev):

   -86.0474 -52.2160 -52.2160 -52.2159 -23.8783 -12.7599 -12.6711 -12.6577
    -8.2691  -8.2216  -8.2196  -1.0085  -0.8919  -0.8798  -0.6451  -0.5948
    -0.5389  -0.3210  -0.2081  -0.2040  -0.1997  -0.1912  -0.1907  -0.1746
    -0.1158   0.6818   5.2333   5.5275

     occupation numbers 
     1.0000   1.0000   1.0000   1.0000   1.0000   1.0000   1.0000   1.0000
     1.0000   1.0000   1.0000   1.0000   1.0000   1.0000   1.0000   1.0000
     1.0000   0.9999   0.9008   0.8850   0.8665   0.8250   0.8220   0.7218
     0.2630   0.0000   0.0000   0.0000

          k = 0.0000 0.1024 0.2048 ( 19133 PWs)   bands (ev):

   -86.0474 -52.2160 -52.2159 -52.2159 -23.8779 -12.7643 -12.6977 -12.6597
    -8.2676  -8.2192  -8.0998  -1.1022  -0.8699  -0.8607  -0.7303  -0.6447
    -0.6072  -0.5287  -0.2374  -0.2045  -0.1969  -0.1820  -0.1702  -0.1493
    -0.1317   0.8833   4.7827   5.3949

     occupation numbers 
     1.0000   1.0000   1.0000   1.0000   1.0000   1.0000   1.0000   1.0000
     1.0000   1.0000   1.0000   1.0000   1.0000   1.0000   1.0000   1.0000
     1.0000   1.0000   0.9709   0.8871   0.8537   0.7712   0.6903   0.5256
     0.3809   0.0000   0.0000   0.0000

          k = 0.0000 0.1024 0.3072 ( 19068 PWs)   bands (ev):

   -86.0474 -52.2159 -52.2159 -52.2159 -23.8775 -12.7741 -12.7199 -12.6597
    -8.2662  -8.2178  -7.9755  -1.1682  -0.9484  -0.8329  -0.8289  -0.7625
    -0.7074  -0.5443  -0.2608  -0.1998  -0.1962  -0.1752  -0.1538  -0.1329
    -0.1212   1.0790   4.3959   5.3116

     occupation numbers 
     1.0000   1.0000   1.0000   1.0000   1.0000   1.0000   1.0000   1.0000
     1.0000   1.0000   1.0000   1.0000   1.0000   1.0000   1.0000   1.0000
     1.0000   1.0000   0.9914   0.8671   0.8506   0.7266   0.5621   0.3904
     0.3012   0.0000   0.0000   0.0000

          k = 0.0000 0.1024-0.4096 ( 19080 PWs)   bands (ev):

   -86.0474 -52.2159 -52.2159 -52.2159 -23.8773 -12.7807 -12.7264 -12.6597
    -8.2656  -8.2172  -7.9228  -1.1738  -1.0820  -0.8101  -0.8038  -0.7966
    -0.7539  -0.5511  -0.2701  -0.1979  -0.1959  -0.1826  -0.1345  -0.1344
    -0.1119   1.1619   4.2473   5.2795

     occupation numbers 
     1.0000   1.0000   1.0000   1.0000   1.0000   1.0000   1.0000   1.0000
     1.0000   1.0000   1.0000   1.0000   1.0000   1.0000   1.0000   1.0000
     1.0000   1.0000   0.9950   0.8584   0.8491   0.7751   0.4032   0.4023
     0.2377   0.0000   0.0000   0.0000

          k = 0.0000 0.2048 0.2048 ( 19129 PWs)   bands (ev):

   -86.0474 -52.2160 -52.2160 -52.2159 -23.8775 -12.7666 -12.7171 -12.6709
    -8.2662  -8.1006  -8.0965  -1.2061  -0.8529  -0.8465  -0.8411  -0.6821
    -0.6742  -0.4958  -0.3871  -0.2019  -0.1845  -0.1753  -0.1593  -0.1539
    -0.1474   0.9967   4.7125   5.1647

     occupation numbers 
     1.0000   1.0000   1.0000   1.0000   1.0000   1.0000   1.0000   1.0000
     1.0000   1.0000   1.0000   1.0000   1.0000   1.0000   1.0000   1.0000
     1.0000   1.0000   1.0000   0.8762   0.7867   0.7268   0.6067   0.5632
     0.5096   0.0000   0.0000   0.0000

          k = 0.0000 0.2048 0.3072 ( 19075 PWs)   bands (ev):

   -86.0474 -52.2159 -52.2159 -52.2159 -23.8770 -12.7739 -12.7381 -12.6745
    -8.2647  -8.0973  -7.9743  -1.2850  -1.0319  -0.8273  -0.8239  -0.7722
    -0.7300  -0.5058  -0.4044  -0.1980  -0.1940  -0.1663  -0.1637  -0.1440
    -0.1330   1.1064   4.5523   5.0839

     occupation numbers 
     1.0000   1.0000   1.0000   1.0000   1.0000   1.0000   1.0000   1.0000
     1.0000   1.0000   1.0000   1.0000   1.0000   1.0000   1.0000   1.0000
     1.0000   1.0000   1.0000   0.8588   0.8396   0.6615   0.6416   0.4816
     0.3911   0.0000   0.0000   0.0000

          k = 0.0000 0.2048-0.4096 ( 19096 PWs)   bands (ev):

   -86.0474 -52.2159 -52.2159 -52.2159 -23.8769 -12.7802 -12.7441 -12.6752
    -8.2641  -8.0967  -7.9217  -1.3087  -1.1358  -0.8159  -0.8075  -0.7930
    -0.7685  -0.5061  -0.4059  -0.2070  -0.1853  -0.1679  -0.1671  -0.1383
    -0.1223   1.1516   4.4739   5.0710

     occupation numbers 
     1.0000   1.0000   1.0000   1.0000   1.0000   1.0000   1.0000   1.0000
     1.0000   1.0000   1.0000   1.0000   1.0000   1.0000   1.0000   1.0000
     1.0000   1.0000   1.0000   0.8965   0.7916   0.6734   0.6672   0.4347
     0.3092   0.0000   0.0000   0.0000

          k = 0.0000 0.3072 0.3072 ( 19098 PWs)   bands (ev):

   -86.0474 -52.2159 -52.2159 -52.2159 -23.8766 -12.7753 -12.7615 -12.6816
    -8.2633  -7.9742  -7.9721  -1.3810  -1.1631  -0.8263  -0.8082  -0.7677
    -0.7581  -0.6594  -0.3468  -0.2240  -0.1982  -0.1701  -0.1410  -0.1372
    -0.1312   1.1324   4.6954   4.9229

     occupation numbers 
     1.0000   1.0000   1.0000   1.0000   1.0000   1.0000   1.0000   1.0000
     1.0000   1.0000   1.0000   1.0000   1.0000   1.0000   1.0000   1.0000
     1.0000   1.0000   1.0000   0.9469   0.8598   0.6899   0.4568   0.4253
     0.3773   0.0000   0.0000   0.0000

          k = 0.0000 0.3072-0.4096 ( 19072 PWs)   bands (ev):

   -86.0474 -52.2159 -52.2159 -52.2159 -23.8764 -12.7797 -12.7684 -12.6832
    -8.2627  -7.9727  -7.9206  -1.4152  -1.2376  -0.8196  -0.7891  -0.7820
    -0.7791  -0.6945  -0.3303  -0.2356  -0.1929  -0.1851  -0.1407  -0.1280
    -0.1168   1.1430   4.7232   4.8998

     occupation numbers 
     1.0000   1.0000   1.0000   1.0000   1.0000   1.0000   1.0000   1.0000
     1.0000   1.0000   1.0000   1.0000   1.0000   1.0000   1.0000   1.0000
     1.0000   1.0000   0.9999   0.9683   0.8341   0.7904   0.4542   0.3523
     0.2699   0.0000   0.0000   0.0000

          k = 0.0000-0.4096-0.4096 ( 19072 PWs)   bands (ev):

   -86.0474 -52.2159 -52.2159 -52.2159 -23.8763 -12.7795 -12.7795 -12.6852
    -8.2621  -7.9201  -7.9201  -1.4540  -1.2981  -0.8084  -0.7874  -0.7874
    -0.7646  -0.7646  -0.3111  -0.2481  -0.2028  -0.1902  -0.1297  -0.1297
    -0.0993   1.1400   4.8366   4.8366

     occupation numbers 
     1.0000   1.0000   1.0000   1.0000   1.0000   1.0000   1.0000   1.0000
     1.0000   1.0000   1.0000   1.0000   1.0000   1.0000   1.0000   1.0000
     1.0000   1.0000   0.9997   0.9828   0.8800   0.8194   0.3653   0.3653
     0.1647   0.0000   0.0000   0.0000

          k = 0.1024 0.1024 0.1024 ( 19111 PWs)   bands (ev):

   -86.0474 -52.2159 -52.2159 -52.2159 -23.8781 -12.7608 -12.6709 -12.6709
    -8.2220  -8.2190  -8.2190  -1.0519  -0.8828  -0.8828  -0.6495  -0.6495
    -0.5065  -0.3811  -0.2095  -0.2095  -0.2025  -0.2025  -0.1973  -0.1633
    -0.1633   0.7555   5.0845   5.5146

     occupation numbers 
     1.0000   1.0000   1.0000   1.0000   1.0000   1.0000   1.0000   1.0000
     1.0000   1.0000   1.0000   1.0000   1.0000   1.0000   1.0000   1.0000
     1.0000   1.0000   0.9058   0.9058   0.8790   0.8790   0.8555   0.6386
     0.6386   0.0000   0.0000   0.0000

          k = 0.1024 0.1024 0.2048 ( 19074 PWs)   bands (ev):

   -86.0474 -52.2159 -52.2159 -52.2159 -23.8777 -12.7647 -12.7004 -12.6706
    -8.2196  -8.2176  -8.0993  -1.1359  -0.8967  -0.8719  -0.7106  -0.7047
    -0.5918  -0.4956  -0.2684  -0.2224  -0.2077  -0.1901  -0.1892  -0.1582
    -0.1345   0.9215   4.7477   5.3192

     occupation numbers 
     1.0000   1.0000   1.0000   1.0000   1.0000   1.0000   1.0000   1.0000
     1.0000   1.0000   1.0000   1.0000   1.0000   1.0000   1.0000   1.0000
     1.0000   1.0000   0.9944   0.9433   0.8994   0.8188   0.8141   0.5981
     0.4035   0.0000   0.0000   0.0000

          k = 0.1024 0.1024 0.3072 ( 19088 PWs)   bands (ev):

   -86.0474 -52.2159 -52.2159 -52.2159 -23.8773 -12.7740 -12.7234 -12.6702
    -8.2182  -8.2162  -7.9750  -1.1969  -0.9621  -0.9214  -0.8655  -0.7372
    -0.6288  -0.5080  -0.3025  -0.2407  -0.2049  -0.1795  -0.1577  -0.1508
    -0.1201   1.0827   4.4483   5.1787

     occupation numbers 
     1.0000   1.0000   1.0000   1.0000   1.0000   1.0000   1.0000   1.0000
     1.0000   1.0000   1.0000   1.0000   1.0000   1.0000   1.0000   1.0000
     1.0000   1.0000   0.9994   0.9752   0.8886   0.7552   0.5938   0.5376
     0.2935   0.0000   0.0000   0.0000

          k = 0.1024 0.1024-0.4096 ( 19092 PWs)   bands (ev):

   -86.0474 -52.2159 -52.2159 -52.2159 -23.8771 -12.7805 -12.7300 -12.6701
    -8.2176  -8.2156  -7.9224  -1.2034  -1.0964  -0.9343  -0.8635  -0.7416
    -0.6301  -0.5163  -0.3163  -0.2480  -0.2038  -0.1761  -0.1462  -0.1386
    -0.1206   1.1499   4.3320   5.1274

     occupation numbers 
     1.0000   1.0000   1.0000   1.0000   1.0000   1.0000   1.0000   1.0000
     1.0000   1.0000   1.0000   1.0000   1.0000   1.0000   1.0000   1.0000
     1.0000   1.0000   0.9998   0.9828   0.8840   0.7322   0.4992   0.4367
     0.2970   0.0000   0.0000   0.0000

          k = 0.1024 0.2048 0.2048 ( 19105 PWs)   bands (ev):

   -86.0474 -52.2159 -52.2159 -52.2159 -23.8773 -12.7668 -12.7170 -12.6848
    -8.2172  -8.1000  -8.0960  -1.2151  -0.9410  -0.9029  -0.8032  -0.6701
    -0.6653  -0.4549  -0.3901  -0.2602  -0.2020  -0.1940  -0.1835  -0.1390
    -0.1314   1.0079   4.6523   5.2056

     occupation numbers 
     1.0000   1.0000   1.0000   1.0000   1.0000   1.0000   1.0000   1.0000
     1.0000   1.0000   1.0000   1.0000   1.0000   1.0000   1.0000   1.0000
     1.0000   1.0000   1.0000   0.9911   0.8767   0.8395   0.7808   0.4404
     0.3786   0.0000   0.0000   0.0000

          k = 0.1024 0.2048 0.3072 ( 19096 PWs)   bands (ev):

   -86.0474 -52.2159 -52.2159 -52.2159 -23.8769 -12.7738 -12.7387 -12.6879
    -8.2158  -8.0967  -7.9739  -1.2820  -1.0493  -0.9565  -0.9153  -0.7010
    -0.6229  -0.4909  -0.3993  -0.2845  -0.1984  -0.1803  -0.1628  -0.1425
    -0.1239   1.0884   4.5716   5.0529

     occupation numbers 
     1.0000   1.0000   1.0000   1.0000   1.0000   1.0000   1.0000   1.0000
     1.0000   1.0000   1.0000   1.0000   1.0000   1.0000   1.0000   1.0000
     1.0000   1.0000   1.0000   0.9980   0.8606   0.7607   0.6348   0.4688
     0.3209   0.0000   0.0000   0.0000

          k = 0.1024 0.2048-0.4096 ( 19104 PWs)   bands (ev):

   -86.0474 -52.2160 -52.2159 -52.2159 -23.8767 -12.7800 -12.7450 -12.6884
    -8.2152  -8.0962  -7.9212  -1.3006  -1.1517  -0.9844  -0.9196  -0.7044
    -0.5944  -0.5180  -0.3983  -0.2943  -0.1960  -0.1705  -0.1547  -0.1400
    -0.1268   1.1203   4.5494   4.9746

     occupation numbers 
     1.0000   1.0000   1.0000   1.0000   1.0000   1.0000   1.0000   1.0000
     1.0000   1.0000   1.0000   1.0000   1.0000   1.0000   1.0000   1.0000
     1.0000   1.0000   1.0000   0.9990   0.8493   0.6927   0.5699   0.4484
     0.3431   0.0000   0.0000   0.0000

          k = 0.1024 0.3072 0.3072 ( 19082 PWs)   bands (ev):

   -86.0474 -52.2159 -52.2159 -52.2159 -23.8764 -12.7751 -12.7614 -12.6957
    -8.2144  -7.9738  -7.9716  -1.3659  -1.1789  -0.9650  -0.9551  -0.7378
    -0.6257  -0.5572  -0.3387  -0.3173  -0.1985  -0.1775  -0.1570  -0.1360
    -0.1194   1.0902   4.7012   4.9869

     occupation numbers 
     1.0000   1.0000   1.0000   1.0000   1.0000   1.0000   1.0000   1.0000
     1.0000   1.0000   1.0000   1.0000   1.0000   1.0000   1.0000   1.0000
     1.0000   1.0000   1.0000   0.9998   0.8611   0.7419   0.5883   0.4158
     0.2879   0.0000   0.0000   0.0000

          k = 0.1024 0.3072-0.4096 ( 19060 PWs)   bands (ev):

   -86.0474 -52.2159 -52.2159 -52.2159 -23.8763 -12.7795 -12.7682 -12.6973
    -8.2138  -7.9722  -7.9201  -1.3967  -1.2530  -0.9803  -0.9587  -0.7649
    -0.5908  -0.5847  -0.3320  -0.3224  -0.1939  -0.1876  -0.1463  -0.1308
    -0.1171   1.0898   4.7940   4.9090

     occupation numbers 
     1.0000   1.0000   1.0000   1.0000   1.0000   1.0000   1.0000   1.0000
     1.0000   1.0000   1.0000   1.0000   1.0000   1.0000   1.0000   1.0000
     1.0000   1.0000   0.9999   0.9999   0.8390   0.8052   0.5002   0.3743
     0.2721   0.0000   0.0000   0.0000

          k = 0.1024-0.4096-0.4096 ( 19072 PWs)   bands (ev):

   -86.0474 -52.2159 -52.2159 -52.2159 -23.8761 -12.7793 -12.7793 -12.6993
    -8.2132  -7.9196  -7.9196  -1.4334  -1.3127  -0.9745  -0.9745  -0.8078
    -0.5802  -0.5802  -0.3509  -0.3032  -0.2034  -0.1907  -0.1322  -0.1322
    -0.1074   1.0769   4.9073   4.9073

     occupation numbers 
     1.0000   1.0000   1.0000   1.0000   1.0000   1.0000   1.0000   1.0000
     1.0000   1.0000   1.0000   1.0000   1.0000   1.0000   1.0000   1.0000
     1.0000   1.0000   1.0000   0.9994   0.8825   0.8224   0.3852   0.3852
     0.2095   0.0000   0.0000   0.0000

          k = 0.2048 0.2048 0.2048 ( 19084 PWs)   bands (ev):

   -86.0474 -52.2159 -52.2159 -52.2159 -23.8769 -12.7681 -12.7166 -12.7166
    -8.1009  -8.0947  -8.0947  -1.2502  -1.0096  -1.0096  -0.8855  -0.6539
    -0.6539  -0.3978  -0.3978  -0.3901  -0.2033  -0.2033  -0.1917  -0.1215
    -0.1215   1.0288   4.5882   5.3049

     occupation numbers 
     1.0000   1.0000   1.0000   1.0000   1.0000   1.0000   1.0000   1.0000
     1.0000   1.0000   1.0000   1.0000   1.0000   1.0000   1.0000   1.0000
     1.0000   1.0000   1.0000   1.0000   0.8823   0.8823   0.8275   0.3034
     0.3034   0.0000   0.0000   0.0000

          k = 0.2048 0.2048 0.3072 ( 19083 PWs)   bands (ev):

   -86.0474 -52.2159 -52.2159 -52.2159 -23.8764 -12.7736 -12.7432 -12.7162
    -8.0976  -8.0934  -7.9727  -1.2927  -1.1020  -1.0918  -1.0198  -0.6403
    -0.6322  -0.4505  -0.4034  -0.3623  -0.2034  -0.1872  -0.1828  -0.1233
    -0.1213   1.0406   4.6382   5.1050

     occupation numbers 
     1.0000   1.0000   1.0000   1.0000   1.0000   1.0000   1.0000   1.0000
     1.0000   1.0000   1.0000   1.0000   1.0000   1.0000   1.0000   1.0000
     1.0000   1.0000   1.0000   1.0000   0.8824   0.8025   0.7763   0.3167
     0.3020   0.0000   0.0000   0.0000

          k = 0.2048 0.2048-0.4096 ( 19048 PWs)   bands (ev):

   -86.0474 -52.2159 -52.2159 -52.2159 -23.8763 -12.7795 -12.7504 -12.7160
    -8.0970  -8.0929  -7.9201  -1.3003  -1.2095  -1.1219  -1.0266  -0.6345
    -0.6180  -0.4651  -0.4058  -0.3590  -0.2024  -0.1812  -0.1577  -0.1336
    -0.1277   1.0428   4.7500   4.9322

     occupation numbers 
     1.0000   1.0000   1.0000   1.0000   1.0000   1.0000   1.0000   1.0000
     1.0000   1.0000   1.0000   1.0000   1.0000   1.0000   1.0000   1.0000
     1.0000   1.0000   1.0000   1.0000   0.8786   0.7660   0.5943   0.3961
     0.3502   0.0000   0.0000   0.0000

          k = 0.2048 0.3072 0.3072 ( 19052 PWs)   bands (ev):

   -86.0474 -52.2159 -52.2159 -52.2158 -23.8760 -12.7748 -12.7609 -12.7289
    -8.0942  -7.9726  -7.9705  -1.3342  -1.2304  -1.1186  -1.1079  -0.7328
    -0.6009  -0.4287  -0.4193  -0.3112  -0.1994  -0.1905  -0.1837  -0.1297
    -0.1166   0.9866   4.7850   5.1606

     occupation numbers 
     1.0000   1.0000   1.0000   1.0000   1.0000   1.0000   1.0000   1.0000
     1.0000   1.0000   1.0000   1.0000   1.0000   1.0000   1.0000   1.0000
     1.0000   1.0000   1.0000   0.9997   0.8654   0.8211   0.7821   0.3656
     0.2688   0.0000   0.0000   0.0000

          k = 0.2048 0.3072-0.4096 ( 19060 PWs)   bands (ev):

   -86.0474 -52.2159 -52.2159 -52.2159 -23.8758 -12.7790 -12.7681 -12.7304
    -8.0937  -7.9710  -7.9190  -1.3505  -1.3081  -1.1495  -1.1104  -0.7622
    -0.5870  -0.4245  -0.4177  -0.2979  -0.1974  -0.1945  -0.1620  -0.1398
    -0.1203   0.9624   4.9883   5.0074

     occupation numbers 
     1.0000   1.0000   1.0000   1.0000   1.0000   1.0000   1.0000   1.0000
     1.0000   1.0000   1.0000   1.0000   1.0000   1.0000   1.0000   1.0000
     1.0000   1.0000   1.0000   0.9992   0.8559   0.8420   0.6286   0.4467
     0.2948   0.0000   0.0000   0.0000

          k = 0.2048-0.4096-0.4096 ( 19072 PWs)   bands (ev):

   -86.0474 -52.2159 -52.2159 -52.2159 -23.8757 -12.7788 -12.7788 -12.7327
    -8.0931  -7.9185  -7.9185  -1.3805  -1.3650  -1.1436  -1.1436  -0.8063
    -0.5719  -0.4147  -0.4147  -0.2806  -0.2064  -0.1925  -0.1421  -0.1421
    -0.1303   0.9282   5.1039   5.1039

     occupation numbers 
     1.0000   1.0000   1.0000   1.0000   1.0000   1.0000   1.0000   1.0000
     1.0000   1.0000   1.0000   1.0000   1.0000   1.0000   1.0000   1.0000
     1.0000   1.0000   1.0000   0.9974   0.8944   0.8319   0.4657   0.4657
     0.3700   0.0000   0.0000   0.0000

          k = 0.3072 0.3072 0.3072 ( 19081 PWs)   bands (ev):

   -86.0474 -52.2159 -52.2159 -52.2159 -23.8756 -12.7753 -12.7605 -12.7605
    -7.9725  -7.9693  -7.9693  -1.3553  -1.2824  -1.2134  -1.2134  -0.7299
    -0.7299  -0.3562  -0.3562  -0.2671  -0.2008  -0.2004  -0.2004  -0.1308
    -0.1308   0.8803   4.9789   5.3728

     occupation numbers 
     1.0000   1.0000   1.0000   1.0000   1.0000   1.0000   1.0000   1.0000
     1.0000   1.0000   1.0000   1.0000   1.0000   1.0000   1.0000   1.0000
     1.0000   1.0000   1.0000   0.9940   0.8716   0.8699   0.8699   0.3737
     0.3737   0.0000   0.0000   0.0000

          k = 0.3072 0.3072-0.4096 ( 19094 PWs)   bands (ev):

   -86.0474 -52.2159 -52.2159 -52.2159 -23.8754 -12.7786 -12.7701 -12.7603
    -7.9710  -7.9688  -7.9178  -1.4004  -1.3114  -1.2507  -1.2178  -0.7730
    -0.7288  -0.3331  -0.3264  -0.2578  -0.2033  -0.2014  -0.1790  -0.1555
    -0.1342   0.8354   5.1982   5.2324

     occupation numbers 
     1.0000   1.0000   1.0000   1.0000   1.0000   1.0000   1.0000   1.0000
     1.0000   1.0000   1.0000   1.0000   1.0000   1.0000   1.0000   1.0000
     1.0000   0.9999   0.9999   0.9898   0.8821   0.8743   0.7518   0.5766
     0.4011   0.0000   0.0000   0.0000

          k = 0.3072-0.4096-0.4096 ( 19092 PWs)   bands (ev):

   -86.0474 -52.2159 -52.2159 -52.2159 -23.8752 -12.7784 -12.7784 -12.7650
    -7.9694  -7.9174  -7.9174  -1.4530  -1.3224  -1.2567  -1.2567  -0.8049
    -0.7473  -0.2925  -0.2925  -0.2468  -0.2096  -0.1955  -0.1658  -0.1658
    -0.1643   0.7826   5.3580   5.3581

     occupation numbers 
     1.0000   1.0000   1.0000   1.0000   1.0000   1.0000   1.0000   1.0000
     1.0000   1.0000   1.0000   1.0000   1.0000   1.0000   1.0000   1.0000
     1.0000   0.9988   0.9988   0.9817   0.9062   0.8471   0.6575   0.6575
     0.6462   0.0000   0.0000   0.0000

          k =-0.4096-0.4096-0.4096 ( 19208 PWs)   bands (ev):

   -86.0475 -52.2160 -52.2160 -52.2160 -23.8751 -12.7782 -12.7782 -12.7782
    -7.9169  -7.9169  -7.9169  -1.5029  -1.2964  -1.2964  -1.2964  -0.8043
    -0.8043  -0.2139  -0.2139  -0.2139  -0.2111  -0.2111  -0.2111  -0.1974
    -0.1974   0.7227   5.4933   5.4933

     occupation numbers 
     1.0000   1.0000   1.0000   1.0000   1.0000   1.0000   1.0000   1.0000
     1.0000   1.0000   1.0000   1.0000   1.0000   1.0000   1.0000   1.0000
     1.0000   0.9203   0.9203   0.9203   0.9111   0.9111   0.9111   0.8561
     0.8561   0.0000   0.0000   0.0000

     the Fermi energy is    -0.1463 ev

!    total energy              =   -1181.97018732 Ry
     total all-electron energy =    -24146.537534 Ry
     estimated scf accuracy    <          1.5E-11 Ry
     smearing contrib. (-TS)   =      -0.01203112 Ry
     internal energy E=F+TS    =   -1181.95815620 Ry

     The total energy is F=E-TS. E is the sum of the following terms:
     one-electron contribution =    -279.79414671 Ry
     hartree contribution      =     151.66880312 Ry
     xc contribution           =     -72.82837416 Ry
     ewald contribution        =    -189.18041910 Ry
     one-center paw contrib.   =    -791.82401936 Ry
      -> PAW hartree energy AE =      28.97493850 Ry
      -> PAW hartree energy PS =     -28.85951829 Ry
      -> PAW xc energy AE      =    -200.64226102 Ry
      -> PAW xc energy PS      =      18.46754949 Ry
      -> total E_H with PAW    =     151.78422332 Ry
      -> total E_XC with PAW   =    -255.00308570 Ry

     convergence has been achieved in  38 iterations

     Forces acting on atoms (cartesian axes, Ry/au):

     atom    1 type  1   force =     0.00000000    0.00000000    0.00000000
     atom    2 type  2   force =     0.00000000    0.00000000    0.00000000
     atom    3 type  3   force =     0.00000000    0.00000000    0.00000000
     atom    4 type  3   force =     0.00000000    0.00000000    0.00000000
     atom    5 type  3   force =     0.00000000    0.00000000    0.00000000
     The non-local contrib.  to forces
     atom    1 type  1   force =     0.00000000    0.00000000    0.00000000
     atom    2 type  2   force =     0.00000000    0.00000000    0.00000000
     atom    3 type  3   force =     0.00000000    0.00000000    0.00000000
     atom    4 type  3   force =     0.00000000    0.00000000    0.00000000
     atom    5 type  3   force =     0.00000000    0.00000000    0.00000000
     The ionic contribution  to forces
     atom    1 type  1   force =    -0.00000000   -0.00000000   -0.00000000
     atom    2 type  2   force =     0.00000000    0.00000000    0.00000000
     atom    3 type  3   force =     0.00000000   -0.00000000   -0.00000000
     atom    4 type  3   force =    -0.00000000    0.00000000   -0.00000000
     atom    5 type  3   force =    -0.00000000   -0.00000000    0.00000000
     The local contribution  to forces
     atom    1 type  1   force =    -0.00000000   -0.00000000    0.00000000
     atom    2 type  2   force =     0.00000000    0.00000000    0.00000000
     atom    3 type  3   force =    -0.00000000    0.00000000    0.00000000
     atom    4 type  3   force =     0.00000000   -0.00000000   -0.00000000
     atom    5 type  3   force =    -0.00000000    0.00000000   -0.00000000
     The core correction contribution to forces
     atom    1 type  1   force =     0.00000000    0.00000000    0.00000000
     atom    2 type  2   force =    -0.00000000   -0.00000000   -0.00000000
     atom    3 type  3   force =    -0.00000000    0.00000000    0.00000000
     atom    4 type  3   force =    -0.00000000   -0.00000000   -0.00000000
     atom    5 type  3   force =     0.00000000    0.00000000   -0.00000000
     The Hubbard contrib.    to forces
     atom    1 type  1   force =     0.00000000    0.00000000    0.00000000
     atom    2 type  2   force =     0.00000000    0.00000000    0.00000000
     atom    3 type  3   force =     0.00000000    0.00000000    0.00000000
     atom    4 type  3   force =     0.00000000    0.00000000    0.00000000
     atom    5 type  3   force =     0.00000000    0.00000000    0.00000000
     The SCF correction term to forces
     atom    1 type  1   force =     0.00000000   -0.00000000    0.00000000
     atom    2 type  2   force =    -0.00000000    0.00000000    0.00000000
     atom    3 type  3   force =    -0.00000000    0.00000000   -0.00000000
     atom    4 type  3   force =     0.00000000   -0.00000000   -0.00000000
     atom    5 type  3   force =     0.00000000   -0.00000000   -0.00000000

     Total force =     0.000000     Total SCF correction =     0.000000


     Computing stress (Cartesian axis) and pressure

          total   stress  (Ry/bohr**3)                   (kbar)     P=        1.70
   0.00001158   0.00000000   0.00000000            1.70        0.00        0.00
   0.00000000   0.00001158   0.00000000            0.00        1.70        0.00
   0.00000000   0.00000000   0.00001158            0.00        0.00        1.70

     kinetic stress (kbar)   7635.92      0.00      0.00
                                0.00   7635.92      0.00
                                0.00      0.00   7635.92

     local   stress (kbar)  -4681.15     -0.00      0.00
                               -0.00  -4681.15      0.00
                                0.00      0.00  -4681.15

     nonloc. stress (kbar)    -25.10      0.00      0.00
                                0.00    -25.10      0.00
                                0.00      0.00    -25.10

     hartree stress (kbar)   4708.44     -0.00     -0.00
                               -0.00   4708.44     -0.00
                               -0.00     -0.00   4708.44

     exc-cor stress (kbar)    450.65      0.00     -0.00
                                0.00    450.65     -0.00
                               -0.00     -0.00    450.65

     corecor stress (kbar)  -2214.10      0.00     -0.00
                                0.00  -2214.10      0.00
                               -0.00      0.00  -2214.10

     ewald   stress (kbar)  -5872.95      0.00     -0.00
                                0.00  -5872.95     -0.00
                               -0.00     -0.00  -5872.95

     hubbard stress (kbar)      0.00      0.00      0.00
                                0.00      0.00      0.00
                                0.00      0.00      0.00

     DFT-D   stress (kbar)      0.00      0.00      0.00
                                0.00      0.00      0.00
                                0.00      0.00      0.00

     XDM     stress (kbar)      0.00      0.00      0.00
                                0.00      0.00      0.00
                                0.00      0.00      0.00

     dft-nl  stress (kbar)      0.00      0.00      0.00
                                0.00      0.00      0.00
                                0.00      0.00      0.00

     TS-vdW  stress (kbar)      0.00      0.00      0.00
                                0.00      0.00      0.00
                                0.00      0.00      0.00

     MDB     stress (kbar)      0.00      0.00      0.00
                                0.00      0.00      0.00
                                0.00      0.00      0.00

     3D-RISM stress (kbar)      0.00      0.00      0.00
                                0.00      0.00      0.00
                                0.00      0.00      0.00


     Writing all to output data dir ./tmp/rbfebr3.save/ :
     XML data file, charge density, pseudopotentials, collected wavefunctions

     init_run     :     20.78s CPU     19.34s WALL (       2 calls)
     electrons    :   3490.20s CPU   3235.28s WALL (       8 calls)
     update_pot   :      3.36s CPU      3.37s WALL (       6 calls)
     forces       :     18.63s CPU     18.03s WALL (       8 calls)
     stress       :     97.12s CPU     88.16s WALL (       8 calls)

     Called by init_run:
     wfcinit      :     12.29s CPU     10.73s WALL (       2 calls)
     wfcinit:atom :      0.20s CPU      0.13s WALL (      18 calls)
     wfcinit:wfcr :     10.95s CPU      9.89s WALL (      18 calls)
     potinit      :      2.05s CPU      2.19s WALL (       2 calls)
     hinit0       :      2.87s CPU      2.91s WALL (       2 calls)

     Called by electrons:
     c_bands      :   2656.78s CPU   2465.09s WALL (     179 calls)
     sum_band     :    573.43s CPU    491.11s WALL (     179 calls)
     v_of_rho     :     60.43s CPU     62.02s WALL (     186 calls)
     v_h          :      3.74s CPU      3.93s WALL (     186 calls)
     v_xc         :     61.05s CPU     62.82s WALL (     202 calls)
     newd         :    161.42s CPU    181.52s WALL (     186 calls)
     PAW_pot      :     27.22s CPU     27.20s WALL (     192 calls)
     mix_rho      :      7.70s CPU      6.92s WALL (     179 calls)

     Called by c_bands:
     init_us_2    :     43.44s CPU     33.74s WALL (    3438 calls)
     cegterg      :   2093.90s CPU   1953.48s WALL (    1611 calls)

     Called by sum_band:
     sum_band:wei :      1.98s CPU      1.36s WALL (     179 calls)
     sum_band:loo :    342.64s CPU    261.32s WALL (     179 calls)
     sum_band:buf :      2.91s CPU      2.11s WALL (    1611 calls)
     sum_band:ini :     20.71s CPU     14.78s WALL (    1611 calls)
     sum_band:cal :     18.10s CPU     10.16s WALL (    1665 calls)
     sum_band:bec :      0.12s CPU      0.09s WALL (    1665 calls)
     addusdens    :    197.57s CPU    202.94s WALL (     179 calls)
                                        0.00s GPU  (     179 calls)
     addusd:skk   :      0.27s CPU      0.76s WALL (     537 calls)
                                        0.00s GPU  (     537 calls)

     Called by *egterg:
     cdiaghg      :    150.43s CPU    153.55s WALL (    4586 calls)
     cegterg:over :    216.38s CPU    158.05s WALL (    3038 calls)
     cegterg:upda :     54.25s CPU     45.62s WALL (    3038 calls)
     cegterg:last :     61.83s CPU     40.99s WALL (    2375 calls)
     h_psi        :   1274.88s CPU   1304.36s WALL (    4667 calls)
     s_psi        :     60.35s CPU     43.11s WALL (    4667 calls)
     g_psi        :      6.55s CPU      3.57s WALL (    3038 calls)

     Called by h_psi:
     h_psi:calbec :    119.63s CPU    153.59s WALL (    4667 calls)
     vloc_psi     :   1058.83s CPU   1061.74s WALL (    4667 calls)
     add_vuspsi   :     91.34s CPU     85.53s WALL (    4667 calls)

     General routines
     calbec       :    143.50s CPU    167.40s WALL (    6692 calls)
     fft          :     45.36s CPU     46.49s WALL (    2609 calls)
     ffts         :      2.81s CPU      2.49s WALL (     365 calls)
     fftw         :   1080.09s CPU   1043.39s WALL (  248390 calls)
     interpolate  :      5.87s CPU      6.10s WALL (     186 calls)

     Parallel routines

     PAW routines
     PAW_pot      :     27.22s CPU     27.20s WALL (     192 calls)
     PAW_symme    :      0.35s CPU      0.29s WALL (     371 calls)

     PWSCF        :      1h 0m CPU  56m12.83s WALL


   This run was terminated on:  22:16:12   1May2025            

=------------------------------------------------------------------------------=
   JOB DONE.
=------------------------------------------------------------------------------=
