
     Program PWSCF v.7.3.1 starts on  1May2025 at 22:18:27 

     This program is part of the open-source Quantum ESPRESSO suite
     for quantum simulation of materials; please cite
         "P. Giannozzi et al., J. Phys.:Condens. Matter 21 395502 (2009);
         "P. Giannozzi et al., J. Phys.:Condens. Matter 29 465901 (2017);
         "P. Giannozzi et al., J. Chem. Phys. 152 154105 (2020);
          URL http://www.quantum-espresso.org", 
     in publications or presentations arising from this work. More details at
     http://www.quantum-espresso.org/quote

     Parallel version (MPI), running on     8 processors

     MPI processes distributed on     1 nodes
     46755 MiB available memory on the printing compute node when the environment starts

     Waiting for input...
     Reading input from standard input

     Current dimensions of program PWSCF are:
     Max number of different atomic species (ntypx) = 10
     Max number of k-points (npk) = 120000
     Max angular momentum in pseudopotentials (lmaxx) =  4
     file Rb.pbe-spn-kjpaw_psl.1.0.0.UPF: wavefunction(s)  4S renormalized
     file Fe.pbe-spn-kjpaw_psl.1.0.0.UPF: wavefunction(s)  3P 3D renormalized
     file Br.pbe-n-kjpaw_psl.1.0.0.UPF: wavefunction(s)  4S 4P renormalized

     IMPORTANT: XC functional enforced from input :
     Exchange-correlation= PBE
                           (   1   4   3   4   0   0   0)
     Any further DFT definition will be discarded
     Please, verify this is what you really want

     Message from routine setup:
     using ibrav=0 with symmetry is DISCOURAGED, use correct ibrav instead

     K-points division:     npool     =       4
     R & G space division:  proc/nbgrp/npool/nimage =       2
     Subspace diagonalization in iterative solution of the eigenvalue problem:
     a serial algorithm will be used


     Parallelization info
     --------------------
     sticks:   dense  smooth     PW     G-vecs:    dense   smooth      PW
     Min        3454    1728    474               215988    76356   11070
     Max        3455    1729    475               215989    76359   11073
     Sum        6909    3457    949               431977   152715   22143

     Using Slab Decomposition



     bravais-lattice index     =            0
     lattice parameter (alat)  =      11.6460  a.u.
     unit-cell volume          =    1579.5231 (a.u.)^3
     number of atoms/cell      =            5
     number of atomic types    =            3
     number of electrons       =        46.00
     number of Kohn-Sham states=           28
     kinetic-energy cutoff     =      80.0000  Ry
     charge density cutoff     =     640.0000  Ry
     scf convergence threshold =      1.0E-08
     mixing beta               =       0.4000
     number of iterations used =            8  plain     mixing
     Exchange-correlation= PBE
                           (   1   4   3   4   0   0   0)

     celldm(1)=  11.645961  celldm(2)=   0.000000  celldm(3)=   0.000000
     celldm(4)=   0.000000  celldm(5)=   0.000000  celldm(6)=   0.000000

     crystal axes: (cart. coord. in units of alat)
               a(1) = (   1.000000   0.000000   0.000000 )  
               a(2) = (   0.000000   1.000000   0.000000 )  
               a(3) = (   0.000000   0.000000   1.000000 )  

     reciprocal axes: (cart. coord. in units 2 pi/alat)
               b(1) = (  1.000000  0.000000  0.000000 )  
               b(2) = (  0.000000  1.000000  0.000000 )  
               b(3) = (  0.000000  0.000000  1.000000 )  


     PseudoPot. # 1 for Rb read from file:
     /home/administrator/Downloads/BURAI/BURAI1.3/pseudopot/Rb.pbe-spn-kjpaw_psl.1.0.0.UPF
     MD5 check sum: 2771e311bc20ea25cdd5c0a9866b789c
     Pseudo is Projector augmented-wave + core cor, Zval =  9.0
     Generated using "atomic" code by A. Dal Corso  v.5.1.2
     Shape of augmentation charge: PSQ
     Using radial grid of 1219 points,  6 beta functions with: 
                l(1) =   0
                l(2) =   0
                l(3) =   1
                l(4) =   1
                l(5) =   2
                l(6) =   2
     Q(r) pseudized with 0 coefficients 


     PseudoPot. # 2 for Fe read from file:
     /home/administrator/Downloads/BURAI/BURAI1.3/pseudopot/Fe.pbe-spn-kjpaw_psl.1.0.0.UPF
     MD5 check sum: 04029f3f376fc501f927dd43ca5e13d6
     Pseudo is Projector augmented-wave + core cor, Zval = 16.0
     Generated using "atomic" code by A. Dal Corso  v.5.1.2
     Shape of augmentation charge: PSQ
     Using radial grid of 1191 points,  6 beta functions with: 
                l(1) =   0
                l(2) =   0
                l(3) =   1
                l(4) =   1
                l(5) =   2
                l(6) =   2
     Q(r) pseudized with 0 coefficients 


     PseudoPot. # 3 for Br read from file:
     /home/administrator/Downloads/BURAI/BURAI1.3/pseudopot/Br.pbe-n-kjpaw_psl.1.0.0.UPF
     MD5 check sum: 4e719ecb11afb5eb9a83625d9f5c08f4
     Pseudo is Projector augmented-wave + core cor, Zval =  7.0
     Generated using "atomic" code by A. Dal Corso  v.5.1.2
     Shape of augmentation charge: PSQ
     Using radial grid of 1213 points,  4 beta functions with: 
                l(1) =   0
                l(2) =   0
                l(3) =   1
                l(4) =   1
     Q(r) pseudized with 0 coefficients 


     atomic species   valence    mass     pseudopotential
     Rb                9.00    85.46780     Rb( 1.00)
     Fe               16.00    55.84500     Fe( 1.00)
     Br                7.00    79.90400     Br( 1.00)

     48 Sym. Ops., with inversion, found


                                    s                        frac. trans.

      isym =  1     identity                                     

 cryst.   s( 1) = (     1          0          0      )
                  (     0          1          0      )
                  (     0          0          1      )

 cart.    s( 1) = (  1.0000000  0.0000000  0.0000000 )
                  (  0.0000000  1.0000000  0.0000000 )
                  (  0.0000000  0.0000000  1.0000000 )


      isym =  2     180 deg rotation - cart. axis [0,0,1]        

 cryst.   s( 2) = (    -1          0          0      )
                  (     0         -1          0      )
                  (     0          0          1      )

 cart.    s( 2) = ( -1.0000000  0.0000000  0.0000000 )
                  (  0.0000000 -1.0000000  0.0000000 )
                  (  0.0000000  0.0000000  1.0000000 )


      isym =  3     180 deg rotation - cart. axis [0,1,0]        

 cryst.   s( 3) = (    -1          0          0      )
                  (     0          1          0      )
                  (     0          0         -1      )

 cart.    s( 3) = ( -1.0000000  0.0000000  0.0000000 )
                  (  0.0000000  1.0000000  0.0000000 )
                  (  0.0000000  0.0000000 -1.0000000 )


      isym =  4     180 deg rotation - cart. axis [1,0,0]        

 cryst.   s( 4) = (     1          0          0      )
                  (     0         -1          0      )
                  (     0          0         -1      )

 cart.    s( 4) = (  1.0000000  0.0000000  0.0000000 )
                  (  0.0000000 -1.0000000  0.0000000 )
                  (  0.0000000  0.0000000 -1.0000000 )


      isym =  5     180 deg rotation - cart. axis [1,1,0]        

 cryst.   s( 5) = (     0          1          0      )
                  (     1          0          0      )
                  (     0          0         -1      )

 cart.    s( 5) = (  0.0000000  1.0000000  0.0000000 )
                  (  1.0000000  0.0000000  0.0000000 )
                  (  0.0000000  0.0000000 -1.0000000 )


      isym =  6     180 deg rotation - cart. axis [1,-1,0]       

 cryst.   s( 6) = (     0         -1          0      )
                  (    -1          0          0      )
                  (     0          0         -1      )

 cart.    s( 6) = (  0.0000000 -1.0000000  0.0000000 )
                  ( -1.0000000  0.0000000  0.0000000 )
                  (  0.0000000  0.0000000 -1.0000000 )


      isym =  7      90 deg rotation - cart. axis [0,0,-1]       

 cryst.   s( 7) = (     0         -1          0      )
                  (     1          0          0      )
                  (     0          0          1      )

 cart.    s( 7) = (  0.0000000  1.0000000  0.0000000 )
                  ( -1.0000000  0.0000000  0.0000000 )
                  (  0.0000000  0.0000000  1.0000000 )


      isym =  8      90 deg rotation - cart. axis [0,0,1]        

 cryst.   s( 8) = (     0          1          0      )
                  (    -1          0          0      )
                  (     0          0          1      )

 cart.    s( 8) = (  0.0000000 -1.0000000  0.0000000 )
                  (  1.0000000  0.0000000  0.0000000 )
                  (  0.0000000  0.0000000  1.0000000 )


      isym =  9     180 deg rotation - cart. axis [1,0,1]        

 cryst.   s( 9) = (     0          0          1      )
                  (     0         -1          0      )
                  (     1          0          0      )

 cart.    s( 9) = (  0.0000000  0.0000000  1.0000000 )
                  (  0.0000000 -1.0000000  0.0000000 )
                  (  1.0000000  0.0000000  0.0000000 )


      isym = 10     180 deg rotation - cart. axis [-1,0,1]       

 cryst.   s(10) = (     0          0         -1      )
                  (     0         -1          0      )
                  (    -1          0          0      )

 cart.    s(10) = (  0.0000000  0.0000000 -1.0000000 )
                  (  0.0000000 -1.0000000  0.0000000 )
                  ( -1.0000000  0.0000000  0.0000000 )


      isym = 11      90 deg rotation - cart. axis [0,1,0]        

 cryst.   s(11) = (     0          0         -1      )
                  (     0          1          0      )
                  (     1          0          0      )

 cart.    s(11) = (  0.0000000  0.0000000  1.0000000 )
                  (  0.0000000  1.0000000  0.0000000 )
                  ( -1.0000000  0.0000000  0.0000000 )


      isym = 12      90 deg rotation - cart. axis [0,-1,0]       

 cryst.   s(12) = (     0          0          1      )
                  (     0          1          0      )
                  (    -1          0          0      )

 cart.    s(12) = (  0.0000000  0.0000000 -1.0000000 )
                  (  0.0000000  1.0000000  0.0000000 )
                  (  1.0000000  0.0000000  0.0000000 )


      isym = 13     180 deg rotation - cart. axis [0,1,1]        

 cryst.   s(13) = (    -1          0          0      )
                  (     0          0          1      )
                  (     0          1          0      )

 cart.    s(13) = ( -1.0000000  0.0000000  0.0000000 )
                  (  0.0000000  0.0000000  1.0000000 )
                  (  0.0000000  1.0000000  0.0000000 )


      isym = 14     180 deg rotation - cart. axis [0,1,-1]       

 cryst.   s(14) = (    -1          0          0      )
                  (     0          0         -1      )
                  (     0         -1          0      )

 cart.    s(14) = ( -1.0000000  0.0000000  0.0000000 )
                  (  0.0000000  0.0000000 -1.0000000 )
                  (  0.0000000 -1.0000000  0.0000000 )


      isym = 15      90 deg rotation - cart. axis [-1,0,0]       

 cryst.   s(15) = (     1          0          0      )
                  (     0          0         -1      )
                  (     0          1          0      )

 cart.    s(15) = (  1.0000000  0.0000000  0.0000000 )
                  (  0.0000000  0.0000000  1.0000000 )
                  (  0.0000000 -1.0000000  0.0000000 )


      isym = 16      90 deg rotation - cart. axis [1,0,0]        

 cryst.   s(16) = (     1          0          0      )
                  (     0          0          1      )
                  (     0         -1          0      )

 cart.    s(16) = (  1.0000000  0.0000000  0.0000000 )
                  (  0.0000000  0.0000000 -1.0000000 )
                  (  0.0000000  1.0000000  0.0000000 )


      isym = 17     120 deg rotation - cart. axis [-1,-1,-1]     

 cryst.   s(17) = (     0          0          1      )
                  (     1          0          0      )
                  (     0          1          0      )

 cart.    s(17) = (  0.0000000  1.0000000  0.0000000 )
                  (  0.0000000  0.0000000  1.0000000 )
                  (  1.0000000  0.0000000  0.0000000 )


      isym = 18     120 deg rotation - cart. axis [-1,1,1]       

 cryst.   s(18) = (     0          0         -1      )
                  (    -1          0          0      )
                  (     0          1          0      )

 cart.    s(18) = (  0.0000000 -1.0000000  0.0000000 )
                  (  0.0000000  0.0000000  1.0000000 )
                  ( -1.0000000  0.0000000  0.0000000 )


      isym = 19     120 deg rotation - cart. axis [1,1,-1]       

 cryst.   s(19) = (     0          0         -1      )
                  (     1          0          0      )
                  (     0         -1          0      )

 cart.    s(19) = (  0.0000000  1.0000000  0.0000000 )
                  (  0.0000000  0.0000000 -1.0000000 )
                  ( -1.0000000  0.0000000  0.0000000 )


      isym = 20     120 deg rotation - cart. axis [1,-1,1]       

 cryst.   s(20) = (     0          0          1      )
                  (    -1          0          0      )
                  (     0         -1          0      )

 cart.    s(20) = (  0.0000000 -1.0000000  0.0000000 )
                  (  0.0000000  0.0000000 -1.0000000 )
                  (  1.0000000  0.0000000  0.0000000 )


      isym = 21     120 deg rotation - cart. axis [1,1,1]        

 cryst.   s(21) = (     0          1          0      )
                  (     0          0          1      )
                  (     1          0          0      )

 cart.    s(21) = (  0.0000000  0.0000000  1.0000000 )
                  (  1.0000000  0.0000000  0.0000000 )
                  (  0.0000000  1.0000000  0.0000000 )


      isym = 22     120 deg rotation - cart. axis [-1,1,-1]      

 cryst.   s(22) = (     0         -1          0      )
                  (     0          0         -1      )
                  (     1          0          0      )

 cart.    s(22) = (  0.0000000  0.0000000  1.0000000 )
                  ( -1.0000000  0.0000000  0.0000000 )
                  (  0.0000000 -1.0000000  0.0000000 )


      isym = 23     120 deg rotation - cart. axis [1,-1,-1]      

 cryst.   s(23) = (     0         -1          0      )
                  (     0          0          1      )
                  (    -1          0          0      )

 cart.    s(23) = (  0.0000000  0.0000000 -1.0000000 )
                  ( -1.0000000  0.0000000  0.0000000 )
                  (  0.0000000  1.0000000  0.0000000 )


      isym = 24     120 deg rotation - cart. axis [-1,-1,1]      

 cryst.   s(24) = (     0          1          0      )
                  (     0          0         -1      )
                  (    -1          0          0      )

 cart.    s(24) = (  0.0000000  0.0000000 -1.0000000 )
                  (  1.0000000  0.0000000  0.0000000 )
                  (  0.0000000 -1.0000000  0.0000000 )


      isym = 25     inversion                                    

 cryst.   s(25) = (    -1          0          0      )
                  (     0         -1          0      )
                  (     0          0         -1      )

 cart.    s(25) = ( -1.0000000  0.0000000  0.0000000 )
                  (  0.0000000 -1.0000000  0.0000000 )
                  (  0.0000000  0.0000000 -1.0000000 )


      isym = 26     inv. 180 deg rotation - cart. axis [0,0,1]   

 cryst.   s(26) = (     1          0          0      )
                  (     0          1          0      )
                  (     0          0         -1      )

 cart.    s(26) = (  1.0000000  0.0000000  0.0000000 )
                  (  0.0000000  1.0000000  0.0000000 )
                  (  0.0000000  0.0000000 -1.0000000 )


      isym = 27     inv. 180 deg rotation - cart. axis [0,1,0]   

 cryst.   s(27) = (     1          0          0      )
                  (     0         -1          0      )
                  (     0          0          1      )

 cart.    s(27) = (  1.0000000  0.0000000  0.0000000 )
                  (  0.0000000 -1.0000000  0.0000000 )
                  (  0.0000000  0.0000000  1.0000000 )


      isym = 28     inv. 180 deg rotation - cart. axis [1,0,0]   

 cryst.   s(28) = (    -1          0          0      )
                  (     0          1          0      )
                  (     0          0          1      )

 cart.    s(28) = ( -1.0000000  0.0000000  0.0000000 )
                  (  0.0000000  1.0000000  0.0000000 )
                  (  0.0000000  0.0000000  1.0000000 )


      isym = 29     inv. 180 deg rotation - cart. axis [1,1,0]   

 cryst.   s(29) = (     0         -1          0      )
                  (    -1          0          0      )
                  (     0          0          1      )

 cart.    s(29) = (  0.0000000 -1.0000000  0.0000000 )
                  ( -1.0000000  0.0000000  0.0000000 )
                  (  0.0000000  0.0000000  1.0000000 )


      isym = 30     inv. 180 deg rotation - cart. axis [1,-1,0]  

 cryst.   s(30) = (     0          1          0      )
                  (     1          0          0      )
                  (     0          0          1      )

 cart.    s(30) = (  0.0000000  1.0000000  0.0000000 )
                  (  1.0000000  0.0000000  0.0000000 )
                  (  0.0000000  0.0000000  1.0000000 )


      isym = 31     inv.  90 deg rotation - cart. axis [0,0,-1]  

 cryst.   s(31) = (     0          1          0      )
                  (    -1          0          0      )
                  (     0          0         -1      )

 cart.    s(31) = (  0.0000000 -1.0000000  0.0000000 )
                  (  1.0000000  0.0000000  0.0000000 )
                  (  0.0000000  0.0000000 -1.0000000 )


      isym = 32     inv.  90 deg rotation - cart. axis [0,0,1]   

 cryst.   s(32) = (     0         -1          0      )
                  (     1          0          0      )
                  (     0          0         -1      )

 cart.    s(32) = (  0.0000000  1.0000000  0.0000000 )
                  ( -1.0000000  0.0000000  0.0000000 )
                  (  0.0000000  0.0000000 -1.0000000 )


      isym = 33     inv. 180 deg rotation - cart. axis [1,0,1]   

 cryst.   s(33) = (     0          0         -1      )
                  (     0          1          0      )
                  (    -1          0          0      )

 cart.    s(33) = (  0.0000000  0.0000000 -1.0000000 )
                  (  0.0000000  1.0000000  0.0000000 )
                  ( -1.0000000  0.0000000  0.0000000 )


      isym = 34     inv. 180 deg rotation - cart. axis [-1,0,1]  

 cryst.   s(34) = (     0          0          1      )
                  (     0          1          0      )
                  (     1          0          0      )

 cart.    s(34) = (  0.0000000  0.0000000  1.0000000 )
                  (  0.0000000  1.0000000  0.0000000 )
                  (  1.0000000  0.0000000  0.0000000 )


      isym = 35     inv.  90 deg rotation - cart. axis [0,1,0]   

 cryst.   s(35) = (     0          0          1      )
                  (     0         -1          0      )
                  (    -1          0          0      )

 cart.    s(35) = (  0.0000000  0.0000000 -1.0000000 )
                  (  0.0000000 -1.0000000  0.0000000 )
                  (  1.0000000  0.0000000  0.0000000 )


      isym = 36     inv.  90 deg rotation - cart. axis [0,-1,0]  

 cryst.   s(36) = (     0          0         -1      )
                  (     0         -1          0      )
                  (     1          0          0      )

 cart.    s(36) = (  0.0000000  0.0000000  1.0000000 )
                  (  0.0000000 -1.0000000  0.0000000 )
                  ( -1.0000000  0.0000000  0.0000000 )


      isym = 37     inv. 180 deg rotation - cart. axis [0,1,1]   

 cryst.   s(37) = (     1          0          0      )
                  (     0          0         -1      )
                  (     0         -1          0      )

 cart.    s(37) = (  1.0000000  0.0000000  0.0000000 )
                  (  0.0000000  0.0000000 -1.0000000 )
                  (  0.0000000 -1.0000000  0.0000000 )


      isym = 38     inv. 180 deg rotation - cart. axis [0,1,-1]  

 cryst.   s(38) = (     1          0          0      )
                  (     0          0          1      )
                  (     0          1          0      )

 cart.    s(38) = (  1.0000000  0.0000000  0.0000000 )
                  (  0.0000000  0.0000000  1.0000000 )
                  (  0.0000000  1.0000000  0.0000000 )


      isym = 39     inv.  90 deg rotation - cart. axis [-1,0,0]  

 cryst.   s(39) = (    -1          0          0      )
                  (     0          0          1      )
                  (     0         -1          0      )

 cart.    s(39) = ( -1.0000000  0.0000000  0.0000000 )
                  (  0.0000000  0.0000000 -1.0000000 )
                  (  0.0000000  1.0000000  0.0000000 )


      isym = 40     inv.  90 deg rotation - cart. axis [1,0,0]   

 cryst.   s(40) = (    -1          0          0      )
                  (     0          0         -1      )
                  (     0          1          0      )

 cart.    s(40) = ( -1.0000000  0.0000000  0.0000000 )
                  (  0.0000000  0.0000000  1.0000000 )
                  (  0.0000000 -1.0000000  0.0000000 )


      isym = 41     inv. 120 deg rotation - cart. axis [-1,-1,-1]

 cryst.   s(41) = (     0          0         -1      )
                  (    -1          0          0      )
                  (     0         -1          0      )

 cart.    s(41) = (  0.0000000 -1.0000000  0.0000000 )
                  (  0.0000000  0.0000000 -1.0000000 )
                  ( -1.0000000  0.0000000  0.0000000 )


      isym = 42     inv. 120 deg rotation - cart. axis [-1,1,1]  

 cryst.   s(42) = (     0          0          1      )
                  (     1          0          0      )
                  (     0         -1          0      )

 cart.    s(42) = (  0.0000000  1.0000000  0.0000000 )
                  (  0.0000000  0.0000000 -1.0000000 )
                  (  1.0000000  0.0000000  0.0000000 )


      isym = 43     inv. 120 deg rotation - cart. axis [1,1,-1]  

 cryst.   s(43) = (     0          0          1      )
                  (    -1          0          0      )
                  (     0          1          0      )

 cart.    s(43) = (  0.0000000 -1.0000000  0.0000000 )
                  (  0.0000000  0.0000000  1.0000000 )
                  (  1.0000000  0.0000000  0.0000000 )


      isym = 44     inv. 120 deg rotation - cart. axis [1,-1,1]  

 cryst.   s(44) = (     0          0         -1      )
                  (     1          0          0      )
                  (     0          1          0      )

 cart.    s(44) = (  0.0000000  1.0000000  0.0000000 )
                  (  0.0000000  0.0000000  1.0000000 )
                  ( -1.0000000  0.0000000  0.0000000 )


      isym = 45     inv. 120 deg rotation - cart. axis [1,1,1]   

 cryst.   s(45) = (     0         -1          0      )
                  (     0          0         -1      )
                  (    -1          0          0      )

 cart.    s(45) = (  0.0000000  0.0000000 -1.0000000 )
                  ( -1.0000000  0.0000000  0.0000000 )
                  (  0.0000000 -1.0000000  0.0000000 )


      isym = 46     inv. 120 deg rotation - cart. axis [-1,1,-1] 

 cryst.   s(46) = (     0          1          0      )
                  (     0          0          1      )
                  (    -1          0          0      )

 cart.    s(46) = (  0.0000000  0.0000000 -1.0000000 )
                  (  1.0000000  0.0000000  0.0000000 )
                  (  0.0000000  1.0000000  0.0000000 )


      isym = 47     inv. 120 deg rotation - cart. axis [1,-1,-1] 

 cryst.   s(47) = (     0          1          0      )
                  (     0          0         -1      )
                  (     1          0          0      )

 cart.    s(47) = (  0.0000000  0.0000000  1.0000000 )
                  (  1.0000000  0.0000000  0.0000000 )
                  (  0.0000000 -1.0000000  0.0000000 )


      isym = 48     inv. 120 deg rotation - cart. axis [-1,-1,1] 

 cryst.   s(48) = (     0         -1          0      )
                  (     0          0          1      )
                  (     1          0          0      )

 cart.    s(48) = (  0.0000000  0.0000000  1.0000000 )
                  ( -1.0000000  0.0000000  0.0000000 )
                  (  0.0000000  1.0000000  0.0000000 )


   Cartesian axes

     site n.     atom                  positions (alat units)
         1        Rb     tau(   1) = (   0.0000000   0.0000000   0.0000000  )
         2        Fe     tau(   2) = (   0.5000000   0.5000000   0.5000000  )
         3        Br     tau(   3) = (   0.5000000   0.0000000   0.0000000  )
         4        Br     tau(   4) = (   0.0000000   0.5000000   0.0000000  )
         5        Br     tau(   5) = (   0.0000000   0.0000000   0.5000000  )

   Crystallographic axes

     site n.     atom                  positions (cryst. coord.)
         1        Rb     tau(   1) = (  0.0000000  0.0000000  0.0000000  )
         2        Fe     tau(   2) = (  0.5000000  0.5000000  0.5000000  )
         3        Br     tau(   3) = (  0.5000000  0.0000000  0.0000000  )
         4        Br     tau(   4) = (  0.0000000  0.5000000  0.0000000  )
         5        Br     tau(   5) = (  0.0000000  0.0000000  0.5000000  )

     number of k points=    35  Gaussian smearing, width (Ry)=  0.0050
                       cart. coord. in units 2pi/alat
        k(    1) = (   0.0000000   0.0000000   0.0000000), wk =   0.0039062
        k(    2) = (   0.0000000   0.0000000   0.1250000), wk =   0.0234375
        k(    3) = (   0.0000000   0.0000000   0.2500000), wk =   0.0234375
        k(    4) = (   0.0000000   0.0000000   0.3750000), wk =   0.0234375
        k(    5) = (   0.0000000   0.0000000  -0.5000000), wk =   0.0117188
        k(    6) = (   0.0000000   0.1250000   0.1250000), wk =   0.0468750
        k(    7) = (   0.0000000   0.1250000   0.2500000), wk =   0.0937500
        k(    8) = (   0.0000000   0.1250000   0.3750000), wk =   0.0937500
        k(    9) = (   0.0000000   0.1250000  -0.5000000), wk =   0.0468750
        k(   10) = (   0.0000000   0.2500000   0.2500000), wk =   0.0468750
        k(   11) = (   0.0000000   0.2500000   0.3750000), wk =   0.0937500
        k(   12) = (   0.0000000   0.2500000  -0.5000000), wk =   0.0468750
        k(   13) = (   0.0000000   0.3750000   0.3750000), wk =   0.0468750
        k(   14) = (   0.0000000   0.3750000  -0.5000000), wk =   0.0468750
        k(   15) = (   0.0000000  -0.5000000  -0.5000000), wk =   0.0117188
        k(   16) = (   0.1250000   0.1250000   0.1250000), wk =   0.0312500
        k(   17) = (   0.1250000   0.1250000   0.2500000), wk =   0.0937500
        k(   18) = (   0.1250000   0.1250000   0.3750000), wk =   0.0937500
        k(   19) = (   0.1250000   0.1250000  -0.5000000), wk =   0.0468750
        k(   20) = (   0.1250000   0.2500000   0.2500000), wk =   0.0937500
        k(   21) = (   0.1250000   0.2500000   0.3750000), wk =   0.1875000
        k(   22) = (   0.1250000   0.2500000  -0.5000000), wk =   0.0937500
        k(   23) = (   0.1250000   0.3750000   0.3750000), wk =   0.0937500
        k(   24) = (   0.1250000   0.3750000  -0.5000000), wk =   0.0937500
        k(   25) = (   0.1250000  -0.5000000  -0.5000000), wk =   0.0234375
        k(   26) = (   0.2500000   0.2500000   0.2500000), wk =   0.0312500
        k(   27) = (   0.2500000   0.2500000   0.3750000), wk =   0.0937500
        k(   28) = (   0.2500000   0.2500000  -0.5000000), wk =   0.0468750
        k(   29) = (   0.2500000   0.3750000   0.3750000), wk =   0.0937500
        k(   30) = (   0.2500000   0.3750000  -0.5000000), wk =   0.0937500
        k(   31) = (   0.2500000  -0.5000000  -0.5000000), wk =   0.0234375
        k(   32) = (   0.3750000   0.3750000   0.3750000), wk =   0.0312500
        k(   33) = (   0.3750000   0.3750000  -0.5000000), wk =   0.0468750
        k(   34) = (   0.3750000  -0.5000000  -0.5000000), wk =   0.0234375
        k(   35) = (  -0.5000000  -0.5000000  -0.5000000), wk =   0.0039062

                       cryst. coord.
        k(    1) = (   0.0000000   0.0000000   0.0000000), wk =   0.0039062
        k(    2) = (   0.0000000   0.0000000   0.1250000), wk =   0.0234375
        k(    3) = (   0.0000000   0.0000000   0.2500000), wk =   0.0234375
        k(    4) = (   0.0000000   0.0000000   0.3750000), wk =   0.0234375
        k(    5) = (   0.0000000   0.0000000  -0.5000000), wk =   0.0117188
        k(    6) = (   0.0000000   0.1250000   0.1250000), wk =   0.0468750
        k(    7) = (   0.0000000   0.1250000   0.2500000), wk =   0.0937500
        k(    8) = (   0.0000000   0.1250000   0.3750000), wk =   0.0937500
        k(    9) = (   0.0000000   0.1250000  -0.5000000), wk =   0.0468750
        k(   10) = (   0.0000000   0.2500000   0.2500000), wk =   0.0468750
        k(   11) = (   0.0000000   0.2500000   0.3750000), wk =   0.0937500
        k(   12) = (   0.0000000   0.2500000  -0.5000000), wk =   0.0468750
        k(   13) = (   0.0000000   0.3750000   0.3750000), wk =   0.0468750
        k(   14) = (   0.0000000   0.3750000  -0.5000000), wk =   0.0468750
        k(   15) = (   0.0000000  -0.5000000  -0.5000000), wk =   0.0117188
        k(   16) = (   0.1250000   0.1250000   0.1250000), wk =   0.0312500
        k(   17) = (   0.1250000   0.1250000   0.2500000), wk =   0.0937500
        k(   18) = (   0.1250000   0.1250000   0.3750000), wk =   0.0937500
        k(   19) = (   0.1250000   0.1250000  -0.5000000), wk =   0.0468750
        k(   20) = (   0.1250000   0.2500000   0.2500000), wk =   0.0937500
        k(   21) = (   0.1250000   0.2500000   0.3750000), wk =   0.1875000
        k(   22) = (   0.1250000   0.2500000  -0.5000000), wk =   0.0937500
        k(   23) = (   0.1250000   0.3750000   0.3750000), wk =   0.0937500
        k(   24) = (   0.1250000   0.3750000  -0.5000000), wk =   0.0937500
        k(   25) = (   0.1250000  -0.5000000  -0.5000000), wk =   0.0234375
        k(   26) = (   0.2500000   0.2500000   0.2500000), wk =   0.0312500
        k(   27) = (   0.2500000   0.2500000   0.3750000), wk =   0.0937500
        k(   28) = (   0.2500000   0.2500000  -0.5000000), wk =   0.0468750
        k(   29) = (   0.2500000   0.3750000   0.3750000), wk =   0.0937500
        k(   30) = (   0.2500000   0.3750000  -0.5000000), wk =   0.0937500
        k(   31) = (   0.2500000  -0.5000000  -0.5000000), wk =   0.0234375
        k(   32) = (   0.3750000   0.3750000   0.3750000), wk =   0.0312500
        k(   33) = (   0.3750000   0.3750000  -0.5000000), wk =   0.0468750
        k(   34) = (   0.3750000  -0.5000000  -0.5000000), wk =   0.0234375
        k(   35) = (  -0.5000000  -0.5000000  -0.5000000), wk =   0.0039062

     Dense  grid:   431977 G-vectors     FFT dimensions: (  96,  96,  96)

     Smooth grid:   152715 G-vectors     FFT dimensions: (  72,  72,  72)

     Dynamical RAM for                 wfc:       4.08 MB

     Dynamical RAM for     wfc (w. buffer):      40.77 MB

     Dynamical RAM for           str. fact:       9.89 MB

     Dynamical RAM for           local pot:       0.00 MB

     Dynamical RAM for          nlocal pot:       8.74 MB

     Dynamical RAM for                qrad:       6.09 MB

     Dynamical RAM for          rho,v,vnew:      20.01 MB

     Dynamical RAM for               rhoin:       6.67 MB

     Dynamical RAM for            rho*nmix:      52.73 MB

     Dynamical RAM for           G-vectors:      12.94 MB

     Dynamical RAM for          h,s,v(r/c):       0.14 MB

     Dynamical RAM for          <psi|beta>:       0.03 MB

     Dynamical RAM for                 psi:       8.15 MB

     Dynamical RAM for                hpsi:       8.15 MB

     Dynamical RAM for                spsi:       8.15 MB

     Dynamical RAM for      wfcinit/wfcrot:       8.76 MB

     Dynamical RAM for           addusdens:     158.19 MB

     Estimated static dynamical RAM per process >     135.17 MB

     Estimated max dynamical RAM per process >     346.09 MB

     Estimated total dynamical RAM >       2.39 GB

     Initial potential from superposition of free atoms

     starting charge      45.9766, renormalised to      46.0000
     Starting wfcs are   30 randomized atomic wfcs
     Checking if some PAW data can be deallocated... 
       PAW data deallocated on    6 nodes for type:  1
       PAW data deallocated on    6 nodes for type:  2
       PAW data deallocated on    4 nodes for type:  3

     total cpu time spent up to now is       12.0 secs

     Self-consistent Calculation

     iteration #  1     ecut=    80.00 Ry     beta= 0.40
     Davidson diagonalization with overlap

---- Real-time Memory Report at c_bands before calling an iterative solver
           267 MiB given to the printing process from OS
             0 MiB allocation reported by mallinfo(arena+hblkhd)
         44951 MiB available memory on the node where the printing process lives
------------------
     ethr =  1.00E-02,  avg # of iterations =  4.3

     total cpu time spent up to now is       42.8 secs

     total energy              =   -1181.67399659 Ry
     estimated scf accuracy    <       0.83286920 Ry

     iteration #  2     ecut=    80.00 Ry     beta= 0.40
     Davidson diagonalization with overlap

---- Real-time Memory Report at c_bands before calling an iterative solver
           380 MiB given to the printing process from OS
             0 MiB allocation reported by mallinfo(arena+hblkhd)
         43872 MiB available memory on the node where the printing process lives
------------------
     ethr =  1.81E-03,  avg # of iterations =  2.2

     total cpu time spent up to now is       69.4 secs

     total energy              =   -1181.55112367 Ry
     estimated scf accuracy    <      13.54429974 Ry

     iteration #  3     ecut=    80.00 Ry     beta= 0.40
     Davidson diagonalization with overlap

---- Real-time Memory Report at c_bands before calling an iterative solver
           383 MiB given to the printing process from OS
             0 MiB allocation reported by mallinfo(arena+hblkhd)
         44000 MiB available memory on the node where the printing process lives
------------------
     ethr =  1.81E-03,  avg # of iterations =  2.1

     total cpu time spent up to now is       94.6 secs

     total energy              =   -1181.94514405 Ry
     estimated scf accuracy    <       0.44001824 Ry

     iteration #  4     ecut=    80.00 Ry     beta= 0.40
     Davidson diagonalization with overlap

---- Real-time Memory Report at c_bands before calling an iterative solver
           385 MiB given to the printing process from OS
             0 MiB allocation reported by mallinfo(arena+hblkhd)
         43723 MiB available memory on the node where the printing process lives
------------------
     ethr =  9.57E-04,  avg # of iterations =  1.7

     total cpu time spent up to now is      117.5 secs

     total energy              =   -1181.75069433 Ry
     estimated scf accuracy    <       4.07244743 Ry

     iteration #  5     ecut=    80.00 Ry     beta= 0.40
     Davidson diagonalization with overlap

---- Real-time Memory Report at c_bands before calling an iterative solver
           388 MiB given to the printing process from OS
             0 MiB allocation reported by mallinfo(arena+hblkhd)
         44041 MiB available memory on the node where the printing process lives
------------------
     ethr =  9.57E-04,  avg # of iterations =  2.3

     total cpu time spent up to now is      142.7 secs

     total energy              =   -1181.93993899 Ry
     estimated scf accuracy    <       0.69739932 Ry

     iteration #  6     ecut=    80.00 Ry     beta= 0.40
     Davidson diagonalization with overlap

---- Real-time Memory Report at c_bands before calling an iterative solver
           390 MiB given to the printing process from OS
             0 MiB allocation reported by mallinfo(arena+hblkhd)
         43796 MiB available memory on the node where the printing process lives
------------------
     ethr =  9.57E-04,  avg # of iterations =  1.4

     total cpu time spent up to now is      164.2 secs

     total energy              =   -1181.85525129 Ry
     estimated scf accuracy    <       2.65965031 Ry

     iteration #  7     ecut=    80.00 Ry     beta= 0.40
     Davidson diagonalization with overlap

---- Real-time Memory Report at c_bands before calling an iterative solver
           392 MiB given to the printing process from OS
             0 MiB allocation reported by mallinfo(arena+hblkhd)
         44119 MiB available memory on the node where the printing process lives
------------------
     ethr =  9.57E-04,  avg # of iterations =  1.0

     total cpu time spent up to now is      184.9 secs

     total energy              =   -1181.99433310 Ry
     estimated scf accuracy    <       0.52851657 Ry

     iteration #  8     ecut=    80.00 Ry     beta= 0.40
     Davidson diagonalization with overlap

---- Real-time Memory Report at c_bands before calling an iterative solver
           394 MiB given to the printing process from OS
             0 MiB allocation reported by mallinfo(arena+hblkhd)
         43980 MiB available memory on the node where the printing process lives
------------------
     ethr =  9.57E-04,  avg # of iterations =  1.0

     total cpu time spent up to now is      205.5 secs

     total energy              =   -1181.98036263 Ry
     estimated scf accuracy    <       0.47974490 Ry

     iteration #  9     ecut=    80.00 Ry     beta= 0.40
     Davidson diagonalization with overlap

---- Real-time Memory Report at c_bands before calling an iterative solver
           397 MiB given to the printing process from OS
             0 MiB allocation reported by mallinfo(arena+hblkhd)
         43729 MiB available memory on the node where the printing process lives
------------------
     ethr =  9.57E-04,  avg # of iterations =  1.0

     total cpu time spent up to now is      225.3 secs

     total energy              =   -1181.98460649 Ry
     estimated scf accuracy    <       0.36722492 Ry

     iteration # 10     ecut=    80.00 Ry     beta= 0.40
     Davidson diagonalization with overlap

---- Real-time Memory Report at c_bands before calling an iterative solver
           399 MiB given to the printing process from OS
             0 MiB allocation reported by mallinfo(arena+hblkhd)
         43729 MiB available memory on the node where the printing process lives
------------------
     ethr =  7.98E-04,  avg # of iterations =  1.0

     total cpu time spent up to now is      246.1 secs

     total energy              =   -1182.01285452 Ry
     estimated scf accuracy    <       0.40492321 Ry

     iteration # 11     ecut=    80.00 Ry     beta= 0.40
     Davidson diagonalization with overlap

---- Real-time Memory Report at c_bands before calling an iterative solver
           399 MiB given to the printing process from OS
             0 MiB allocation reported by mallinfo(arena+hblkhd)
         43963 MiB available memory on the node where the printing process lives
------------------
     ethr =  7.98E-04,  avg # of iterations =  1.0

     total cpu time spent up to now is      266.7 secs

     total energy              =   -1182.09438382 Ry
     estimated scf accuracy    <       0.57934084 Ry

     iteration # 12     ecut=    80.00 Ry     beta= 0.40
     Davidson diagonalization with overlap

---- Real-time Memory Report at c_bands before calling an iterative solver
           399 MiB given to the printing process from OS
             0 MiB allocation reported by mallinfo(arena+hblkhd)
         43963 MiB available memory on the node where the printing process lives
------------------
     ethr =  7.98E-04,  avg # of iterations =  1.0

     total cpu time spent up to now is      287.7 secs

     total energy              =   -1182.11397810 Ry
     estimated scf accuracy    <       1.54145415 Ry

     iteration # 13     ecut=    80.00 Ry     beta= 0.40
     Davidson diagonalization with overlap

---- Real-time Memory Report at c_bands before calling an iterative solver
           399 MiB given to the printing process from OS
             0 MiB allocation reported by mallinfo(arena+hblkhd)
         43850 MiB available memory on the node where the printing process lives
------------------
     ethr =  7.98E-04,  avg # of iterations =  1.0

     total cpu time spent up to now is      308.0 secs

     total energy              =   -1182.04376396 Ry
     estimated scf accuracy    <       1.74265835 Ry

     iteration # 14     ecut=    80.00 Ry     beta= 0.40
     Davidson diagonalization with overlap

---- Real-time Memory Report at c_bands before calling an iterative solver
           399 MiB given to the printing process from OS
             0 MiB allocation reported by mallinfo(arena+hblkhd)
         43986 MiB available memory on the node where the printing process lives
------------------
     ethr =  7.98E-04,  avg # of iterations =  1.1

     total cpu time spent up to now is      328.9 secs

     total energy              =   -1182.22240046 Ry
     estimated scf accuracy    <       0.79979577 Ry

     iteration # 15     ecut=    80.00 Ry     beta= 0.40
     Davidson diagonalization with overlap

---- Real-time Memory Report at c_bands before calling an iterative solver
           399 MiB given to the printing process from OS
             0 MiB allocation reported by mallinfo(arena+hblkhd)
         43794 MiB available memory on the node where the printing process lives
------------------
     ethr =  7.98E-04,  avg # of iterations =  2.0

     total cpu time spent up to now is      352.9 secs

     total energy              =   -1181.51143625 Ry
     estimated scf accuracy    <       4.59598415 Ry

     iteration # 16     ecut=    80.00 Ry     beta= 0.40
     Davidson diagonalization with overlap

---- Real-time Memory Report at c_bands before calling an iterative solver
           399 MiB given to the printing process from OS
             0 MiB allocation reported by mallinfo(arena+hblkhd)
         43829 MiB available memory on the node where the printing process lives
------------------
     ethr =  7.98E-04,  avg # of iterations =  3.0

     total cpu time spent up to now is      381.1 secs

     total energy              =   -1182.04493799 Ry
     estimated scf accuracy    <       8.22513535 Ry

     iteration # 17     ecut=    80.00 Ry     beta= 0.40
     Davidson diagonalization with overlap

---- Real-time Memory Report at c_bands before calling an iterative solver
           399 MiB given to the printing process from OS
             0 MiB allocation reported by mallinfo(arena+hblkhd)
         44030 MiB available memory on the node where the printing process lives
------------------
     ethr =  7.98E-04,  avg # of iterations =  1.0

     total cpu time spent up to now is      400.9 secs

     total energy              =   -1181.43585734 Ry
     estimated scf accuracy    <       6.73494557 Ry

     iteration # 18     ecut=    80.00 Ry     beta= 0.40
     Davidson diagonalization with overlap

---- Real-time Memory Report at c_bands before calling an iterative solver
           399 MiB given to the printing process from OS
             0 MiB allocation reported by mallinfo(arena+hblkhd)
         43682 MiB available memory on the node where the printing process lives
------------------
     ethr =  7.98E-04,  avg # of iterations =  2.0

     total cpu time spent up to now is      426.2 secs

     total energy              =   -1182.07202906 Ry
     estimated scf accuracy    <       2.20628204 Ry

     iteration # 19     ecut=    80.00 Ry     beta= 0.40
     Davidson diagonalization with overlap

---- Real-time Memory Report at c_bands before calling an iterative solver
           399 MiB given to the printing process from OS
             0 MiB allocation reported by mallinfo(arena+hblkhd)
         43620 MiB available memory on the node where the printing process lives
------------------
     ethr =  7.98E-04,  avg # of iterations =  1.0

     total cpu time spent up to now is      446.2 secs

     total energy              =   -1182.05389210 Ry
     estimated scf accuracy    <       1.00453240 Ry

     iteration # 20     ecut=    80.00 Ry     beta= 0.40
     Davidson diagonalization with overlap

---- Real-time Memory Report at c_bands before calling an iterative solver
           399 MiB given to the printing process from OS
             0 MiB allocation reported by mallinfo(arena+hblkhd)
         43972 MiB available memory on the node where the printing process lives
------------------
     ethr =  7.98E-04,  avg # of iterations =  1.0

     total cpu time spent up to now is      466.0 secs

     total energy              =   -1182.04644983 Ry
     estimated scf accuracy    <       0.77693014 Ry

     iteration # 21     ecut=    80.00 Ry     beta= 0.40
     Davidson diagonalization with overlap

---- Real-time Memory Report at c_bands before calling an iterative solver
           399 MiB given to the printing process from OS
             0 MiB allocation reported by mallinfo(arena+hblkhd)
         43744 MiB available memory on the node where the printing process lives
------------------
     ethr =  7.98E-04,  avg # of iterations =  1.0

     total cpu time spent up to now is      486.3 secs

     total energy              =   -1182.05006357 Ry
     estimated scf accuracy    <       0.72539154 Ry

     iteration # 22     ecut=    80.00 Ry     beta= 0.40
     Davidson diagonalization with overlap

---- Real-time Memory Report at c_bands before calling an iterative solver
           399 MiB given to the printing process from OS
             0 MiB allocation reported by mallinfo(arena+hblkhd)
         43587 MiB available memory on the node where the printing process lives
------------------
     ethr =  7.98E-04,  avg # of iterations =  1.0

     total cpu time spent up to now is      506.9 secs

     total energy              =   -1182.04839077 Ry
     estimated scf accuracy    <       0.73929126 Ry

     iteration # 23     ecut=    80.00 Ry     beta= 0.40
     Davidson diagonalization with overlap

---- Real-time Memory Report at c_bands before calling an iterative solver
           399 MiB given to the printing process from OS
             0 MiB allocation reported by mallinfo(arena+hblkhd)
         43763 MiB available memory on the node where the printing process lives
------------------
     ethr =  7.98E-04,  avg # of iterations =  1.0

     total cpu time spent up to now is      526.9 secs

     total energy              =   -1182.04002325 Ry
     estimated scf accuracy    <       0.72952482 Ry

     iteration # 24     ecut=    80.00 Ry     beta= 0.40
     Davidson diagonalization with overlap

---- Real-time Memory Report at c_bands before calling an iterative solver
           399 MiB given to the printing process from OS
             0 MiB allocation reported by mallinfo(arena+hblkhd)
         43704 MiB available memory on the node where the printing process lives
------------------
     ethr =  7.98E-04,  avg # of iterations =  1.0

     total cpu time spent up to now is      546.5 secs

     total energy              =   -1182.04483192 Ry
     estimated scf accuracy    <       0.69061335 Ry

     iteration # 25     ecut=    80.00 Ry     beta= 0.40
     Davidson diagonalization with overlap

---- Real-time Memory Report at c_bands before calling an iterative solver
           399 MiB given to the printing process from OS
             0 MiB allocation reported by mallinfo(arena+hblkhd)
         44016 MiB available memory on the node where the printing process lives
------------------
     ethr =  7.98E-04,  avg # of iterations =  1.0

     total cpu time spent up to now is      567.0 secs

     total energy              =   -1182.00234504 Ry
     estimated scf accuracy    <       0.70804079 Ry

     iteration # 26     ecut=    80.00 Ry     beta= 0.40
     Davidson diagonalization with overlap

---- Real-time Memory Report at c_bands before calling an iterative solver
           399 MiB given to the printing process from OS
             0 MiB allocation reported by mallinfo(arena+hblkhd)
         43686 MiB available memory on the node where the printing process lives
------------------
     ethr =  7.98E-04,  avg # of iterations =  1.0

     total cpu time spent up to now is      587.3 secs

     total energy              =   -1181.83501792 Ry
     estimated scf accuracy    <       0.53847013 Ry

     iteration # 27     ecut=    80.00 Ry     beta= 0.40
     Davidson diagonalization with overlap

---- Real-time Memory Report at c_bands before calling an iterative solver
           399 MiB given to the printing process from OS
             0 MiB allocation reported by mallinfo(arena+hblkhd)
         44004 MiB available memory on the node where the printing process lives
------------------
     ethr =  7.98E-04,  avg # of iterations =  2.0

     total cpu time spent up to now is      612.1 secs

     total energy              =   -1182.00955472 Ry
     estimated scf accuracy    <       9.30252582 Ry

     iteration # 28     ecut=    80.00 Ry     beta= 0.40
     Davidson diagonalization with overlap

---- Real-time Memory Report at c_bands before calling an iterative solver
           399 MiB given to the printing process from OS
             0 MiB allocation reported by mallinfo(arena+hblkhd)
         43847 MiB available memory on the node where the printing process lives
------------------
     ethr =  7.98E-04,  avg # of iterations =  1.0

     total cpu time spent up to now is      633.1 secs

     total energy              =   -1181.71372628 Ry
     estimated scf accuracy    <       6.54992960 Ry

     iteration # 29     ecut=    80.00 Ry     beta= 0.40
     Davidson diagonalization with overlap

---- Real-time Memory Report at c_bands before calling an iterative solver
           399 MiB given to the printing process from OS
             0 MiB allocation reported by mallinfo(arena+hblkhd)
         44078 MiB available memory on the node where the printing process lives
------------------
     ethr =  7.98E-04,  avg # of iterations =  1.0

     total cpu time spent up to now is      653.4 secs

     total energy              =   -1182.03465200 Ry
     estimated scf accuracy    <       0.61088941 Ry

     iteration # 30     ecut=    80.00 Ry     beta= 0.40
     Davidson diagonalization with overlap

---- Real-time Memory Report at c_bands before calling an iterative solver
           399 MiB given to the printing process from OS
             0 MiB allocation reported by mallinfo(arena+hblkhd)
         43823 MiB available memory on the node where the printing process lives
------------------
     ethr =  7.98E-04,  avg # of iterations =  1.0

     total cpu time spent up to now is      673.7 secs

     total energy              =   -1182.01247631 Ry
     estimated scf accuracy    <       0.65629373 Ry

     iteration # 31     ecut=    80.00 Ry     beta= 0.40
     Davidson diagonalization with overlap

---- Real-time Memory Report at c_bands before calling an iterative solver
           399 MiB given to the printing process from OS
             0 MiB allocation reported by mallinfo(arena+hblkhd)
         43701 MiB available memory on the node where the printing process lives
------------------
     ethr =  7.98E-04,  avg # of iterations =  1.0

     total cpu time spent up to now is      694.3 secs

     total energy              =   -1182.01601074 Ry
     estimated scf accuracy    <       0.58051520 Ry

     iteration # 32     ecut=    80.00 Ry     beta= 0.40
     Davidson diagonalization with overlap

---- Real-time Memory Report at c_bands before calling an iterative solver
           399 MiB given to the printing process from OS
             0 MiB allocation reported by mallinfo(arena+hblkhd)
         44149 MiB available memory on the node where the printing process lives
------------------
     ethr =  7.98E-04,  avg # of iterations =  1.0

     total cpu time spent up to now is      714.7 secs

     total energy              =   -1182.01866498 Ry
     estimated scf accuracy    <       0.59145186 Ry

     iteration # 33     ecut=    80.00 Ry     beta= 0.40
     Davidson diagonalization with overlap

---- Real-time Memory Report at c_bands before calling an iterative solver
           399 MiB given to the printing process from OS
             0 MiB allocation reported by mallinfo(arena+hblkhd)
         43780 MiB available memory on the node where the printing process lives
------------------
     ethr =  7.98E-04,  avg # of iterations =  1.0

     total cpu time spent up to now is      734.8 secs

     total energy              =   -1182.02026089 Ry
     estimated scf accuracy    <       0.60010346 Ry

     iteration # 34     ecut=    80.00 Ry     beta= 0.40
     Davidson diagonalization with overlap

---- Real-time Memory Report at c_bands before calling an iterative solver
           399 MiB given to the printing process from OS
             0 MiB allocation reported by mallinfo(arena+hblkhd)
         43828 MiB available memory on the node where the printing process lives
------------------
     ethr =  7.98E-04,  avg # of iterations =  1.0

     total cpu time spent up to now is      754.5 secs

     total energy              =   -1182.02298370 Ry
     estimated scf accuracy    <       0.60705032 Ry

     iteration # 35     ecut=    80.00 Ry     beta= 0.40
     Davidson diagonalization with overlap

---- Real-time Memory Report at c_bands before calling an iterative solver
           399 MiB given to the printing process from OS
             0 MiB allocation reported by mallinfo(arena+hblkhd)
         43999 MiB available memory on the node where the printing process lives
------------------
     ethr =  7.98E-04,  avg # of iterations =  1.0

     total cpu time spent up to now is      774.6 secs

     total energy              =   -1182.03083230 Ry
     estimated scf accuracy    <       0.61906273 Ry

     iteration # 36     ecut=    80.00 Ry     beta= 0.40
     Davidson diagonalization with overlap

---- Real-time Memory Report at c_bands before calling an iterative solver
           399 MiB given to the printing process from OS
             0 MiB allocation reported by mallinfo(arena+hblkhd)
         43819 MiB available memory on the node where the printing process lives
------------------
     ethr =  7.98E-04,  avg # of iterations =  1.0

     total cpu time spent up to now is      794.8 secs

     total energy              =   -1181.95458353 Ry
     estimated scf accuracy    <       0.64990346 Ry

     iteration # 37     ecut=    80.00 Ry     beta= 0.40
     Davidson diagonalization with overlap

---- Real-time Memory Report at c_bands before calling an iterative solver
           399 MiB given to the printing process from OS
             0 MiB allocation reported by mallinfo(arena+hblkhd)
         43832 MiB available memory on the node where the printing process lives
------------------
     ethr =  7.98E-04,  avg # of iterations =  1.0

     total cpu time spent up to now is      814.8 secs

     total energy              =   -1181.91273840 Ry
     estimated scf accuracy    <       0.13823309 Ry

     iteration # 38     ecut=    80.00 Ry     beta= 0.40
     Davidson diagonalization with overlap

---- Real-time Memory Report at c_bands before calling an iterative solver
           399 MiB given to the printing process from OS
             0 MiB allocation reported by mallinfo(arena+hblkhd)
         43774 MiB available memory on the node where the printing process lives
------------------
     ethr =  3.01E-04,  avg # of iterations =  2.0

     total cpu time spent up to now is      839.9 secs

     total energy              =   -1181.86732092 Ry
     estimated scf accuracy    <       1.39315618 Ry

     iteration # 39     ecut=    80.00 Ry     beta= 0.40
     Davidson diagonalization with overlap

---- Real-time Memory Report at c_bands before calling an iterative solver
           399 MiB given to the printing process from OS
             0 MiB allocation reported by mallinfo(arena+hblkhd)
         43671 MiB available memory on the node where the printing process lives
------------------
     ethr =  3.01E-04,  avg # of iterations =  2.0

     total cpu time spent up to now is      864.3 secs

     total energy              =   -1181.88499837 Ry
     estimated scf accuracy    <       6.46730674 Ry

     iteration # 40     ecut=    80.00 Ry     beta= 0.40
     Davidson diagonalization with overlap

---- Real-time Memory Report at c_bands before calling an iterative solver
           399 MiB given to the printing process from OS
             0 MiB allocation reported by mallinfo(arena+hblkhd)
         43734 MiB available memory on the node where the printing process lives
------------------
     ethr =  3.01E-04,  avg # of iterations =  1.0

     total cpu time spent up to now is      884.6 secs

     total energy              =   -1181.98020034 Ry
     estimated scf accuracy    <       0.30651577 Ry

     iteration # 41     ecut=    80.00 Ry     beta= 0.40
     Davidson diagonalization with overlap

---- Real-time Memory Report at c_bands before calling an iterative solver
           399 MiB given to the printing process from OS
             0 MiB allocation reported by mallinfo(arena+hblkhd)
         43722 MiB available memory on the node where the printing process lives
------------------
     ethr =  3.01E-04,  avg # of iterations =  1.0

     total cpu time spent up to now is      904.8 secs

     total energy              =   -1181.97761835 Ry
     estimated scf accuracy    <       0.34764446 Ry

     iteration # 42     ecut=    80.00 Ry     beta= 0.40
     Davidson diagonalization with overlap

---- Real-time Memory Report at c_bands before calling an iterative solver
           399 MiB given to the printing process from OS
             0 MiB allocation reported by mallinfo(arena+hblkhd)
         43795 MiB available memory on the node where the printing process lives
------------------
     ethr =  3.01E-04,  avg # of iterations =  1.0

     total cpu time spent up to now is      925.9 secs

     total energy              =   -1182.00665378 Ry
     estimated scf accuracy    <       0.31278679 Ry

     iteration # 43     ecut=    80.00 Ry     beta= 0.40
     Davidson diagonalization with overlap

---- Real-time Memory Report at c_bands before calling an iterative solver
           399 MiB given to the printing process from OS
             0 MiB allocation reported by mallinfo(arena+hblkhd)
         43814 MiB available memory on the node where the printing process lives
------------------
     ethr =  3.01E-04,  avg # of iterations =  1.0

     total cpu time spent up to now is      946.3 secs

     total energy              =   -1181.99050853 Ry
     estimated scf accuracy    <       0.56840122 Ry

     iteration # 44     ecut=    80.00 Ry     beta= 0.40
     Davidson diagonalization with overlap

---- Real-time Memory Report at c_bands before calling an iterative solver
           399 MiB given to the printing process from OS
             0 MiB allocation reported by mallinfo(arena+hblkhd)
         43710 MiB available memory on the node where the printing process lives
------------------
     ethr =  3.01E-04,  avg # of iterations =  1.0

     total cpu time spent up to now is      967.2 secs

     total energy              =   -1181.98655862 Ry
     estimated scf accuracy    <       0.46318873 Ry

     iteration # 45     ecut=    80.00 Ry     beta= 0.40
     Davidson diagonalization with overlap

---- Real-time Memory Report at c_bands before calling an iterative solver
           399 MiB given to the printing process from OS
             0 MiB allocation reported by mallinfo(arena+hblkhd)
         44008 MiB available memory on the node where the printing process lives
------------------
     ethr =  3.01E-04,  avg # of iterations =  1.0

     total cpu time spent up to now is      987.3 secs

     total energy              =   -1181.99895265 Ry
     estimated scf accuracy    <       0.42639737 Ry

     iteration # 46     ecut=    80.00 Ry     beta= 0.40
     Davidson diagonalization with overlap

---- Real-time Memory Report at c_bands before calling an iterative solver
           399 MiB given to the printing process from OS
             0 MiB allocation reported by mallinfo(arena+hblkhd)
         43988 MiB available memory on the node where the printing process lives
------------------
     ethr =  3.01E-04,  avg # of iterations =  1.0

     total cpu time spent up to now is     1007.7 secs

     total energy              =   -1181.99270525 Ry
     estimated scf accuracy    <       0.50731559 Ry

     iteration # 47     ecut=    80.00 Ry     beta= 0.40
     Davidson diagonalization with overlap

---- Real-time Memory Report at c_bands before calling an iterative solver
           399 MiB given to the printing process from OS
             0 MiB allocation reported by mallinfo(arena+hblkhd)
         43988 MiB available memory on the node where the printing process lives
------------------
     ethr =  3.01E-04,  avg # of iterations =  1.0

     total cpu time spent up to now is     1028.0 secs

     total energy              =   -1182.00356861 Ry
     estimated scf accuracy    <       0.46974814 Ry

     iteration # 48     ecut=    80.00 Ry     beta= 0.40
     Davidson diagonalization with overlap

---- Real-time Memory Report at c_bands before calling an iterative solver
           399 MiB given to the printing process from OS
             0 MiB allocation reported by mallinfo(arena+hblkhd)
         43828 MiB available memory on the node where the printing process lives
------------------
     ethr =  3.01E-04,  avg # of iterations =  1.0

     total cpu time spent up to now is     1047.9 secs

     total energy              =   -1181.86844763 Ry
     estimated scf accuracy    <       0.53142882 Ry

     iteration # 49     ecut=    80.00 Ry     beta= 0.40
     Davidson diagonalization with overlap

---- Real-time Memory Report at c_bands before calling an iterative solver
           399 MiB given to the printing process from OS
             0 MiB allocation reported by mallinfo(arena+hblkhd)
         43930 MiB available memory on the node where the printing process lives
------------------
     ethr =  3.01E-04,  avg # of iterations =  3.0

     total cpu time spent up to now is     1077.2 secs

     total energy              =   -1181.88734034 Ry
     estimated scf accuracy    <       8.32045310 Ry

     iteration # 50     ecut=    80.00 Ry     beta= 0.40
     Davidson diagonalization with overlap

---- Real-time Memory Report at c_bands before calling an iterative solver
           399 MiB given to the printing process from OS
             0 MiB allocation reported by mallinfo(arena+hblkhd)
         43882 MiB available memory on the node where the printing process lives
------------------
     ethr =  3.01E-04,  avg # of iterations =  2.0

     total cpu time spent up to now is     1101.3 secs

     total energy              =   -1181.96038191 Ry
     estimated scf accuracy    <       0.13775419 Ry

     iteration # 51     ecut=    80.00 Ry     beta= 0.40
     Davidson diagonalization with overlap

---- Real-time Memory Report at c_bands before calling an iterative solver
           399 MiB given to the printing process from OS
             0 MiB allocation reported by mallinfo(arena+hblkhd)
         43701 MiB available memory on the node where the printing process lives
------------------
     ethr =  2.99E-04,  avg # of iterations =  1.0

     total cpu time spent up to now is     1121.9 secs

     total energy              =   -1181.84583775 Ry
     estimated scf accuracy    <       4.00738028 Ry

     iteration # 52     ecut=    80.00 Ry     beta= 0.40
     Davidson diagonalization with overlap

---- Real-time Memory Report at c_bands before calling an iterative solver
           399 MiB given to the printing process from OS
             0 MiB allocation reported by mallinfo(arena+hblkhd)
         43825 MiB available memory on the node where the printing process lives
------------------
     ethr =  2.99E-04,  avg # of iterations =  1.4

     total cpu time spent up to now is     1143.6 secs

     total energy              =   -1182.00092361 Ry
     estimated scf accuracy    <       0.49951946 Ry

     iteration # 53     ecut=    80.00 Ry     beta= 0.40
     Davidson diagonalization with overlap

---- Real-time Memory Report at c_bands before calling an iterative solver
           399 MiB given to the printing process from OS
             0 MiB allocation reported by mallinfo(arena+hblkhd)
         43840 MiB available memory on the node where the printing process lives
------------------
     ethr =  2.99E-04,  avg # of iterations =  1.0

     total cpu time spent up to now is     1164.2 secs

     total energy              =   -1182.00008204 Ry
     estimated scf accuracy    <       0.50873787 Ry

     iteration # 54     ecut=    80.00 Ry     beta= 0.40
     Davidson diagonalization with overlap

---- Real-time Memory Report at c_bands before calling an iterative solver
           399 MiB given to the printing process from OS
             0 MiB allocation reported by mallinfo(arena+hblkhd)
         43805 MiB available memory on the node where the printing process lives
------------------
     ethr =  2.99E-04,  avg # of iterations =  1.0

     total cpu time spent up to now is     1184.3 secs

     total energy              =   -1181.98813254 Ry
     estimated scf accuracy    <       0.51163113 Ry

     iteration # 55     ecut=    80.00 Ry     beta= 0.40
     Davidson diagonalization with overlap

---- Real-time Memory Report at c_bands before calling an iterative solver
           399 MiB given to the printing process from OS
             0 MiB allocation reported by mallinfo(arena+hblkhd)
         43733 MiB available memory on the node where the printing process lives
------------------
     ethr =  2.99E-04,  avg # of iterations =  1.0

     total cpu time spent up to now is     1204.8 secs

     total energy              =   -1181.98154684 Ry
     estimated scf accuracy    <       0.43889292 Ry

     iteration # 56     ecut=    80.00 Ry     beta= 0.40
     Davidson diagonalization with overlap

---- Real-time Memory Report at c_bands before calling an iterative solver
           399 MiB given to the printing process from OS
             0 MiB allocation reported by mallinfo(arena+hblkhd)
         43841 MiB available memory on the node where the printing process lives
------------------
     ethr =  2.99E-04,  avg # of iterations =  1.0

     total cpu time spent up to now is     1225.4 secs

     total energy              =   -1181.98003938 Ry
     estimated scf accuracy    <       0.37286411 Ry

     iteration # 57     ecut=    80.00 Ry     beta= 0.40
     Davidson diagonalization with overlap

---- Real-time Memory Report at c_bands before calling an iterative solver
           399 MiB given to the printing process from OS
             0 MiB allocation reported by mallinfo(arena+hblkhd)
         43706 MiB available memory on the node where the printing process lives
------------------
     ethr =  2.99E-04,  avg # of iterations =  1.0

     total cpu time spent up to now is     1245.3 secs

     total energy              =   -1181.96882720 Ry
     estimated scf accuracy    <       0.35052205 Ry

     iteration # 58     ecut=    80.00 Ry     beta= 0.40
     Davidson diagonalization with overlap

---- Real-time Memory Report at c_bands before calling an iterative solver
           399 MiB given to the printing process from OS
             0 MiB allocation reported by mallinfo(arena+hblkhd)
         43980 MiB available memory on the node where the printing process lives
------------------
     ethr =  2.99E-04,  avg # of iterations =  1.0

     total cpu time spent up to now is     1266.0 secs

     total energy              =   -1181.97953746 Ry
     estimated scf accuracy    <       0.06661913 Ry

     iteration # 59     ecut=    80.00 Ry     beta= 0.40
     Davidson diagonalization with overlap

---- Real-time Memory Report at c_bands before calling an iterative solver
           399 MiB given to the printing process from OS
             0 MiB allocation reported by mallinfo(arena+hblkhd)
         44077 MiB available memory on the node where the printing process lives
------------------
     ethr =  1.45E-04,  avg # of iterations =  1.0

     total cpu time spent up to now is     1285.8 secs

     total energy              =   -1182.00412814 Ry
     estimated scf accuracy    <       0.42737391 Ry

     iteration # 60     ecut=    80.00 Ry     beta= 0.40
     Davidson diagonalization with overlap

---- Real-time Memory Report at c_bands before calling an iterative solver
           399 MiB given to the printing process from OS
             0 MiB allocation reported by mallinfo(arena+hblkhd)
         43658 MiB available memory on the node where the printing process lives
------------------
     ethr =  1.45E-04,  avg # of iterations =  1.0

     total cpu time spent up to now is     1306.2 secs

     total energy              =   -1182.01685565 Ry
     estimated scf accuracy    <       0.54109199 Ry

     iteration # 61     ecut=    80.00 Ry     beta= 0.40
     Davidson diagonalization with overlap

---- Real-time Memory Report at c_bands before calling an iterative solver
           399 MiB given to the printing process from OS
             0 MiB allocation reported by mallinfo(arena+hblkhd)
         44040 MiB available memory on the node where the printing process lives
------------------
     ethr =  1.45E-04,  avg # of iterations =  1.0

     total cpu time spent up to now is     1326.4 secs

     total energy              =   -1182.01102052 Ry
     estimated scf accuracy    <       0.58694136 Ry

     iteration # 62     ecut=    80.00 Ry     beta= 0.40
     Davidson diagonalization with overlap

---- Real-time Memory Report at c_bands before calling an iterative solver
           399 MiB given to the printing process from OS
             0 MiB allocation reported by mallinfo(arena+hblkhd)
         43996 MiB available memory on the node where the printing process lives
------------------
     ethr =  1.45E-04,  avg # of iterations =  1.0

     total cpu time spent up to now is     1346.5 secs

     total energy              =   -1182.05903763 Ry
     estimated scf accuracy    <       0.56408559 Ry

     iteration # 63     ecut=    80.00 Ry     beta= 0.40
     Davidson diagonalization with overlap

---- Real-time Memory Report at c_bands before calling an iterative solver
           399 MiB given to the printing process from OS
             0 MiB allocation reported by mallinfo(arena+hblkhd)
         44336 MiB available memory on the node where the printing process lives
------------------
     ethr =  1.45E-04,  avg # of iterations =  2.0

     total cpu time spent up to now is     1371.0 secs

     total energy              =   -1181.99932744 Ry
     estimated scf accuracy    <       0.82035047 Ry

     iteration # 64     ecut=    80.00 Ry     beta= 0.40
     Davidson diagonalization with overlap

---- Real-time Memory Report at c_bands before calling an iterative solver
           399 MiB given to the printing process from OS
             0 MiB allocation reported by mallinfo(arena+hblkhd)
         43874 MiB available memory on the node where the printing process lives
------------------
     ethr =  1.45E-04,  avg # of iterations =  1.2

     total cpu time spent up to now is     1391.8 secs

     total energy              =   -1182.01100466 Ry
     estimated scf accuracy    <       0.54118659 Ry

     iteration # 65     ecut=    80.00 Ry     beta= 0.40
     Davidson diagonalization with overlap

---- Real-time Memory Report at c_bands before calling an iterative solver
           399 MiB given to the printing process from OS
             0 MiB allocation reported by mallinfo(arena+hblkhd)
         43724 MiB available memory on the node where the printing process lives
------------------
     ethr =  1.45E-04,  avg # of iterations =  1.0

     total cpu time spent up to now is     1411.7 secs

     total energy              =   -1182.03480176 Ry
     estimated scf accuracy    <       0.56596233 Ry

     iteration # 66     ecut=    80.00 Ry     beta= 0.40
     Davidson diagonalization with overlap

---- Real-time Memory Report at c_bands before calling an iterative solver
           399 MiB given to the printing process from OS
             0 MiB allocation reported by mallinfo(arena+hblkhd)
         43946 MiB available memory on the node where the printing process lives
------------------
     ethr =  1.45E-04,  avg # of iterations =  1.0

     total cpu time spent up to now is     1432.1 secs

     total energy              =   -1181.98182733 Ry
     estimated scf accuracy    <       0.66425795 Ry

     iteration # 67     ecut=    80.00 Ry     beta= 0.40
     Davidson diagonalization with overlap

---- Real-time Memory Report at c_bands before calling an iterative solver
           399 MiB given to the printing process from OS
             0 MiB allocation reported by mallinfo(arena+hblkhd)
         43830 MiB available memory on the node where the printing process lives
------------------
     ethr =  1.45E-04,  avg # of iterations =  1.1

     total cpu time spent up to now is     1453.0 secs

     total energy              =   -1181.85573768 Ry
     estimated scf accuracy    <       0.43331600 Ry

     iteration # 68     ecut=    80.00 Ry     beta= 0.40
     Davidson diagonalization with overlap

---- Real-time Memory Report at c_bands before calling an iterative solver
           399 MiB given to the printing process from OS
             0 MiB allocation reported by mallinfo(arena+hblkhd)
         43891 MiB available memory on the node where the printing process lives
------------------
     ethr =  1.45E-04,  avg # of iterations =  2.9

     total cpu time spent up to now is     1481.9 secs

     total energy              =   -1181.82351157 Ry
     estimated scf accuracy    <       8.81959827 Ry

     iteration # 69     ecut=    80.00 Ry     beta= 0.40
     Davidson diagonalization with overlap

---- Real-time Memory Report at c_bands before calling an iterative solver
           399 MiB given to the printing process from OS
             0 MiB allocation reported by mallinfo(arena+hblkhd)
         43675 MiB available memory on the node where the printing process lives
------------------
     ethr =  1.45E-04,  avg # of iterations =  3.0

     total cpu time spent up to now is     1510.4 secs

     total energy              =   -1181.96966436 Ry
     estimated scf accuracy    <       0.34968709 Ry

     iteration # 70     ecut=    80.00 Ry     beta= 0.40
     Davidson diagonalization with overlap

---- Real-time Memory Report at c_bands before calling an iterative solver
           399 MiB given to the printing process from OS
             0 MiB allocation reported by mallinfo(arena+hblkhd)
         43631 MiB available memory on the node where the printing process lives
------------------
     ethr =  1.45E-04,  avg # of iterations =  1.0

     total cpu time spent up to now is     1531.1 secs

     total energy              =   -1181.97060240 Ry
     estimated scf accuracy    <       0.09413946 Ry

     iteration # 71     ecut=    80.00 Ry     beta= 0.40
     Davidson diagonalization with overlap

---- Real-time Memory Report at c_bands before calling an iterative solver
           399 MiB given to the printing process from OS
             0 MiB allocation reported by mallinfo(arena+hblkhd)
         43872 MiB available memory on the node where the printing process lives
------------------
     ethr =  1.45E-04,  avg # of iterations =  1.0

     total cpu time spent up to now is     1551.6 secs

     total energy              =   -1181.96965630 Ry
     estimated scf accuracy    <       0.03828360 Ry

     iteration # 72     ecut=    80.00 Ry     beta= 0.40
     Davidson diagonalization with overlap

---- Real-time Memory Report at c_bands before calling an iterative solver
           399 MiB given to the printing process from OS
             0 MiB allocation reported by mallinfo(arena+hblkhd)
         43966 MiB available memory on the node where the printing process lives
------------------
     ethr =  8.32E-05,  avg # of iterations =  1.0

     total cpu time spent up to now is     1571.5 secs

     total energy              =   -1181.98105440 Ry
     estimated scf accuracy    <       0.02219084 Ry

     iteration # 73     ecut=    80.00 Ry     beta= 0.40
     Davidson diagonalization with overlap

---- Real-time Memory Report at c_bands before calling an iterative solver
           399 MiB given to the printing process from OS
             0 MiB allocation reported by mallinfo(arena+hblkhd)
         43662 MiB available memory on the node where the printing process lives
------------------
     ethr =  4.82E-05,  avg # of iterations =  2.0

     total cpu time spent up to now is     1595.8 secs

     total energy              =   -1181.91206207 Ry
     estimated scf accuracy    <       7.21398225 Ry

     iteration # 74     ecut=    80.00 Ry     beta= 0.40
     Davidson diagonalization with overlap

---- Real-time Memory Report at c_bands before calling an iterative solver
           399 MiB given to the printing process from OS
             0 MiB allocation reported by mallinfo(arena+hblkhd)
         44039 MiB available memory on the node where the printing process lives
------------------
     ethr =  4.82E-05,  avg # of iterations =  2.0

     total cpu time spent up to now is     1619.8 secs

     total energy              =   -1181.96565535 Ry
     estimated scf accuracy    <       0.08904345 Ry

     iteration # 75     ecut=    80.00 Ry     beta= 0.40
     Davidson diagonalization with overlap

---- Real-time Memory Report at c_bands before calling an iterative solver
           399 MiB given to the printing process from OS
             0 MiB allocation reported by mallinfo(arena+hblkhd)
         43803 MiB available memory on the node where the printing process lives
------------------
     ethr =  4.82E-05,  avg # of iterations =  1.0

     total cpu time spent up to now is     1640.2 secs

     total energy              =   -1181.95608456 Ry
     estimated scf accuracy    <       1.45965732 Ry

     iteration # 76     ecut=    80.00 Ry     beta= 0.40
     Davidson diagonalization with overlap

---- Real-time Memory Report at c_bands before calling an iterative solver
           399 MiB given to the printing process from OS
             0 MiB allocation reported by mallinfo(arena+hblkhd)
         43882 MiB available memory on the node where the printing process lives
------------------
     ethr =  4.82E-05,  avg # of iterations =  1.0

     total cpu time spent up to now is     1660.1 secs

     total energy              =   -1181.96291158 Ry
     estimated scf accuracy    <       0.08302320 Ry

     iteration # 77     ecut=    80.00 Ry     beta= 0.40
     Davidson diagonalization with overlap

---- Real-time Memory Report at c_bands before calling an iterative solver
           399 MiB given to the printing process from OS
             0 MiB allocation reported by mallinfo(arena+hblkhd)
         43856 MiB available memory on the node where the printing process lives
------------------
     ethr =  4.82E-05,  avg # of iterations =  1.0

     total cpu time spent up to now is     1680.0 secs

     total energy              =   -1182.01566953 Ry
     estimated scf accuracy    <       4.23685431 Ry

     iteration # 78     ecut=    80.00 Ry     beta= 0.40
     Davidson diagonalization with overlap

---- Real-time Memory Report at c_bands before calling an iterative solver
           399 MiB given to the printing process from OS
             0 MiB allocation reported by mallinfo(arena+hblkhd)
         43582 MiB available memory on the node where the printing process lives
------------------
     ethr =  4.82E-05,  avg # of iterations =  1.0

     total cpu time spent up to now is     1700.1 secs

     total energy              =   -1182.00684028 Ry
     estimated scf accuracy    <       5.89368975 Ry

     iteration # 79     ecut=    80.00 Ry     beta= 0.40
     Davidson diagonalization with overlap

---- Real-time Memory Report at c_bands before calling an iterative solver
           400 MiB given to the printing process from OS
             0 MiB allocation reported by mallinfo(arena+hblkhd)
         43847 MiB available memory on the node where the printing process lives
------------------
     ethr =  4.82E-05,  avg # of iterations =  1.0

     total cpu time spent up to now is     1720.3 secs

     total energy              =   -1181.97027065 Ry
     estimated scf accuracy    <       5.28406581 Ry

     iteration # 80     ecut=    80.00 Ry     beta= 0.40
     Davidson diagonalization with overlap

---- Real-time Memory Report at c_bands before calling an iterative solver
           400 MiB given to the printing process from OS
             0 MiB allocation reported by mallinfo(arena+hblkhd)
         43751 MiB available memory on the node where the printing process lives
------------------
     ethr =  4.82E-05,  avg # of iterations =  1.0

     total cpu time spent up to now is     1740.8 secs

     total energy              =   -1181.97399050 Ry
     estimated scf accuracy    <       1.46038298 Ry

     iteration # 81     ecut=    80.00 Ry     beta= 0.40
     Davidson diagonalization with overlap

---- Real-time Memory Report at c_bands before calling an iterative solver
           400 MiB given to the printing process from OS
             0 MiB allocation reported by mallinfo(arena+hblkhd)
         43810 MiB available memory on the node where the printing process lives
------------------
     ethr =  4.82E-05,  avg # of iterations =  1.0

     total cpu time spent up to now is     1762.0 secs

     total energy              =   -1181.97371107 Ry
     estimated scf accuracy    <       0.83082584 Ry

     iteration # 82     ecut=    80.00 Ry     beta= 0.40
     Davidson diagonalization with overlap

---- Real-time Memory Report at c_bands before calling an iterative solver
           400 MiB given to the printing process from OS
             0 MiB allocation reported by mallinfo(arena+hblkhd)
         43968 MiB available memory on the node where the printing process lives
------------------
     ethr =  4.82E-05,  avg # of iterations =  1.0

     total cpu time spent up to now is     1782.8 secs

     total energy              =   -1181.97125217 Ry
     estimated scf accuracy    <       0.68059574 Ry

     iteration # 83     ecut=    80.00 Ry     beta= 0.40
     Davidson diagonalization with overlap

---- Real-time Memory Report at c_bands before calling an iterative solver
           400 MiB given to the printing process from OS
             0 MiB allocation reported by mallinfo(arena+hblkhd)
         44060 MiB available memory on the node where the printing process lives
------------------
     ethr =  4.82E-05,  avg # of iterations =  1.0

     total cpu time spent up to now is     1802.8 secs

     total energy              =   -1181.97273869 Ry
     estimated scf accuracy    <       0.27361411 Ry

     iteration # 84     ecut=    80.00 Ry     beta= 0.40
     Davidson diagonalization with overlap

---- Real-time Memory Report at c_bands before calling an iterative solver
           400 MiB given to the printing process from OS
             0 MiB allocation reported by mallinfo(arena+hblkhd)
         43568 MiB available memory on the node where the printing process lives
------------------
     ethr =  4.82E-05,  avg # of iterations =  1.0

     total cpu time spent up to now is     1822.4 secs

     total energy              =   -1181.97423905 Ry
     estimated scf accuracy    <       0.50401290 Ry

     iteration # 85     ecut=    80.00 Ry     beta= 0.40
     Davidson diagonalization with overlap

---- Real-time Memory Report at c_bands before calling an iterative solver
           400 MiB given to the printing process from OS
             0 MiB allocation reported by mallinfo(arena+hblkhd)
         43805 MiB available memory on the node where the printing process lives
------------------
     ethr =  4.82E-05,  avg # of iterations =  1.0

     total cpu time spent up to now is     1842.9 secs

     total energy              =   -1181.97205459 Ry
     estimated scf accuracy    <       0.80370194 Ry

     iteration # 86     ecut=    80.00 Ry     beta= 0.40
     Davidson diagonalization with overlap

---- Real-time Memory Report at c_bands before calling an iterative solver
           400 MiB given to the printing process from OS
             0 MiB allocation reported by mallinfo(arena+hblkhd)
         43913 MiB available memory on the node where the printing process lives
------------------
     ethr =  4.82E-05,  avg # of iterations =  1.0

     total cpu time spent up to now is     1863.3 secs

     total energy              =   -1181.97573691 Ry
     estimated scf accuracy    <       0.40265622 Ry

     iteration # 87     ecut=    80.00 Ry     beta= 0.40
     Davidson diagonalization with overlap

---- Real-time Memory Report at c_bands before calling an iterative solver
           400 MiB given to the printing process from OS
             0 MiB allocation reported by mallinfo(arena+hblkhd)
         43946 MiB available memory on the node where the printing process lives
------------------
     ethr =  4.82E-05,  avg # of iterations =  1.0

     total cpu time spent up to now is     1884.0 secs

     total energy              =   -1181.97077081 Ry
     estimated scf accuracy    <       1.33171617 Ry

     iteration # 88     ecut=    80.00 Ry     beta= 0.40
     Davidson diagonalization with overlap

---- Real-time Memory Report at c_bands before calling an iterative solver
           400 MiB given to the printing process from OS
             0 MiB allocation reported by mallinfo(arena+hblkhd)
         43651 MiB available memory on the node where the printing process lives
------------------
     ethr =  4.82E-05,  avg # of iterations =  1.0

     total cpu time spent up to now is     1904.3 secs

     total energy              =   -1181.96851136 Ry
     estimated scf accuracy    <       0.37410404 Ry

     iteration # 89     ecut=    80.00 Ry     beta= 0.40
     Davidson diagonalization with overlap

---- Real-time Memory Report at c_bands before calling an iterative solver
           400 MiB given to the printing process from OS
             0 MiB allocation reported by mallinfo(arena+hblkhd)
         43998 MiB available memory on the node where the printing process lives
------------------
     ethr =  4.82E-05,  avg # of iterations =  1.0

     total cpu time spent up to now is     1923.9 secs

     total energy              =   -1181.97020704 Ry
     estimated scf accuracy    <       0.00518920 Ry

     iteration # 90     ecut=    80.00 Ry     beta= 0.40
     Davidson diagonalization with overlap

---- Real-time Memory Report at c_bands before calling an iterative solver
           400 MiB given to the printing process from OS
             0 MiB allocation reported by mallinfo(arena+hblkhd)
         44070 MiB available memory on the node where the printing process lives
------------------
     ethr =  1.13E-05,  avg # of iterations =  1.0

     total cpu time spent up to now is     1944.4 secs

     total energy              =   -1181.97019026 Ry
     estimated scf accuracy    <       0.00186988 Ry

     iteration # 91     ecut=    80.00 Ry     beta= 0.40
     Davidson diagonalization with overlap

---- Real-time Memory Report at c_bands before calling an iterative solver
           400 MiB given to the printing process from OS
             0 MiB allocation reported by mallinfo(arena+hblkhd)
         43703 MiB available memory on the node where the printing process lives
------------------
     ethr =  4.06E-06,  avg # of iterations =  1.0

     total cpu time spent up to now is     1964.6 secs

     total energy              =   -1181.97018230 Ry
     estimated scf accuracy    <       0.00051644 Ry

     iteration # 92     ecut=    80.00 Ry     beta= 0.40
     Davidson diagonalization with overlap

---- Real-time Memory Report at c_bands before calling an iterative solver
           400 MiB given to the printing process from OS
             0 MiB allocation reported by mallinfo(arena+hblkhd)
         43667 MiB available memory on the node where the printing process lives
------------------
     ethr =  1.12E-06,  avg # of iterations =  1.0

     total cpu time spent up to now is     1985.5 secs

     total energy              =   -1181.97018778 Ry
     estimated scf accuracy    <       0.00000195 Ry

     iteration # 93     ecut=    80.00 Ry     beta= 0.40
     Davidson diagonalization with overlap

---- Real-time Memory Report at c_bands before calling an iterative solver
           400 MiB given to the printing process from OS
             0 MiB allocation reported by mallinfo(arena+hblkhd)
         44086 MiB available memory on the node where the printing process lives
------------------
     ethr =  4.24E-09,  avg # of iterations =  2.3

     total cpu time spent up to now is     2012.2 secs

     total energy              =   -1181.97018732 Ry
     estimated scf accuracy    <       0.00004294 Ry

     iteration # 94     ecut=    80.00 Ry     beta= 0.40
     Davidson diagonalization with overlap

---- Real-time Memory Report at c_bands before calling an iterative solver
           400 MiB given to the printing process from OS
             0 MiB allocation reported by mallinfo(arena+hblkhd)
         43784 MiB available memory on the node where the printing process lives
------------------
     ethr =  4.24E-09,  avg # of iterations =  2.0

     total cpu time spent up to now is     2037.5 secs

     total energy              =   -1181.97018708 Ry
     estimated scf accuracy    <       0.00002042 Ry

     iteration # 95     ecut=    80.00 Ry     beta= 0.40
     Davidson diagonalization with overlap

---- Real-time Memory Report at c_bands before calling an iterative solver
           400 MiB given to the printing process from OS
             0 MiB allocation reported by mallinfo(arena+hblkhd)
         43738 MiB available memory on the node where the printing process lives
------------------
     ethr =  4.24E-09,  avg # of iterations =  2.0

     total cpu time spent up to now is     2061.9 secs

     total energy              =   -1181.97018731 Ry
     estimated scf accuracy    <       0.00000007 Ry

     iteration # 96     ecut=    80.00 Ry     beta= 0.40
     Davidson diagonalization with overlap

---- Real-time Memory Report at c_bands before calling an iterative solver
           400 MiB given to the printing process from OS
             0 MiB allocation reported by mallinfo(arena+hblkhd)
         43749 MiB available memory on the node where the printing process lives
------------------
     ethr =  1.62E-10,  avg # of iterations =  2.1

     total cpu time spent up to now is     2086.8 secs

     total energy              =   -1181.97018732 Ry
     estimated scf accuracy    <       0.00000005 Ry

     iteration # 97     ecut=    80.00 Ry     beta= 0.40
     Davidson diagonalization with overlap

---- Real-time Memory Report at c_bands before calling an iterative solver
           400 MiB given to the printing process from OS
             0 MiB allocation reported by mallinfo(arena+hblkhd)
         43795 MiB available memory on the node where the printing process lives
------------------
     ethr =  1.15E-10,  avg # of iterations =  1.0

     total cpu time spent up to now is     2107.0 secs

     total energy              =   -1181.97018732 Ry
     estimated scf accuracy    <       0.00000002 Ry

     iteration # 98     ecut=    80.00 Ry     beta= 0.40
     Davidson diagonalization with overlap

---- Real-time Memory Report at c_bands before calling an iterative solver
           400 MiB given to the printing process from OS
             0 MiB allocation reported by mallinfo(arena+hblkhd)
         43717 MiB available memory on the node where the printing process lives
------------------
     ethr =  4.81E-11,  avg # of iterations =  2.0

     total cpu time spent up to now is     2132.1 secs

     End of self-consistent calculation

          k = 0.0000 0.0000 0.0000 ( 19093 PWs)   bands (ev):

   -86.0475 -52.2160 -52.2160 -52.2160 -23.8787 -12.7577 -12.6515 -12.6515
    -8.2703  -8.2703  -8.2703  -0.9070  -0.9070  -0.9070  -0.5529  -0.5529
    -0.5529  -0.2150  -0.2150  -0.2087  -0.2087  -0.2087  -0.0978  -0.0978
    -0.0978   0.4691   5.7963   5.7963

     occupation numbers 
     1.0000   1.0000   1.0000   1.0000   1.0000   1.0000   1.0000   1.0000
     1.0000   1.0000   1.0000   1.0000   1.0000   1.0000   1.0000   1.0000
     1.0000   0.9233   0.9233   0.9028   0.9028   0.9028   0.1569   0.1569
     0.1569   0.0000   0.0000   0.0000

          k = 0.0000 0.0000 0.1250 ( 19133 PWs)   bands (ev):

   -86.0475 -52.2160 -52.2160 -52.2160 -23.8785 -12.7589 -12.6645 -12.6514
    -8.2697  -8.2697  -8.2212  -0.9530  -0.8992  -0.8992  -0.5774  -0.5750
    -0.5750  -0.2579  -0.2132  -0.2086  -0.1984  -0.1950  -0.1950  -0.1063
    -0.1063   0.5894   5.3857   5.7129

     occupation numbers 
     1.0000   1.0000   1.0000   1.0000   1.0000   1.0000   1.0000   1.0000
     1.0000   1.0000   1.0000   1.0000   1.0000   1.0000   1.0000   1.0000
     1.0000   0.9898   0.9179   0.9025   0.8608   0.8443   0.8443   0.2030
     0.2030   0.0000   0.0000   0.0000

          k = 0.0000 0.0000 0.2500 ( 19105 PWs)   bands (ev):

   -86.0475 -52.2160 -52.2160 -52.2160 -23.8781 -12.7639 -12.6930 -12.6510
    -8.2683  -8.2683  -8.1004  -1.0471  -0.8754  -0.8754  -0.6302  -0.6302
    -0.6289  -0.5920  -0.2089  -0.2083  -0.1708  -0.1708  -0.1659  -0.1205
    -0.1205   0.8337   4.7859   5.5553

     occupation numbers 
     1.0000   1.0000   1.0000   1.0000   1.0000   1.0000   1.0000   1.0000
     1.0000   1.0000   1.0000   1.0000   1.0000   1.0000   1.0000   1.0000
     1.0000   1.0000   0.9033   0.9013   0.6944   0.6944   0.6583   0.2955
     0.2955   0.0000   0.0000   0.0000

          k = 0.0000 0.0000 0.3750 ( 19085 PWs)   bands (ev):

   -86.0475 -52.2160 -52.2160 -52.2159 -23.8777 -12.7743 -12.7150 -12.6507
    -8.2668  -8.2668  -7.9761  -1.1146  -0.9082  -0.8358  -0.8358  -0.6984
    -0.6984  -0.6735  -0.2080  -0.2045  -0.1695  -0.1695  -0.1400  -0.1137
    -0.1137   1.0670   4.3313   5.4293

     occupation numbers 
     1.0000   1.0000   1.0000   1.0000   1.0000   1.0000   1.0000   1.0000
     1.0000   1.0000   1.0000   1.0000   1.0000   1.0000   1.0000   1.0000
     1.0000   1.0000   0.9003   0.8869   0.6852   0.6852   0.4477   0.2487
     0.2487   0.0000   0.0000   0.0000

          k = 0.0000 0.0000-0.5000 ( 19066 PWs)   bands (ev):

   -86.0475 -52.2160 -52.2160 -52.2159 -23.8775 -12.7810 -12.7215 -12.6506
    -8.2662  -8.2662  -7.9233  -1.1057  -1.0682  -0.7980  -0.7980  -0.7475
    -0.7475  -0.6906  -0.2079  -0.2027  -0.1746  -0.1746  -0.1305  -0.1056
    -0.1056   1.1667   4.1577   5.3827

     occupation numbers 
     1.0000   1.0000   1.0000   1.0000   1.0000   1.0000   1.0000   1.0000
     1.0000   1.0000   1.0000   1.0000   1.0000   1.0000   1.0000   1.0000
     1.0000   1.0000   0.8998   0.8795   0.7216   0.7216   0.3714   0.1985
     0.1985   0.0000   0.0000   0.0000

          k = 0.0000 0.1250 0.1250 ( 19143 PWs)   bands (ev):

   -86.0475 -52.2160 -52.2160 -52.2160 -23.8784 -12.7600 -12.6711 -12.6577
    -8.2691  -8.2216  -8.2196  -1.0086  -0.8920  -0.8798  -0.6451  -0.5948
    -0.5389  -0.3210  -0.2082  -0.2040  -0.1997  -0.1913  -0.1907  -0.1746
    -0.1158   0.6819   5.2333   5.5275

     occupation numbers 
     1.0000   1.0000   1.0000   1.0000   1.0000   1.0000   1.0000   1.0000
     1.0000   1.0000   1.0000   1.0000   1.0000   1.0000   1.0000   1.0000
     1.0000   0.9999   0.9008   0.8850   0.8665   0.8251   0.8220   0.7218
     0.2630   0.0000   0.0000   0.0000

          k = 0.0000 0.1250 0.2500 ( 19133 PWs)   bands (ev):

   -86.0475 -52.2160 -52.2160 -52.2160 -23.8779 -12.7643 -12.6978 -12.6597
    -8.2677  -8.2192  -8.0999  -1.1023  -0.8699  -0.8608  -0.7303  -0.6447
    -0.6072  -0.5287  -0.2374  -0.2045  -0.1969  -0.1820  -0.1702  -0.1494
    -0.1317   0.8834   4.7827   5.3950

     occupation numbers 
     1.0000   1.0000   1.0000   1.0000   1.0000   1.0000   1.0000   1.0000
     1.0000   1.0000   1.0000   1.0000   1.0000   1.0000   1.0000   1.0000
     1.0000   1.0000   0.9709   0.8870   0.8537   0.7712   0.6903   0.5256
     0.3809   0.0000   0.0000   0.0000

          k = 0.0000 0.1250 0.3750 ( 19068 PWs)   bands (ev):

   -86.0475 -52.2160 -52.2160 -52.2160 -23.8775 -12.7742 -12.7200 -12.6598
    -8.2662  -8.2178  -7.9756  -1.1682  -0.9484  -0.8329  -0.8290  -0.7626
    -0.7074  -0.5443  -0.2608  -0.1998  -0.1963  -0.1753  -0.1538  -0.1329
    -0.1212   1.0791   4.3959   5.3116

     occupation numbers 
     1.0000   1.0000   1.0000   1.0000   1.0000   1.0000   1.0000   1.0000
     1.0000   1.0000   1.0000   1.0000   1.0000   1.0000   1.0000   1.0000
     1.0000   1.0000   0.9914   0.8671   0.8506   0.7266   0.5621   0.3904
     0.3012   0.0000   0.0000   0.0000

          k = 0.0000 0.1250-0.5000 ( 19080 PWs)   bands (ev):

   -86.0475 -52.2160 -52.2160 -52.2159 -23.8773 -12.7808 -12.7264 -12.6597
    -8.2656  -8.2172  -7.9229  -1.1738  -1.0820  -0.8101  -0.8038  -0.7966
    -0.7539  -0.5512  -0.2702  -0.1979  -0.1960  -0.1827  -0.1345  -0.1344
    -0.1120   1.1620   4.2473   5.2796

     occupation numbers 
     1.0000   1.0000   1.0000   1.0000   1.0000   1.0000   1.0000   1.0000
     1.0000   1.0000   1.0000   1.0000   1.0000   1.0000   1.0000   1.0000
     1.0000   1.0000   0.9950   0.8584   0.8491   0.7751   0.4032   0.4023
     0.2377   0.0000   0.0000   0.0000

          k = 0.0000 0.2500 0.2500 ( 19129 PWs)   bands (ev):

   -86.0475 -52.2160 -52.2160 -52.2160 -23.8775 -12.7666 -12.7172 -12.6710
    -8.2662  -8.1006  -8.0965  -1.2061  -0.8529  -0.8466  -0.8411  -0.6821
    -0.6743  -0.4959  -0.3872  -0.2019  -0.1845  -0.1753  -0.1593  -0.1539
    -0.1475   0.9968   4.7125   5.1647

     occupation numbers 
     1.0000   1.0000   1.0000   1.0000   1.0000   1.0000   1.0000   1.0000
     1.0000   1.0000   1.0000   1.0000   1.0000   1.0000   1.0000   1.0000
     1.0000   1.0000   1.0000   0.8762   0.7867   0.7268   0.6067   0.5632
     0.5096   0.0000   0.0000   0.0000

          k = 0.0000 0.2500 0.3750 ( 19075 PWs)   bands (ev):

   -86.0475 -52.2160 -52.2160 -52.2160 -23.8771 -12.7740 -12.7382 -12.6746
    -8.2648  -8.0973  -7.9744  -1.2850  -1.0320  -0.8274  -0.8239  -0.7722
    -0.7301  -0.5059  -0.4044  -0.1980  -0.1940  -0.1663  -0.1637  -0.1441
    -0.1330   1.1064   4.5523   5.0839

     occupation numbers 
     1.0000   1.0000   1.0000   1.0000   1.0000   1.0000   1.0000   1.0000
     1.0000   1.0000   1.0000   1.0000   1.0000   1.0000   1.0000   1.0000
     1.0000   1.0000   1.0000   0.8588   0.8396   0.6615   0.6416   0.4816
     0.3911   0.0000   0.0000   0.0000

          k = 0.0000 0.2500-0.5000 ( 19096 PWs)   bands (ev):

   -86.0475 -52.2160 -52.2160 -52.2160 -23.8769 -12.7802 -12.7442 -12.6752
    -8.2641  -8.0968  -7.9217  -1.3087  -1.1358  -0.8159  -0.8075  -0.7930
    -0.7686  -0.5061  -0.4060  -0.2070  -0.1853  -0.1679  -0.1671  -0.1384
    -0.1223   1.1516   4.4739   5.0710

     occupation numbers 
     1.0000   1.0000   1.0000   1.0000   1.0000   1.0000   1.0000   1.0000
     1.0000   1.0000   1.0000   1.0000   1.0000   1.0000   1.0000   1.0000
     1.0000   1.0000   1.0000   0.8965   0.7916   0.6734   0.6672   0.4347
     0.3092   0.0000   0.0000   0.0000

          k = 0.0000 0.3750 0.3750 ( 19098 PWs)   bands (ev):

   -86.0475 -52.2160 -52.2160 -52.2160 -23.8767 -12.7753 -12.7616 -12.6816
    -8.2633  -7.9743  -7.9721  -1.3810  -1.1631  -0.8263  -0.8083  -0.7677
    -0.7581  -0.6594  -0.3468  -0.2240  -0.1982  -0.1701  -0.1411  -0.1372
    -0.1313   1.1324   4.6955   4.9230

     occupation numbers 
     1.0000   1.0000   1.0000   1.0000   1.0000   1.0000   1.0000   1.0000
     1.0000   1.0000   1.0000   1.0000   1.0000   1.0000   1.0000   1.0000
     1.0000   1.0000   1.0000   0.9469   0.8598   0.6899   0.4568   0.4253
     0.3773   0.0000   0.0000   0.0000

          k = 0.0000 0.3750-0.5000 ( 19072 PWs)   bands (ev):

   -86.0475 -52.2160 -52.2160 -52.2159 -23.8765 -12.7797 -12.7684 -12.6833
    -8.2627  -7.9727  -7.9206  -1.4152  -1.2377  -0.8196  -0.7891  -0.7821
    -0.7791  -0.6945  -0.3303  -0.2356  -0.1930  -0.1852  -0.1408  -0.1281
    -0.1168   1.1430   4.7232   4.8998

     occupation numbers 
     1.0000   1.0000   1.0000   1.0000   1.0000   1.0000   1.0000   1.0000
     1.0000   1.0000   1.0000   1.0000   1.0000   1.0000   1.0000   1.0000
     1.0000   1.0000   0.9999   0.9683   0.8341   0.7904   0.4542   0.3523
     0.2699   0.0000   0.0000   0.0000

          k = 0.0000-0.5000-0.5000 ( 19072 PWs)   bands (ev):

   -86.0475 -52.2160 -52.2160 -52.2160 -23.8763 -12.7795 -12.7795 -12.6853
    -8.2621  -7.9201  -7.9201  -1.4541  -1.2981  -0.8085  -0.7874  -0.7874
    -0.7646  -0.7646  -0.3112  -0.2481  -0.2028  -0.1902  -0.1297  -0.1297
    -0.0994   1.1400   4.8366   4.8366

     occupation numbers 
     1.0000   1.0000   1.0000   1.0000   1.0000   1.0000   1.0000   1.0000
     1.0000   1.0000   1.0000   1.0000   1.0000   1.0000   1.0000   1.0000
     1.0000   1.0000   0.9997   0.9828   0.8800   0.8194   0.3653   0.3653
     0.1647   0.0000   0.0000   0.0000

          k = 0.1250 0.1250 0.1250 ( 19111 PWs)   bands (ev):

   -86.0475 -52.2160 -52.2160 -52.2160 -23.8782 -12.7608 -12.6710 -12.6710
    -8.2220  -8.2191  -8.2191  -1.0520  -0.8829  -0.8829  -0.6496  -0.6496
    -0.5065  -0.3811  -0.2096  -0.2096  -0.2026  -0.2026  -0.1973  -0.1634
    -0.1634   0.7556   5.0845   5.5146

     occupation numbers 
     1.0000   1.0000   1.0000   1.0000   1.0000   1.0000   1.0000   1.0000
     1.0000   1.0000   1.0000   1.0000   1.0000   1.0000   1.0000   1.0000
     1.0000   1.0000   0.9058   0.9058   0.8790   0.8790   0.8555   0.6386
     0.6386   0.0000   0.0000   0.0000

          k = 0.1250 0.1250 0.2500 ( 19074 PWs)   bands (ev):

   -86.0475 -52.2160 -52.2160 -52.2160 -23.8778 -12.7647 -12.7004 -12.6706
    -8.2197  -8.2176  -8.0993  -1.1359  -0.8968  -0.8719  -0.7106  -0.7047
    -0.5918  -0.4956  -0.2684  -0.2224  -0.2078  -0.1901  -0.1893  -0.1582
    -0.1345   0.9215   4.7477   5.3192

     occupation numbers 
     1.0000   1.0000   1.0000   1.0000   1.0000   1.0000   1.0000   1.0000
     1.0000   1.0000   1.0000   1.0000   1.0000   1.0000   1.0000   1.0000
     1.0000   1.0000   0.9944   0.9433   0.8994   0.8188   0.8141   0.5981
     0.4035   0.0000   0.0000   0.0000

          k = 0.1250 0.1250 0.3750 ( 19088 PWs)   bands (ev):

   -86.0475 -52.2160 -52.2160 -52.2160 -23.8773 -12.7740 -12.7235 -12.6703
    -8.2182  -8.2162  -7.9751  -1.1969  -0.9621  -0.9214  -0.8655  -0.7372
    -0.6288  -0.5080  -0.3025  -0.2407  -0.2049  -0.1795  -0.1577  -0.1508
    -0.1202   1.0827   4.4483   5.1788

     occupation numbers 
     1.0000   1.0000   1.0000   1.0000   1.0000   1.0000   1.0000   1.0000
     1.0000   1.0000   1.0000   1.0000   1.0000   1.0000   1.0000   1.0000
     1.0000   1.0000   0.9994   0.9752   0.8886   0.7552   0.5938   0.5376
     0.2935   0.0000   0.0000   0.0000

          k = 0.1250 0.1250-0.5000 ( 19092 PWs)   bands (ev):

   -86.0475 -52.2160 -52.2160 -52.2160 -23.8772 -12.7805 -12.7301 -12.6701
    -8.2176  -8.2156  -7.9224  -1.2035  -1.0964  -0.9343  -0.8635  -0.7417
    -0.6302  -0.5164  -0.3164  -0.2480  -0.2038  -0.1761  -0.1462  -0.1386
    -0.1207   1.1500   4.3320   5.1274

     occupation numbers 
     1.0000   1.0000   1.0000   1.0000   1.0000   1.0000   1.0000   1.0000
     1.0000   1.0000   1.0000   1.0000   1.0000   1.0000   1.0000   1.0000
     1.0000   1.0000   0.9998   0.9828   0.8840   0.7322   0.4992   0.4367
     0.2970   0.0000   0.0000   0.0000

          k = 0.1250 0.2500 0.2500 ( 19105 PWs)   bands (ev):

   -86.0475 -52.2160 -52.2160 -52.2160 -23.8773 -12.7668 -12.7170 -12.6848
    -8.2173  -8.1001  -8.0960  -1.2151  -0.9410  -0.9029  -0.8032  -0.6701
    -0.6654  -0.4549  -0.3902  -0.2602  -0.2020  -0.1940  -0.1836  -0.1391
    -0.1314   1.0080   4.6523   5.2056

     occupation numbers 
     1.0000   1.0000   1.0000   1.0000   1.0000   1.0000   1.0000   1.0000
     1.0000   1.0000   1.0000   1.0000   1.0000   1.0000   1.0000   1.0000
     1.0000   1.0000   1.0000   0.9911   0.8767   0.8395   0.7808   0.4404
     0.3786   0.0000   0.0000   0.0000

          k = 0.1250 0.2500 0.3750 ( 19096 PWs)   bands (ev):

   -86.0475 -52.2160 -52.2160 -52.2160 -23.8769 -12.7739 -12.7387 -12.6880
    -8.2158  -8.0968  -7.9739  -1.2820  -1.0493  -0.9566  -0.9153  -0.7010
    -0.6230  -0.4910  -0.3993  -0.2845  -0.1984  -0.1804  -0.1629  -0.1425
    -0.1239   1.0885   4.5716   5.0529

     occupation numbers 
     1.0000   1.0000   1.0000   1.0000   1.0000   1.0000   1.0000   1.0000
     1.0000   1.0000   1.0000   1.0000   1.0000   1.0000   1.0000   1.0000
     1.0000   1.0000   1.0000   0.9980   0.8606   0.7607   0.6348   0.4688
     0.3209   0.0000   0.0000   0.0000

          k = 0.1250 0.2500-0.5000 ( 19104 PWs)   bands (ev):

   -86.0475 -52.2160 -52.2160 -52.2160 -23.8767 -12.7800 -12.7450 -12.6884
    -8.2153  -8.0962  -7.9213  -1.3006  -1.1517  -0.9844  -0.9196  -0.7044
    -0.5944  -0.5180  -0.3983  -0.2944  -0.1960  -0.1705  -0.1548  -0.1401
    -0.1269   1.1203   4.5494   4.9746

     occupation numbers 
     1.0000   1.0000   1.0000   1.0000   1.0000   1.0000   1.0000   1.0000
     1.0000   1.0000   1.0000   1.0000   1.0000   1.0000   1.0000   1.0000
     1.0000   1.0000   1.0000   0.9990   0.8493   0.6927   0.5699   0.4484
     0.3431   0.0000   0.0000   0.0000

          k = 0.1250 0.3750 0.3750 ( 19082 PWs)   bands (ev):

   -86.0475 -52.2160 -52.2160 -52.2160 -23.8765 -12.7752 -12.7614 -12.6957
    -8.2144  -7.9738  -7.9717  -1.3659  -1.1789  -0.9650  -0.9552  -0.7379
    -0.6257  -0.5572  -0.3387  -0.3173  -0.1985  -0.1775  -0.1570  -0.1361
    -0.1194   1.0902   4.7012   4.9870

     occupation numbers 
     1.0000   1.0000   1.0000   1.0000   1.0000   1.0000   1.0000   1.0000
     1.0000   1.0000   1.0000   1.0000   1.0000   1.0000   1.0000   1.0000
     1.0000   1.0000   1.0000   0.9998   0.8611   0.7418   0.5883   0.4158
     0.2880   0.0000   0.0000   0.0000

          k = 0.1250 0.3750-0.5000 ( 19060 PWs)   bands (ev):

   -86.0475 -52.2160 -52.2160 -52.2159 -23.8763 -12.7795 -12.7683 -12.6974
    -8.2139  -7.9722  -7.9201  -1.3967  -1.2530  -0.9803  -0.9588  -0.7650
    -0.5909  -0.5847  -0.3321  -0.3224  -0.1939  -0.1877  -0.1463  -0.1309
    -0.1171   1.0898   4.7940   4.9090

     occupation numbers 
     1.0000   1.0000   1.0000   1.0000   1.0000   1.0000   1.0000   1.0000
     1.0000   1.0000   1.0000   1.0000   1.0000   1.0000   1.0000   1.0000
     1.0000   1.0000   0.9999   0.9999   0.8390   0.8052   0.5002   0.3743
     0.2721   0.0000   0.0000   0.0000

          k = 0.1250-0.5000-0.5000 ( 19072 PWs)   bands (ev):

   -86.0475 -52.2160 -52.2160 -52.2160 -23.8761 -12.7793 -12.7793 -12.6994
    -8.2133  -7.9197  -7.9197  -1.4334  -1.3128  -0.9745  -0.9745  -0.8079
    -0.5802  -0.5802  -0.3510  -0.3032  -0.2034  -0.1908  -0.1323  -0.1323
    -0.1074   1.0770   4.9073   4.9073

     occupation numbers 
     1.0000   1.0000   1.0000   1.0000   1.0000   1.0000   1.0000   1.0000
     1.0000   1.0000   1.0000   1.0000   1.0000   1.0000   1.0000   1.0000
     1.0000   1.0000   1.0000   0.9994   0.8825   0.8224   0.3852   0.3852
     0.2095   0.0000   0.0000   0.0000

          k = 0.2500 0.2500 0.2500 ( 19084 PWs)   bands (ev):

   -86.0475 -52.2160 -52.2160 -52.2160 -23.8769 -12.7682 -12.7166 -12.7166
    -8.1009  -8.0947  -8.0947  -1.2502  -1.0096  -1.0096  -0.8855  -0.6539
    -0.6539  -0.3978  -0.3978  -0.3902  -0.2034  -0.2034  -0.1917  -0.1215
    -0.1215   1.0288   4.5883   5.3049

     occupation numbers 
     1.0000   1.0000   1.0000   1.0000   1.0000   1.0000   1.0000   1.0000
     1.0000   1.0000   1.0000   1.0000   1.0000   1.0000   1.0000   1.0000
     1.0000   1.0000   1.0000   1.0000   0.8823   0.8823   0.8275   0.3034
     0.3034   0.0000   0.0000   0.0000

          k = 0.2500 0.2500 0.3750 ( 19083 PWs)   bands (ev):

   -86.0475 -52.2160 -52.2160 -52.2160 -23.8765 -12.7737 -12.7433 -12.7162
    -8.0976  -8.0934  -7.9727  -1.2928  -1.1020  -1.0918  -1.0199  -0.6403
    -0.6322  -0.4506  -0.4034  -0.3623  -0.2034  -0.1872  -0.1828  -0.1234
    -0.1213   1.0407   4.6383   5.1051

     occupation numbers 
     1.0000   1.0000   1.0000   1.0000   1.0000   1.0000   1.0000   1.0000
     1.0000   1.0000   1.0000   1.0000   1.0000   1.0000   1.0000   1.0000
     1.0000   1.0000   1.0000   1.0000   0.8824   0.8025   0.7763   0.3167
     0.3020   0.0000   0.0000   0.0000

          k = 0.2500 0.2500-0.5000 ( 19048 PWs)   bands (ev):

   -86.0475 -52.2160 -52.2160 -52.2159 -23.8763 -12.7796 -12.7504 -12.7161
    -8.0971  -8.0929  -7.9201  -1.3003  -1.2096  -1.1220  -1.0266  -0.6345
    -0.6180  -0.4652  -0.4058  -0.3590  -0.2025  -0.1812  -0.1578  -0.1336
    -0.1278   1.0428   4.7500   4.9323

     occupation numbers 
     1.0000   1.0000   1.0000   1.0000   1.0000   1.0000   1.0000   1.0000
     1.0000   1.0000   1.0000   1.0000   1.0000   1.0000   1.0000   1.0000
     1.0000   1.0000   1.0000   1.0000   0.8786   0.7660   0.5943   0.3961
     0.3502   0.0000   0.0000   0.0000

          k = 0.2500 0.3750 0.3750 ( 19052 PWs)   bands (ev):

   -86.0475 -52.2160 -52.2160 -52.2159 -23.8761 -12.7749 -12.7610 -12.7290
    -8.0943  -7.9726  -7.9705  -1.3342  -1.2304  -1.1187  -1.1079  -0.7328
    -0.6010  -0.4287  -0.4193  -0.3112  -0.1994  -0.1905  -0.1838  -0.1298
    -0.1166   0.9866   4.7851   5.1606

     occupation numbers 
     1.0000   1.0000   1.0000   1.0000   1.0000   1.0000   1.0000   1.0000
     1.0000   1.0000   1.0000   1.0000   1.0000   1.0000   1.0000   1.0000
     1.0000   1.0000   1.0000   0.9997   0.8654   0.8211   0.7821   0.3656
     0.2688   0.0000   0.0000   0.0000

          k = 0.2500 0.3750-0.5000 ( 19060 PWs)   bands (ev):

   -86.0475 -52.2160 -52.2160 -52.2159 -23.8759 -12.7791 -12.7681 -12.7305
    -8.0937  -7.9711  -7.9190  -1.3505  -1.3081  -1.1495  -1.1104  -0.7623
    -0.5870  -0.4245  -0.4177  -0.2979  -0.1974  -0.1945  -0.1621  -0.1399
    -0.1203   0.9624   4.9883   5.0074

     occupation numbers 
     1.0000   1.0000   1.0000   1.0000   1.0000   1.0000   1.0000   1.0000
     1.0000   1.0000   1.0000   1.0000   1.0000   1.0000   1.0000   1.0000
     1.0000   1.0000   1.0000   0.9992   0.8559   0.8420   0.6286   0.4467
     0.2948   0.0000   0.0000   0.0000

          k = 0.2500-0.5000-0.5000 ( 19072 PWs)   bands (ev):

   -86.0475 -52.2160 -52.2160 -52.2160 -23.8757 -12.7789 -12.7789 -12.7327
    -8.0932  -7.9185  -7.9185  -1.3805  -1.3651  -1.1436  -1.1436  -0.8064
    -0.5719  -0.4148  -0.4148  -0.2806  -0.2064  -0.1926  -0.1422  -0.1422
    -0.1303   0.9282   5.1039   5.1039

     occupation numbers 
     1.0000   1.0000   1.0000   1.0000   1.0000   1.0000   1.0000   1.0000
     1.0000   1.0000   1.0000   1.0000   1.0000   1.0000   1.0000   1.0000
     1.0000   1.0000   1.0000   0.9974   0.8944   0.8319   0.4657   0.4657
     0.3700   0.0000   0.0000   0.0000

          k = 0.3750 0.3750 0.3750 ( 19081 PWs)   bands (ev):

   -86.0475 -52.2160 -52.2160 -52.2160 -23.8756 -12.7753 -12.7605 -12.7605
    -7.9726  -7.9693  -7.9693  -1.3553  -1.2824  -1.2134  -1.2134  -0.7299
    -0.7299  -0.3563  -0.3563  -0.2671  -0.2008  -0.2005  -0.2005  -0.1308
    -0.1308   0.8804   4.9790   5.3729

     occupation numbers 
     1.0000   1.0000   1.0000   1.0000   1.0000   1.0000   1.0000   1.0000
     1.0000   1.0000   1.0000   1.0000   1.0000   1.0000   1.0000   1.0000
     1.0000   1.0000   1.0000   0.9940   0.8716   0.8699   0.8699   0.3737
     0.3737   0.0000   0.0000   0.0000

          k = 0.3750 0.3750-0.5000 ( 19094 PWs)   bands (ev):

   -86.0475 -52.2160 -52.2160 -52.2160 -23.8755 -12.7786 -12.7702 -12.7603
    -7.9710  -7.9688  -7.9179  -1.4004  -1.3114  -1.2507  -1.2178  -0.7730
    -0.7288  -0.3331  -0.3264  -0.2578  -0.2033  -0.2015  -0.1790  -0.1556
    -0.1342   0.8354   5.1983   5.2324

     occupation numbers 
     1.0000   1.0000   1.0000   1.0000   1.0000   1.0000   1.0000   1.0000
     1.0000   1.0000   1.0000   1.0000   1.0000   1.0000   1.0000   1.0000
     1.0000   0.9999   0.9999   0.9898   0.8821   0.8743   0.7518   0.5766
     0.4011   0.0000   0.0000   0.0000

          k = 0.3750-0.5000-0.5000 ( 19092 PWs)   bands (ev):

   -86.0475 -52.2160 -52.2160 -52.2160 -23.8753 -12.7784 -12.7784 -12.7651
    -7.9694  -7.9174  -7.9174  -1.4530  -1.3224  -1.2567  -1.2567  -0.8049
    -0.7473  -0.2925  -0.2925  -0.2468  -0.2097  -0.1956  -0.1658  -0.1658
    -0.1643   0.7826   5.3580   5.3580

     occupation numbers 
     1.0000   1.0000   1.0000   1.0000   1.0000   1.0000   1.0000   1.0000
     1.0000   1.0000   1.0000   1.0000   1.0000   1.0000   1.0000   1.0000
     1.0000   0.9988   0.9988   0.9817   0.9062   0.8471   0.6575   0.6575
     0.6462   0.0000   0.0000   0.0000

          k =-0.5000-0.5000-0.5000 ( 19208 PWs)   bands (ev):

   -86.0476 -52.2161 -52.2161 -52.2161 -23.8751 -12.7782 -12.7782 -12.7782
    -7.9170  -7.9170  -7.9170  -1.5029  -1.2964  -1.2964  -1.2964  -0.8043
    -0.8043  -0.2140  -0.2140  -0.2140  -0.2111  -0.2111  -0.2111  -0.1974
    -0.1974   0.7228   5.4933   5.4933

     occupation numbers 
     1.0000   1.0000   1.0000   1.0000   1.0000   1.0000   1.0000   1.0000
     1.0000   1.0000   1.0000   1.0000   1.0000   1.0000   1.0000   1.0000
     1.0000   0.9203   0.9203   0.9203   0.9111   0.9111   0.9111   0.8561
     0.8561   0.0000   0.0000   0.0000

     the Fermi energy is    -0.1463 ev

!    total energy              =   -1181.97018732 Ry
     total all-electron energy =    -24146.537534 Ry
     estimated scf accuracy    <          2.3E-09 Ry
     smearing contrib. (-TS)   =      -0.01203120 Ry
     internal energy E=F+TS    =   -1181.95815612 Ry

     The total energy is F=E-TS. E is the sum of the following terms:
     one-electron contribution =    -279.79431344 Ry
     hartree contribution      =     151.66904667 Ry
     xc contribution           =     -72.82843619 Ry
     ewald contribution        =    -189.18041910 Ry
     one-center paw contrib.   =    -791.82403406 Ry
      -> PAW hartree energy AE =      28.97494432 Ry
      -> PAW hartree energy PS =     -28.85952396 Ry
      -> PAW xc energy AE      =    -200.64226340 Ry
      -> PAW xc energy PS      =      18.46755103 Ry
      -> total E_H with PAW    =     151.78446703 Ry
      -> total E_XC with PAW   =    -255.00314857 Ry

     convergence has been achieved in  98 iterations

     Writing all to output data dir ./tmp/rbfebr3.save/ :
     XML data file, charge density, pseudopotentials, collected wavefunctions

     init_run     :     12.55s CPU     11.51s WALL (       1 calls)
     electrons    :   2320.14s CPU   2120.25s WALL (       1 calls)

     Called by init_run:
     wfcinit      :      7.47s CPU      6.41s WALL (       1 calls)
     wfcinit:atom :      0.12s CPU      0.07s WALL (       9 calls)
     wfcinit:wfcr :      6.45s CPU      5.79s WALL (       9 calls)
     potinit      :      1.37s CPU      1.48s WALL (       1 calls)
     hinit0       :      1.39s CPU      1.42s WALL (       1 calls)

     Called by electrons:
     c_bands      :   1654.26s CPU   1499.00s WALL (      98 calls)
     sum_band     :    467.80s CPU    407.27s WALL (      98 calls)
     v_of_rho     :     52.92s CPU     54.04s WALL (      99 calls)
     v_h          :      3.20s CPU      3.31s WALL (      99 calls)
     v_xc         :     49.72s CPU     50.73s WALL (      99 calls)
     newd         :    116.28s CPU    131.63s WALL (      99 calls)
     PAW_pot      :     14.60s CPU     14.72s WALL (      99 calls)
     mix_rho      :      5.63s CPU      5.74s WALL (      98 calls)

     Called by c_bands:
     init_us_2    :     35.76s CPU     28.19s WALL (    1773 calls)
     cegterg      :   1289.86s CPU   1177.72s WALL (     882 calls)

     Called by sum_band:
     sum_band:wei :      0.74s CPU      0.53s WALL (      98 calls)
     sum_band:loo :    280.34s CPU    230.85s WALL (      98 calls)
     sum_band:buf :      2.66s CPU      1.86s WALL (     882 calls)
     sum_band:ini :     18.04s CPU     12.64s WALL (     882 calls)
     sum_band:cal :     14.90s CPU      8.45s WALL (     882 calls)
     sum_band:bec :      0.06s CPU      0.05s WALL (     882 calls)
     addusdens    :    162.24s CPU    155.52s WALL (      98 calls)
                                        0.00s GPU  (      98 calls)
     addusd:skk   :      0.22s CPU      0.70s WALL (     294 calls)
                                        0.00s GPU  (     294 calls)

     Called by *egterg:
     cdiaghg      :     71.44s CPU     69.59s WALL (    2067 calls)
     cegterg:over :    103.11s CPU     63.09s WALL (    1185 calls)
     cegterg:upda :     33.88s CPU     25.12s WALL (    1185 calls)
     cegterg:last :     34.89s CPU     19.33s WALL (    1103 calls)
     h_psi        :    864.19s CPU    869.82s WALL (    2076 calls)
     s_psi        :     41.23s CPU     25.73s WALL (    2076 calls)
     g_psi        :      4.78s CPU      2.62s WALL (    1185 calls)

     Called by h_psi:
     h_psi:calbec :     55.65s CPU     64.49s WALL (    2076 calls)
     vloc_psi     :    750.17s CPU    761.13s WALL (    2076 calls)
     add_vuspsi   :     54.10s CPU     41.11s WALL (    2076 calls)

     General routines
     calbec       :     70.51s CPU     72.91s WALL (    2958 calls)
     fft          :     38.00s CPU     39.16s WALL (    1285 calls)
     ffts         :      2.54s CPU      2.25s WALL (     197 calls)
     fftw         :    742.84s CPU    732.78s WALL (  127092 calls)
     interpolate  :      5.08s CPU      5.30s WALL (      99 calls)

     Parallel routines

     PAW routines
     PAW_pot      :     14.60s CPU     14.72s WALL (      99 calls)
     PAW_symme    :      0.20s CPU      0.18s WALL (     197 calls)

     PWSCF        :  38m53.28s CPU  35m32.51s WALL


   This run was terminated on:  22:54: 0   1May2025            

=------------------------------------------------------------------------------=
   JOB DONE.
=------------------------------------------------------------------------------=
