
     Program PWSCF v.7.3.1 starts on 15May2025 at  8:57:49 

     This program is part of the open-source Quantum ESPRESSO suite
     for quantum simulation of materials; please cite
         "P. Giannozzi et al., J. Phys.:Condens. Matter 21 395502 (2009);
         "P. Giannozzi et al., J. Phys.:Condens. Matter 29 465901 (2017);
         "P. Giannozzi et al., J. Chem. Phys. 152 154105 (2020);
          URL http://www.quantum-espresso.org", 
     in publications or presentations arising from this work. More details at
     http://www.quantum-espresso.org/quote

     Parallel version (MPI), running on     8 processors

     MPI processes distributed on     1 nodes
     56834 MiB available memory on the printing compute node when the environment starts

     Waiting for input...
     Reading input from standard input

     Current dimensions of program PWSCF are:
     Max number of different atomic species (ntypx) = 10
     Max number of k-points (npk) = 120000
     Max angular momentum in pseudopotentials (lmaxx) =  4
     file Rb.pbe-spn-rrkjus_psl.1.0.0.UPF: wavefunction(s)  4S renormalized
     file Ni.pbe-spn-kjpaw_psl.1.0.0.UPF: wavefunction(s)  3P 3D renormalized
     file I.pbe-n-kjpaw_psl.1.0.0.UPF: wavefunction(s)  5S renormalized

     IMPORTANT: XC functional enforced from input :
     Exchange-correlation= PBE
                           (   1   4   3   4   0   0   0)
     Any further DFT definition will be discarded
     Please, verify this is what you really want

     Message from routine setup:
     using ibrav=0 with symmetry is DISCOURAGED, use correct ibrav instead

     K-points division:     npool     =       4
     R & G space division:  proc/nbgrp/npool/nimage =       2
     Subspace diagonalization in iterative solution of the eigenvalue problem:
     a serial algorithm will be used


     Parallelization info
     --------------------
     sticks:   dense  smooth     PW     G-vecs:    dense   smooth      PW
     Min        3454    1728    474               216454    76416   11070
     Max        3455    1729    475               216459    76419   11073
     Sum        6909    3457    949               432913   152835   22143

     Using Slab Decomposition



     bravais-lattice index     =            0
     lattice parameter (alat)  =      10.4221  a.u.
     unit-cell volume          =    1132.0615 (a.u.)^3
     number of atoms/cell      =            5
     number of atomic types    =            3
     number of electrons       =        48.00
     number of Kohn-Sham states=           29
     kinetic-energy cutoff     =     100.0000  Ry
     charge density cutoff     =     800.0000  Ry
     scf convergence threshold =      1.0E-12
     mixing beta               =       0.3000
     number of iterations used =            8  plain     mixing
     Exchange-correlation= PBE
                           (   1   4   3   4   0   0   0)

     celldm(1)=  10.422135  celldm(2)=   0.000000  celldm(3)=   0.000000
     celldm(4)=   0.000000  celldm(5)=   0.000000  celldm(6)=   0.000000

     crystal axes: (cart. coord. in units of alat)
               a(1) = (   1.000000   0.000000   0.000000 )  
               a(2) = (   0.000000   1.000000   0.000000 )  
               a(3) = (   0.000000   0.000000   1.000000 )  

     reciprocal axes: (cart. coord. in units 2 pi/alat)
               b(1) = (  1.000000  0.000000  0.000000 )  
               b(2) = (  0.000000  1.000000  0.000000 )  
               b(3) = (  0.000000  0.000000  1.000000 )  


     PseudoPot. # 1 for Rb read from file:
     /home/administrator/Downloads/BURAI/BURAI1.3/pseudopot/Rb.pbe-spn-rrkjus_psl.1.0.0.UPF
     MD5 check sum: 8db0524251f08d4bb5a0a04c31658078
     Pseudo is Ultrasoft + core correction, Zval =  9.0
     Generated using "atomic" code by A. Dal Corso  v.5.1.2
     Using radial grid of 1219 points,  6 beta functions with: 
                l(1) =   0
                l(2) =   0
                l(3) =   1
                l(4) =   1
                l(5) =   2
                l(6) =   2
     Q(r) pseudized with 0 coefficients 


     PseudoPot. # 2 for Ni read from file:
     /home/administrator/Downloads/BURAI/BURAI1.3/pseudopot/Ni.pbe-spn-kjpaw_psl.1.0.0.UPF
     MD5 check sum: ea56550a36ffb6c479804d371adbec59
     Pseudo is Projector augmented-wave + core cor, Zval = 18.0
     Generated using "atomic" code by A. Dal Corso  v.5.1.2
     Shape of augmentation charge: PSQ
     Using radial grid of 1195 points,  6 beta functions with: 
                l(1) =   0
                l(2) =   0
                l(3) =   1
                l(4) =   1
                l(5) =   2
                l(6) =   2
     Q(r) pseudized with 0 coefficients 


     PseudoPot. # 3 for I  read from file:
     /home/administrator/Downloads/BURAI/BURAI1.3/pseudopot/I.pbe-n-kjpaw_psl.1.0.0.UPF
     MD5 check sum: e1b2a55c91904a364f23c37cb15bc296
     Pseudo is Projector augmented-wave + core cor, Zval =  7.0
     Generated using "atomic" code by A. Dal Corso  v.5.1.2
     Shape of augmentation charge: PSQ
     Using radial grid of 1247 points,  6 beta functions with: 
                l(1) =   0
                l(2) =   0
                l(3) =   1
                l(4) =   1
                l(5) =   2
                l(6) =   2
     Q(r) pseudized with 0 coefficients 


     atomic species   valence    mass     pseudopotential
     Rb                9.00    85.46780     Rb( 1.00)
     Ni               18.00    58.69340     Ni( 1.00)
     I                 7.00   126.90450     I ( 1.00)

     48 Sym. Ops., with inversion, found



   Cartesian axes

     site n.     atom                  positions (alat units)
         1        Rb     tau(   1) = (   0.0000000   0.0000000   0.0000000  )
         2        Ni     tau(   2) = (   0.5000000   0.5000000   0.5000000  )
         3        I      tau(   3) = (   0.5000000   0.5000000   0.0000000  )
         4        I      tau(   4) = (   0.5000000   0.0000000   0.5000000  )
         5        I      tau(   5) = (   0.0000000   0.5000000   0.5000000  )

     number of k points=    35  Gaussian smearing, width (Ry)=  0.0050
                       cart. coord. in units 2pi/alat
        k(    1) = (   0.0000000   0.0000000   0.0000000), wk =   0.0039062
        k(    2) = (   0.0000000   0.0000000   0.1250000), wk =   0.0234375
        k(    3) = (   0.0000000   0.0000000   0.2500000), wk =   0.0234375
        k(    4) = (   0.0000000   0.0000000   0.3750000), wk =   0.0234375
        k(    5) = (   0.0000000   0.0000000  -0.5000000), wk =   0.0117188
        k(    6) = (   0.0000000   0.1250000   0.1250000), wk =   0.0468750
        k(    7) = (   0.0000000   0.1250000   0.2500000), wk =   0.0937500
        k(    8) = (   0.0000000   0.1250000   0.3750000), wk =   0.0937500
        k(    9) = (   0.0000000   0.1250000  -0.5000000), wk =   0.0468750
        k(   10) = (   0.0000000   0.2500000   0.2500000), wk =   0.0468750
        k(   11) = (   0.0000000   0.2500000   0.3750000), wk =   0.0937500
        k(   12) = (   0.0000000   0.2500000  -0.5000000), wk =   0.0468750
        k(   13) = (   0.0000000   0.3750000   0.3750000), wk =   0.0468750
        k(   14) = (   0.0000000   0.3750000  -0.5000000), wk =   0.0468750
        k(   15) = (   0.0000000  -0.5000000  -0.5000000), wk =   0.0117188
        k(   16) = (   0.1250000   0.1250000   0.1250000), wk =   0.0312500
        k(   17) = (   0.1250000   0.1250000   0.2500000), wk =   0.0937500
        k(   18) = (   0.1250000   0.1250000   0.3750000), wk =   0.0937500
        k(   19) = (   0.1250000   0.1250000  -0.5000000), wk =   0.0468750
        k(   20) = (   0.1250000   0.2500000   0.2500000), wk =   0.0937500
        k(   21) = (   0.1250000   0.2500000   0.3750000), wk =   0.1875000
        k(   22) = (   0.1250000   0.2500000  -0.5000000), wk =   0.0937500
        k(   23) = (   0.1250000   0.3750000   0.3750000), wk =   0.0937500
        k(   24) = (   0.1250000   0.3750000  -0.5000000), wk =   0.0937500
        k(   25) = (   0.1250000  -0.5000000  -0.5000000), wk =   0.0234375
        k(   26) = (   0.2500000   0.2500000   0.2500000), wk =   0.0312500
        k(   27) = (   0.2500000   0.2500000   0.3750000), wk =   0.0937500
        k(   28) = (   0.2500000   0.2500000  -0.5000000), wk =   0.0468750
        k(   29) = (   0.2500000   0.3750000   0.3750000), wk =   0.0937500
        k(   30) = (   0.2500000   0.3750000  -0.5000000), wk =   0.0937500
        k(   31) = (   0.2500000  -0.5000000  -0.5000000), wk =   0.0234375
        k(   32) = (   0.3750000   0.3750000   0.3750000), wk =   0.0312500
        k(   33) = (   0.3750000   0.3750000  -0.5000000), wk =   0.0468750
        k(   34) = (   0.3750000  -0.5000000  -0.5000000), wk =   0.0234375
        k(   35) = (  -0.5000000  -0.5000000  -0.5000000), wk =   0.0039062

     Dense  grid:   432913 G-vectors     FFT dimensions: (  96,  96,  96)

     Smooth grid:   152835 G-vectors     FFT dimensions: (  72,  72,  72)

     Estimated max dynamical RAM per process >     353.29 MB

     Estimated total dynamical RAM >       2.45 GB

     Initial potential from superposition of free atoms

     starting charge      47.9767, renormalised to      48.0000
     Starting wfcs are   30 randomized atomic wfcs
     Checking if some PAW data can be deallocated... 

     total cpu time spent up to now is        9.6 secs

     Self-consistent Calculation

     iteration #  1     ecut=   100.00 Ry     beta= 0.30
     Davidson diagonalization with overlap
     ethr =  1.00E-02,  avg # of iterations =  5.9

     total cpu time spent up to now is       28.8 secs

     total energy              =   -1624.85590388 Ry
     estimated scf accuracy    <       1.08731436 Ry

     iteration #  2     ecut=   100.00 Ry     beta= 0.30
     Davidson diagonalization with overlap
     ethr =  2.27E-03,  avg # of iterations =  4.4

     total cpu time spent up to now is       47.3 secs

     total energy              =   -1624.92573830 Ry
     estimated scf accuracy    <       4.21003996 Ry

     iteration #  3     ecut=   100.00 Ry     beta= 0.30
     Davidson diagonalization with overlap
     ethr =  2.27E-03,  avg # of iterations =  3.6

     total cpu time spent up to now is       64.6 secs

     total energy              =   -1625.28740194 Ry
     estimated scf accuracy    <       0.04007556 Ry

     iteration #  4     ecut=   100.00 Ry     beta= 0.30
     Davidson diagonalization with overlap
     ethr =  8.35E-05,  avg # of iterations =  5.3

     total cpu time spent up to now is       83.9 secs

     total energy              =   -1625.29658770 Ry
     estimated scf accuracy    <       0.01274710 Ry

     iteration #  5     ecut=   100.00 Ry     beta= 0.30
     Davidson diagonalization with overlap
     ethr =  2.66E-05,  avg # of iterations =  4.3

     total cpu time spent up to now is      103.3 secs

     total energy              =   -1625.29623973 Ry
     estimated scf accuracy    <       0.14237321 Ry

     iteration #  6     ecut=   100.00 Ry     beta= 0.30
     Davidson diagonalization with overlap
     ethr =  2.66E-05,  avg # of iterations =  2.1

     total cpu time spent up to now is      119.3 secs

     total energy              =   -1625.28928752 Ry
     estimated scf accuracy    <       0.05602898 Ry

     iteration #  7     ecut=   100.00 Ry     beta= 0.30
     Davidson diagonalization with overlap
     ethr =  2.66E-05,  avg # of iterations =  3.5

     total cpu time spent up to now is      136.7 secs

     total energy              =   -1625.29345713 Ry
     estimated scf accuracy    <       0.00065052 Ry

     iteration #  8     ecut=   100.00 Ry     beta= 0.30
     Davidson diagonalization with overlap
     c_bands:  1 eigenvalues not converged
     c_bands:  1 eigenvalues not converged
     c_bands:  1 eigenvalues not converged
     ethr =  1.36E-06,  avg # of iterations =  7.5

     total cpu time spent up to now is      158.6 secs

     total energy              =   -1625.29330551 Ry
     estimated scf accuracy    <       0.00118945 Ry

     iteration #  9     ecut=   100.00 Ry     beta= 0.30
     Davidson diagonalization with overlap
     ethr =  1.36E-06,  avg # of iterations =  3.5

     total cpu time spent up to now is      176.3 secs

     total energy              =   -1625.29344195 Ry
     estimated scf accuracy    <       0.00091530 Ry

     iteration # 10     ecut=   100.00 Ry     beta= 0.30
     Davidson diagonalization with overlap
     ethr =  1.36E-06,  avg # of iterations =  2.1

     total cpu time spent up to now is      192.1 secs

     total energy              =   -1625.29357332 Ry
     estimated scf accuracy    <       0.00006925 Ry

     iteration # 11     ecut=   100.00 Ry     beta= 0.30
     Davidson diagonalization with overlap
     ethr =  1.44E-07,  avg # of iterations =  1.7

     total cpu time spent up to now is      207.6 secs

     total energy              =   -1625.29356915 Ry
     estimated scf accuracy    <       0.00004424 Ry

     iteration # 12     ecut=   100.00 Ry     beta= 0.30
     Davidson diagonalization with overlap
     ethr =  9.22E-08,  avg # of iterations =  1.1

     total cpu time spent up to now is      222.5 secs

     total energy              =   -1625.29357159 Ry
     estimated scf accuracy    <       0.00000294 Ry

     iteration # 13     ecut=   100.00 Ry     beta= 0.30
     Davidson diagonalization with overlap
     ethr =  6.13E-09,  avg # of iterations =  2.5

     total cpu time spent up to now is      238.9 secs

     total energy              =   -1625.29357172 Ry
     estimated scf accuracy    <       0.00000134 Ry

     iteration # 14     ecut=   100.00 Ry     beta= 0.30
     Davidson diagonalization with overlap
     ethr =  2.79E-09,  avg # of iterations =  1.7

     total cpu time spent up to now is      254.2 secs

     total energy              =   -1625.29357175 Ry
     estimated scf accuracy    <       0.00000023 Ry

     iteration # 15     ecut=   100.00 Ry     beta= 0.30
     Davidson diagonalization with overlap
     ethr =  4.78E-10,  avg # of iterations =  3.7

     total cpu time spent up to now is      271.3 secs

     total energy              =   -1625.29357179 Ry
     estimated scf accuracy    <          2.9E-10 Ry

     iteration # 16     ecut=   100.00 Ry     beta= 0.30
     Davidson diagonalization with overlap
     ethr =  6.02E-13,  avg # of iterations =  7.2

     total cpu time spent up to now is      299.5 secs

     total energy              =   -1625.29357180 Ry
     estimated scf accuracy    <          7.8E-09 Ry

     iteration # 17     ecut=   100.00 Ry     beta= 0.30
     Davidson diagonalization with overlap
     ethr =  6.02E-13,  avg # of iterations =  3.5

     total cpu time spent up to now is      317.7 secs

     total energy              =   -1625.29357180 Ry
     estimated scf accuracy    <          2.2E-09 Ry

     iteration # 18     ecut=   100.00 Ry     beta= 0.30
     Davidson diagonalization with overlap
     ethr =  6.02E-13,  avg # of iterations =  2.4

     total cpu time spent up to now is      334.2 secs

     total energy              =   -1625.29357180 Ry
     estimated scf accuracy    <          3.5E-10 Ry

     iteration # 19     ecut=   100.00 Ry     beta= 0.30
     Davidson diagonalization with overlap
     ethr =  6.02E-13,  avg # of iterations =  1.7

     total cpu time spent up to now is      349.2 secs

     total energy              =   -1625.29357180 Ry
     estimated scf accuracy    <          7.9E-11 Ry

     iteration # 20     ecut=   100.00 Ry     beta= 0.30
     Davidson diagonalization with overlap
     ethr =  1.65E-13,  avg # of iterations =  2.1

     total cpu time spent up to now is      365.1 secs

     total energy              =   -1625.29357180 Ry
     estimated scf accuracy    <          2.8E-11 Ry

     iteration # 21     ecut=   100.00 Ry     beta= 0.30
     Davidson diagonalization with overlap
     ethr =  1.00E-13,  avg # of iterations =  1.7

     total cpu time spent up to now is      380.5 secs

     total energy              =   -1625.29357180 Ry
     estimated scf accuracy    <          3.7E-12 Ry

     iteration # 22     ecut=   100.00 Ry     beta= 0.30
     Davidson diagonalization with overlap
     ethr =  1.00E-13,  avg # of iterations =  1.0

     total cpu time spent up to now is      395.3 secs

     End of self-consistent calculation

          k = 0.0000 0.0000 0.0000 ( 19213 PWs)   bands (ev):

   -97.4316 -57.8553 -57.8553 -57.8553 -21.1150  -7.7729  -6.6300  -6.6300
    -5.2250  -5.2250  -5.2250   1.3205   1.3205   1.3205   3.7700   3.7700
     3.7700   3.9506   3.9506   3.9506   4.0912   4.0912   4.3961   4.3961
     4.3961   6.1152   8.7682   9.4707   9.4707

          k = 0.0000 0.0000 0.1250 ( 19153 PWs)   bands (ev):

   -97.4316 -57.8553 -57.8553 -57.8553 -21.1149  -7.7431  -6.6747  -6.6281
    -5.2237  -5.2237  -5.2109   1.2934   1.3527   1.3527   3.5582   3.5582
     3.7074   3.8083   3.9514   4.0505   4.0505   4.0919   4.4280   4.4280
     4.4527   6.4481   9.0348   9.5988   9.6958

          k = 0.0000 0.0000 0.2500 ( 19185 PWs)   bands (ev):

   -97.4316 -57.8553 -57.8553 -57.8553 -21.1147  -7.6609  -6.7900  -6.6235
    -5.2207  -5.2207  -5.1806   1.2517   1.4404   1.4404   3.2409   3.2409
     3.3113   3.5668   3.9533   4.0930   4.0966   4.0966   4.4993   4.4994
     4.4994   7.2665   9.6301  10.0119  10.2970

          k = 0.0000 0.0000 0.3750 ( 19097 PWs)   bands (ev):

   -97.4316 -57.8552 -57.8552 -57.8552 -21.1145  -7.5536  -6.9270  -6.6189
    -5.2176  -5.2176  -5.1547   1.2473   1.5486   1.5486   2.8909   2.9692
     2.9692   3.4381   3.9553   4.0936   4.0955   4.0955   4.5232   4.5562
     4.5562   8.3543  10.1564  10.4756  10.8116

          k = 0.0000 0.0000-0.5000 ( 19066 PWs)   bands (ev):

   -97.4316 -57.8552 -57.8552 -57.8552 -21.1145  -7.4937  -6.9984  -6.6170
    -5.2164  -5.2164  -5.1452   1.2594   1.6031   1.6031   2.7226   2.8561
     2.8561   3.3877   3.9561   4.0909   4.0909   4.0939   4.5306   4.5759
     4.5759   9.2308  10.1046  10.4438  11.0336

          k = 0.0000 0.1250 0.1250 ( 19157 PWs)   bands (ev):

   -97.4316 -57.8553 -57.8553 -57.8553 -21.1148  -7.7132  -6.6936  -6.6495
    -5.2225  -5.2149  -5.2070   1.1591   1.3863   1.4895   3.2679   3.4706
     3.7548   3.7757   3.8046   3.8763   4.1538   4.1881   4.2885   4.4440
     4.7596   6.6868   9.2672   9.7678   9.8038

          k = 0.0000 0.1250 0.2500 ( 19145 PWs)   bands (ev):

   -97.4316 -57.8553 -57.8553 -57.8552 -21.1146  -7.6303  -6.7959  -6.6529
    -5.2195  -5.2119  -5.1823   1.0400   1.4778   1.6401   2.8389   3.2177
     3.4037   3.7254   3.7659   3.8181   4.2015   4.2641   4.3689   4.4977
     4.9151   7.3940   9.8171  10.1257  10.3014

          k = 0.0000 0.1250 0.3750 ( 19114 PWs)   bands (ev):

   -97.4316 -57.8553 -57.8552 -57.8552 -21.1145  -7.5213  -6.9295  -6.6483
    -5.2165  -5.2112  -5.1593   0.9898   1.5918   1.7655   2.4770   2.9585
     3.1356   3.6970   3.7138   3.7625   4.2104   4.2774   4.5038   4.5515
     4.9209   8.4318  10.3380  10.5779  10.9891

          k = 0.0000 0.1250-0.5000 ( 19108 PWs)   bands (ev):

   -97.4316 -57.8553 -57.8553 -57.8552 -21.1144  -7.4593  -7.0012  -6.6461
    -5.2153  -5.2109  -5.1508   0.9841   1.6498   1.8196   2.3322   2.8460
     3.0332   3.6726   3.6884   3.7562   4.2119   4.2778   4.5677   4.5711
     4.8983   9.2816  10.2255  10.6447  11.0986

          k = 0.0000 0.2500 0.2500 ( 19161 PWs)   bands (ev):

   -97.4316 -57.8553 -57.8553 -57.8552 -21.1145  -7.5452  -6.8363  -6.7080
    -5.2167  -5.1961  -5.1828   0.8082   1.5810   1.8541   2.3819   3.1211
     3.3669   3.4673   3.5114   4.1011   4.2186   4.3414   4.3958   4.5049
     5.3390   7.8461  10.2702  10.4412  10.5633

          k = 0.0000 0.2500 0.3750 ( 19110 PWs)   bands (ev):

   -97.4316 -57.8553 -57.8552 -57.8552 -21.1143  -7.4304  -6.9384  -6.7295
    -5.2138  -5.1960  -5.1699   0.6671   1.7133   1.9963   2.0478   2.9295
     3.1993   3.3463   3.4705   4.1651   4.2238   4.4315   4.4757   4.5409
     5.5262   8.6872  10.7575  10.8874  11.0174

          k = 0.0000 0.2500-0.5000 ( 19096 PWs)   bands (ev):

   -97.4316 -57.8552 -57.8552 -57.8552 -21.1142  -7.3611  -7.0079  -6.7326
    -5.2126  -5.1977  -5.1634   0.6229   1.7834   1.9238   2.0485   2.8217
     3.1241   3.3187   3.4688   4.1548   4.2248   4.4339   4.5599   4.5660
     5.5558   9.4610  10.4575  11.1960  11.2580

          k = 0.0000 0.3750 0.3750 ( 19112 PWs)   bands (ev):

   -97.4316 -57.8552 -57.8552 -57.8552 -21.1141  -7.3026  -6.9665  -6.8290
    -5.2111  -5.1828  -5.1780   0.4452   1.7558   1.8780   2.1373   2.8751
     3.0515   3.2259   3.2987   4.2270   4.4034   4.5096   4.5365   4.5706
     5.9938   9.2210  10.9277  11.2318  11.3321

          k = 0.0000 0.3750-0.5000 ( 19080 PWs)   bands (ev):

   -97.4316 -57.8552 -57.8552 -57.8552 -21.1140  -7.2142  -7.0146  -6.8692
    -5.2100  -5.1842  -5.1744   0.3674   1.6531   1.9736   2.1850   2.7974
     2.9667   3.1910   3.2834   4.2278   4.4028   4.5187   4.5494   4.7013
     6.1521   9.8597  10.5083  11.0754  11.5315

          k = 0.0000-0.5000-0.5000 ( 19072 PWs)   bands (ev):

   -97.4316 -57.8553 -57.8552 -57.8552 -21.1140  -7.0622  -7.0174  -7.0174
    -5.2089  -5.1786  -5.1786   0.2764   1.5590   2.0955   2.2308   2.7874
     2.7874   3.2178   3.2178   4.2285   4.4238   4.5452   4.5452   4.8278
     6.3981  10.5759  10.5759  10.5904  10.7437

          k = 0.1250 0.1250 0.1250 ( 19141 PWs)   bands (ev):

   -97.4316 -57.8553 -57.8553 -57.8553 -21.1148  -7.6832  -6.6904  -6.6904
    -5.2159  -5.2159  -5.2014   1.0280   1.5194   1.5194   3.2412   3.2412
     3.3489   3.8648   3.8648   3.9035   4.2006   4.2069   4.2069   4.7499
     4.7499   6.8776   9.4546   9.8926   9.8926

          k = 0.1250 0.1250 0.2500 ( 19141 PWs)   bands (ev):

   -97.4316 -57.8553 -57.8553 -57.8552 -21.1146  -7.6002  -6.7979  -6.6826
    -5.2182  -5.2082  -5.1824   0.8740   1.6023   1.6967   2.7927   2.9077
     3.2736   3.6950   3.8522   3.9020   4.1947   4.3257   4.3516   4.7173
     4.9852   7.5041   9.9252  10.1995  10.3090

          k = 0.1250 0.1250 0.3750 ( 19114 PWs)   bands (ev):

   -97.4316 -57.8553 -57.8552 -57.8552 -21.1144  -7.4900  -6.9301  -6.6748
    -5.2206  -5.2034  -5.1640   0.7931   1.7108   1.8307   2.4029   2.6339
     3.2870   3.5093   3.8112   3.8516   4.1958   4.4645   4.4903   4.6586
     5.0241   8.4974  10.4253  10.5701  10.9723

          k = 0.1250 0.1250-0.5000 ( 19104 PWs)   bands (ev):

   -97.4316 -57.8553 -57.8552 -57.8552 -21.1143  -7.4262  -7.0023  -6.6715
    -5.2216  -5.2015  -5.1571   0.7739   1.7705   1.8827   2.2553   2.5180
     3.3238   3.4018   3.7773   3.8431   4.1962   4.5523   4.5729   4.5767
     5.0090   9.3298  10.2686  10.7257  11.4498

          k = 0.1250 0.2500 0.2500 ( 19117 PWs)   bands (ev):

   -97.4316 -57.8552 -57.8552 -57.8552 -21.1144  -7.5161  -6.8306  -6.7367
    -5.2176  -5.2015  -5.1792   0.6395   1.7179   1.8692   2.3871   2.8686
     2.8968   3.7400   3.7515   4.1292   4.2719   4.3385   4.3827   4.7771
     5.3299   7.9172  10.1979  10.4710  10.5243

          k = 0.1250 0.2500 0.3750 ( 19112 PWs)   bands (ev):

   -97.4316 -57.8553 -57.8552 -57.8552 -21.1142  -7.4020  -6.9345  -6.7484
    -5.2209  -5.1954  -5.1735   0.4846   1.8316   2.0033   2.0599   2.5805
     2.9131   3.6147   3.7538   4.1812   4.3001   4.4671   4.4942   4.7231
     5.5242   8.7286  10.4763  10.8031  11.0160

          k = 0.1250 0.2500-0.5000 ( 19124 PWs)   bands (ev):

   -97.4316 -57.8553 -57.8552 -57.8552 -21.1141  -7.3321  -7.0052  -6.7479
    -5.2230  -5.1925  -5.1714   0.4334   1.8992   1.9363   2.0536   2.4501
     2.9322   3.5543   3.7551   4.1698   4.3046   4.5405   4.5825   4.6695
     5.5552   9.5031  10.2992  11.0016  11.0679

          k = 0.1250 0.3750 0.3750 ( 19110 PWs)   bands (ev):

   -97.4316 -57.8552 -57.8552 -57.8552 -21.1140  -7.2785  -6.9590  -6.8379
    -5.2190  -5.1920  -5.1804   0.2597   1.7783   1.9644   2.1311   2.5882
     2.6227   3.6423   3.6508   4.3944   4.4086   4.4981   4.5827   4.6727
     5.9912   9.2421  10.4042  11.2193  11.2640

          k = 0.1250 0.3750-0.5000 ( 19104 PWs)   bands (ev):

   -97.4316 -57.8552 -57.8552 -57.8552 -21.1140  -7.1922  -7.0081  -6.8713
    -5.2187  -5.1890  -5.1842   0.1794   1.6822   2.0396   2.1824   2.4583
     2.6216   3.5996   3.6566   4.4089   4.4233   4.5458   4.6192   4.7078
     6.1514   9.8940  10.2261  10.7344  11.2874

          k = 0.1250-0.5000-0.5000 ( 19096 PWs)   bands (ev):

   -97.4316 -57.8552 -57.8552 -57.8552 -21.1139  -7.0478  -7.0093  -7.0093
    -5.2154  -5.1891  -5.1891   0.0877   1.5926   2.1372   2.2321   2.4637
     2.4637   3.6148   3.6148   4.4295   4.5173   4.5447   4.5447   4.8333
     6.4012  10.1989  10.5381  10.5381  10.6619

          k = 0.2500 0.2500 0.2500 ( 19084 PWs)   bands (ev):

   -97.4316 -57.8552 -57.8552 -57.8552 -21.1142  -7.4348  -6.8167  -6.8167
    -5.2149  -5.2149  -5.1758   0.3613   1.9133   1.9133   2.3006   2.5379
     2.5379   3.9353   3.9353   4.2573   4.2973   4.3654   4.3654   5.2957
     5.2957   8.2089  10.0898  10.6469  10.6469

          k = 0.2500 0.2500 0.3750 ( 19108 PWs)   bands (ev):

   -97.4316 -57.8552 -57.8552 -57.8552 -21.1140  -7.3228  -6.9270  -6.8026
    -5.2286  -5.2054  -5.1803   0.1579   1.9858   2.0096   2.0473   2.2798
     2.5357   3.9886   4.0046   4.2770   4.3371   4.4547   4.5116   5.2361
     5.5935   8.8828  10.0489  10.8446  11.0770

          k = 0.2500 0.2500-0.5000 ( 19076 PWs)   bands (ev):

   -97.4316 -57.8552 -57.8552 -57.8552 -21.1140  -7.2504  -6.9986  -6.7966
    -5.2343  -5.1937  -5.1901   0.0859   1.9182   2.0650   2.0753   2.1273
     2.5540   4.0017   4.0093   4.2587   4.3464   4.5288   4.6036   5.1985
     5.6544   9.6316   9.9265  10.8297  10.8484

          k = 0.2500 0.3750 0.3750 ( 19112 PWs)   bands (ev):

   -97.4316 -57.8552 -57.8552 -57.8552 -21.1139  -7.2121  -6.9406  -6.8675
    -5.2323  -5.2144  -5.1917  -0.0949   1.8347   2.0495   2.0802   2.2627
     2.3045   4.0979   4.1326   4.4193   4.4391   4.4809   4.6073   5.3076
     5.9777   9.2789   9.7771  10.9342  11.0320

          k = 0.2500 0.3750-0.5000 ( 19094 PWs)   bands (ev):

   -97.4316 -57.8552 -57.8552 -57.8552 -21.1138  -7.1323  -6.9920  -6.8824
    -5.2358  -5.2078  -5.2048  -0.1872   1.7525   2.0864   2.0922   2.1797
     2.3105   4.1313   4.1339   4.4255   4.4634   4.5498   4.7237   5.2725
     6.1481   9.6123   9.9099  10.4617  10.9343

          k = 0.2500-0.5000-0.5000 ( 19152 PWs)   bands (ev):

   -97.4316 -57.8552 -57.8552 -57.8552 -21.1137  -7.0122  -6.9893  -6.9893
    -5.2309  -5.2149  -5.2149  -0.2874   1.6754   2.1041   2.1041   2.1961
     2.2353   4.1529   4.1529   4.4446   4.5568   4.5568   4.8468   5.2295
     6.4088   9.4953  10.2991  10.2991  10.7501

          k = 0.3750 0.3750 0.3750 ( 19111 PWs)   bands (ev):

   -97.4316 -57.8552 -57.8552 -57.8552 -21.1137  -7.1208  -6.9217  -6.9217
    -5.2375  -5.2375  -5.2108  -0.3798   1.8574   1.9440   1.9440   2.2262
     2.2262   4.4155   4.4375   4.4375   4.5026   4.5026   4.6707   5.9476
     5.9476   9.2768   9.4955  10.6906  10.6907

          k = 0.3750 0.3750-0.5000 ( 19106 PWs)   bands (ev):

   -97.4316 -57.8552 -57.8552 -57.8552 -21.1136  -7.0515  -6.9757  -6.9137
    -5.2472  -5.2315  -5.2266  -0.4853   1.8041   1.8798   1.9444   2.2174
     2.2415   4.4203   4.4399   4.4507   4.5525   4.6613   4.7629   5.9268
     6.2013   9.1655   9.8271  10.0882  10.5725

          k = 0.3750-0.5000-0.5000 ( 19112 PWs)   bands (ev):

   -97.4316 -57.8552 -57.8552 -57.8552 -21.1136  -6.9756  -6.9688  -6.9688
    -5.2462  -5.2414  -5.2414  -0.5960   1.7605   1.8746   1.8746   2.2296
     2.2386   4.4442   4.4442   4.4617   4.7127   4.7127   4.8604   6.0267
     6.4164   9.0059   9.9174   9.9174  10.0967

          k =-0.5000-0.5000-0.5000 ( 19208 PWs)   bands (ev):

   -97.4316 -57.8553 -57.8553 -57.8553 -21.1135  -6.9601  -6.9601  -6.9601
    -5.2526  -5.2526  -5.2526  -0.7112   1.7965   1.7965   1.7965   2.2399
     2.2399   4.4696   4.4696   4.4696   4.8661   4.8661   4.8661   6.4196
     6.4196   8.8312   9.7392   9.7392   9.7392

     the Fermi energy is     4.9964 ev

!    total energy              =   -1625.29357180 Ry
     estimated scf accuracy    <          4.8E-14 Ry
     smearing contrib. (-TS)   =      -0.00038459 Ry
     internal energy E=F+TS    =   -1625.29318722 Ry

     The total energy is F=E-TS. E is the sum of the following terms:
     one-electron contribution =    -385.43780782 Ry
     hartree contribution      =     211.37390988 Ry
     xc contribution           =    -101.00426580 Ry
     ewald contribution        =    -219.72415783 Ry
     one-center paw contrib.   =   -1130.50086565 Ry

     convergence has been achieved in  22 iterations

     Writing all to output data dir ./tmp/RbNiI3.save/ :
     XML data file, charge density, pseudopotentials, collected wavefunctions

     init_run     :      9.49s CPU      9.07s WALL (       1 calls)
     electrons    :    457.16s CPU    385.72s WALL (       1 calls)

     Called by init_run:
     wfcinit      :      5.09s CPU      4.32s WALL (       1 calls)
     potinit      :      1.31s CPU      1.41s WALL (       1 calls)
     hinit0       :      1.57s CPU      1.60s WALL (       1 calls)

     Called by electrons:
     c_bands      :    315.30s CPU    253.31s WALL (      22 calls)
     sum_band     :    101.24s CPU     87.72s WALL (      22 calls)
     v_of_rho     :     12.38s CPU     13.48s WALL (      23 calls)
     newd         :     22.48s CPU     25.73s WALL (      23 calls)
     PAW_pot      :      4.84s CPU      4.84s WALL (      23 calls)
     mix_rho      :      1.02s CPU      1.05s WALL (      22 calls)

     Called by c_bands:
     init_us_2    :     10.53s CPU      7.67s WALL (     405 calls)
     cegterg      :    272.10s CPU    218.50s WALL (     198 calls)

     Called by *egterg:
     cdiaghg      :      3.38s CPU      2.39s WALL (     917 calls)
     h_psi        :    222.49s CPU    191.56s WALL (     926 calls)
     s_psi        :     11.81s CPU      6.28s WALL (     926 calls)
     g_psi        :      1.32s CPU      0.96s WALL (     719 calls)

     Called by h_psi:
     h_psi:calbec :     12.94s CPU      7.15s WALL (     926 calls)
     vloc_psi     :    196.18s CPU    176.95s WALL (     926 calls)
     add_vuspsi   :     12.29s CPU      6.59s WALL (     926 calls)

     General routines
     calbec       :     17.60s CPU      9.73s WALL (    1124 calls)
     fft          :      8.93s CPU      9.56s WALL (     297 calls)
     ffts         :      0.76s CPU      0.71s WALL (      45 calls)
     fftw         :    179.39s CPU    159.89s WALL (   34310 calls)
     interpolate  :      1.38s CPU      1.42s WALL (      23 calls)

     Parallel routines

     PWSCF        :   7m47.28s CPU   6m35.57s WALL


   This run was terminated on:   9: 4:25  15May2025            

=------------------------------------------------------------------------------=
   JOB DONE.
=------------------------------------------------------------------------------=
