
     Program PWSCF v.7.3.1 starts on  8May2025 at 17:41: 4 

     This program is part of the open-source Quantum ESPRESSO suite
     for quantum simulation of materials; please cite
         "P. Giannozzi et al., J. Phys.:Condens. Matter 21 395502 (2009);
         "P. Giannozzi et al., J. Phys.:Condens. Matter 29 465901 (2017);
         "P. Giannozzi et al., J. Chem. Phys. 152 154105 (2020);
          URL http://www.quantum-espresso.org", 
     in publications or presentations arising from this work. More details at
     http://www.quantum-espresso.org/quote

     Parallel version (MPI), running on     8 processors

     MPI processes distributed on     1 nodes
     46711 MiB available memory on the printing compute node when the environment starts

     Waiting for input...
     Reading input from standard input

     Current dimensions of program PWSCF are:
     Max number of different atomic species (ntypx) = 10
     Max number of k-points (npk) = 120000
     Max angular momentum in pseudopotentials (lmaxx) =  4
     Message from routine iosys:
     restart disabled: needed files not found
     file Sb.pbe-n-rrkjus_psl.1.0.0.UPF: wavefunction(s)  5S renormalized
     file S.pbe-n-kjpaw_psl.1.0.0.UPF: wavefunction(s)  3S 3P renormalized

     IMPORTANT: XC functional enforced from input :
     Exchange-correlation= PBE
                           (   1   4   3   4   0   0   0)
     Any further DFT definition will be discarded
     Please, verify this is what you really want


     Atomic positions and unit cell read from directory:
     ./tmp/agsbs3.save/
     Message from routine qexsd_readschema :
     xml data file ./tmp/agsbs3.save/data-file-schema.xml not found
     Nothing found: using input atomic positions and unit cell

     Message from routine setup:
     using ibrav=0 with symmetry is DISCOURAGED, use correct ibrav instead

     K-points division:     npool     =       2
     R & G space division:  proc/nbgrp/npool/nimage =       4
     Subspace diagonalization in iterative solution of the eigenvalue problem:
     a serial algorithm will be used


     Parallelization info
     --------------------
     sticks:   dense  smooth     PW     G-vecs:    dense   smooth      PW
     Min        1456     729    201                83715    29565    4341
     Max        1458     730    202                83718    29568    4342
     Sum        5829    2917    805               334867   118265   17365

     Using Slab Decomposition



     bravais-lattice index     =            0
     lattice parameter (alat)  =       9.5675  a.u.
     unit-cell volume          =     875.7716 (a.u.)^3
     number of atoms/cell      =            5
     number of atomic types    =            3
     number of electrons       =        34.00
     number of Kohn-Sham states=           21
     kinetic-energy cutoff     =     100.0000  Ry
     charge density cutoff     =     800.0000  Ry
     scf convergence threshold =      1.0E-12
     mixing beta               =       0.3000
     number of iterations used =            8  plain     mixing
     Exchange-correlation= PBE
                           (   1   4   3   4   0   0   0)

     celldm(1)=   9.567467  celldm(2)=   0.000000  celldm(3)=   0.000000
     celldm(4)=   0.000000  celldm(5)=   0.000000  celldm(6)=   0.000000

     crystal axes: (cart. coord. in units of alat)
               a(1) = (   1.000000   0.000000   0.000000 )  
               a(2) = (   0.000000   1.000000   0.000000 )  
               a(3) = (   0.000000   0.000000   1.000000 )  

     reciprocal axes: (cart. coord. in units 2 pi/alat)
               b(1) = (  1.000000  0.000000  0.000000 )  
               b(2) = (  0.000000  1.000000  0.000000 )  
               b(3) = (  0.000000  0.000000  1.000000 )  


     PseudoPot. # 1 for Ag read from file:
     /home/administrator/Downloads/BURAI/BURAI1.3/pseudopot/Ag.pbe-n-rrkjus_psl.1.0.0.UPF
     MD5 check sum: dac2ab5f4c7b52e6ca9ece085dcd1bff
     Pseudo is Ultrasoft + core correction, Zval = 11.0
     Generated using "atomic" code by A. Dal Corso  v.5.1.2
     Using radial grid of 1237 points,  6 beta functions with: 
                l(1) =   0
                l(2) =   0
                l(3) =   1
                l(4) =   1
                l(5) =   2
                l(6) =   2
     Q(r) pseudized with 0 coefficients 


     PseudoPot. # 2 for Sb read from file:
     /home/administrator/Downloads/BURAI/BURAI1.3/pseudopot/Sb.pbe-n-rrkjus_psl.1.0.0.UPF
     MD5 check sum: 99f1e92b97b0a665abbfefde3108088e
     Pseudo is Ultrasoft + core correction, Zval =  5.0
     Generated using "atomic" code by A. Dal Corso  v.5.1.2
     Using radial grid of 1243 points,  6 beta functions with: 
                l(1) =   0
                l(2) =   0
                l(3) =   1
                l(4) =   1
                l(5) =   2
                l(6) =   2
     Q(r) pseudized with 0 coefficients 


     PseudoPot. # 3 for S  read from file:
     /home/administrator/Downloads/BURAI/BURAI1.3/pseudopot/S.pbe-n-kjpaw_psl.1.0.0.UPF
     MD5 check sum: cb96b46a5ee63c4f5db34501b74ad364
     Pseudo is Projector augmented-wave + core cor, Zval =  6.0
     Generated using "atomic" code by A. Dal Corso  v.5.1.2
     Shape of augmentation charge: PSQ
     Using radial grid of 1151 points,  6 beta functions with: 
                l(1) =   0
                l(2) =   0
                l(3) =   1
                l(4) =   1
                l(5) =   2
                l(6) =   2
     Q(r) pseudized with 0 coefficients 


     atomic species   valence    mass     pseudopotential
     Ag               11.00   107.86800     Ag( 1.00)
     Sb                5.00   121.76000     Sb( 1.00)
     S                 6.00    32.06500     S ( 1.00)

     48 Sym. Ops., with inversion, found


                                    s                        frac. trans.

      isym =  1     identity                                     

 cryst.   s( 1) = (     1          0          0      )
                  (     0          1          0      )
                  (     0          0          1      )

 cart.    s( 1) = (  1.0000000  0.0000000  0.0000000 )
                  (  0.0000000  1.0000000  0.0000000 )
                  (  0.0000000  0.0000000  1.0000000 )


      isym =  2     180 deg rotation - cart. axis [0,0,1]        

 cryst.   s( 2) = (    -1          0          0      )
                  (     0         -1          0      )
                  (     0          0          1      )

 cart.    s( 2) = ( -1.0000000  0.0000000  0.0000000 )
                  (  0.0000000 -1.0000000  0.0000000 )
                  (  0.0000000  0.0000000  1.0000000 )


      isym =  3     180 deg rotation - cart. axis [0,1,0]        

 cryst.   s( 3) = (    -1          0          0      )
                  (     0          1          0      )
                  (     0          0         -1      )

 cart.    s( 3) = ( -1.0000000  0.0000000  0.0000000 )
                  (  0.0000000  1.0000000  0.0000000 )
                  (  0.0000000  0.0000000 -1.0000000 )


      isym =  4     180 deg rotation - cart. axis [1,0,0]        

 cryst.   s( 4) = (     1          0          0      )
                  (     0         -1          0      )
                  (     0          0         -1      )

 cart.    s( 4) = (  1.0000000  0.0000000  0.0000000 )
                  (  0.0000000 -1.0000000  0.0000000 )
                  (  0.0000000  0.0000000 -1.0000000 )


      isym =  5     180 deg rotation - cart. axis [1,1,0]        

 cryst.   s( 5) = (     0          1          0      )
                  (     1          0          0      )
                  (     0          0         -1      )

 cart.    s( 5) = (  0.0000000  1.0000000  0.0000000 )
                  (  1.0000000  0.0000000  0.0000000 )
                  (  0.0000000  0.0000000 -1.0000000 )


      isym =  6     180 deg rotation - cart. axis [1,-1,0]       

 cryst.   s( 6) = (     0         -1          0      )
                  (    -1          0          0      )
                  (     0          0         -1      )

 cart.    s( 6) = (  0.0000000 -1.0000000  0.0000000 )
                  ( -1.0000000  0.0000000  0.0000000 )
                  (  0.0000000  0.0000000 -1.0000000 )


      isym =  7      90 deg rotation - cart. axis [0,0,-1]       

 cryst.   s( 7) = (     0         -1          0      )
                  (     1          0          0      )
                  (     0          0          1      )

 cart.    s( 7) = (  0.0000000  1.0000000  0.0000000 )
                  ( -1.0000000  0.0000000  0.0000000 )
                  (  0.0000000  0.0000000  1.0000000 )


      isym =  8      90 deg rotation - cart. axis [0,0,1]        

 cryst.   s( 8) = (     0          1          0      )
                  (    -1          0          0      )
                  (     0          0          1      )

 cart.    s( 8) = (  0.0000000 -1.0000000  0.0000000 )
                  (  1.0000000  0.0000000  0.0000000 )
                  (  0.0000000  0.0000000  1.0000000 )


      isym =  9     180 deg rotation - cart. axis [1,0,1]        

 cryst.   s( 9) = (     0          0          1      )
                  (     0         -1          0      )
                  (     1          0          0      )

 cart.    s( 9) = (  0.0000000  0.0000000  1.0000000 )
                  (  0.0000000 -1.0000000  0.0000000 )
                  (  1.0000000  0.0000000  0.0000000 )


      isym = 10     180 deg rotation - cart. axis [-1,0,1]       

 cryst.   s(10) = (     0          0         -1      )
                  (     0         -1          0      )
                  (    -1          0          0      )

 cart.    s(10) = (  0.0000000  0.0000000 -1.0000000 )
                  (  0.0000000 -1.0000000  0.0000000 )
                  ( -1.0000000  0.0000000  0.0000000 )


      isym = 11      90 deg rotation - cart. axis [0,1,0]        

 cryst.   s(11) = (     0          0         -1      )
                  (     0          1          0      )
                  (     1          0          0      )

 cart.    s(11) = (  0.0000000  0.0000000  1.0000000 )
                  (  0.0000000  1.0000000  0.0000000 )
                  ( -1.0000000  0.0000000  0.0000000 )


      isym = 12      90 deg rotation - cart. axis [0,-1,0]       

 cryst.   s(12) = (     0          0          1      )
                  (     0          1          0      )
                  (    -1          0          0      )

 cart.    s(12) = (  0.0000000  0.0000000 -1.0000000 )
                  (  0.0000000  1.0000000  0.0000000 )
                  (  1.0000000  0.0000000  0.0000000 )


      isym = 13     180 deg rotation - cart. axis [0,1,1]        

 cryst.   s(13) = (    -1          0          0      )
                  (     0          0          1      )
                  (     0          1          0      )

 cart.    s(13) = ( -1.0000000  0.0000000  0.0000000 )
                  (  0.0000000  0.0000000  1.0000000 )
                  (  0.0000000  1.0000000  0.0000000 )


      isym = 14     180 deg rotation - cart. axis [0,1,-1]       

 cryst.   s(14) = (    -1          0          0      )
                  (     0          0         -1      )
                  (     0         -1          0      )

 cart.    s(14) = ( -1.0000000  0.0000000  0.0000000 )
                  (  0.0000000  0.0000000 -1.0000000 )
                  (  0.0000000 -1.0000000  0.0000000 )


      isym = 15      90 deg rotation - cart. axis [-1,0,0]       

 cryst.   s(15) = (     1          0          0      )
                  (     0          0         -1      )
                  (     0          1          0      )

 cart.    s(15) = (  1.0000000  0.0000000  0.0000000 )
                  (  0.0000000  0.0000000  1.0000000 )
                  (  0.0000000 -1.0000000  0.0000000 )


      isym = 16      90 deg rotation - cart. axis [1,0,0]        

 cryst.   s(16) = (     1          0          0      )
                  (     0          0          1      )
                  (     0         -1          0      )

 cart.    s(16) = (  1.0000000  0.0000000  0.0000000 )
                  (  0.0000000  0.0000000 -1.0000000 )
                  (  0.0000000  1.0000000  0.0000000 )


      isym = 17     120 deg rotation - cart. axis [-1,-1,-1]     

 cryst.   s(17) = (     0          0          1      )
                  (     1          0          0      )
                  (     0          1          0      )

 cart.    s(17) = (  0.0000000  1.0000000  0.0000000 )
                  (  0.0000000  0.0000000  1.0000000 )
                  (  1.0000000  0.0000000  0.0000000 )


      isym = 18     120 deg rotation - cart. axis [-1,1,1]       

 cryst.   s(18) = (     0          0         -1      )
                  (    -1          0          0      )
                  (     0          1          0      )

 cart.    s(18) = (  0.0000000 -1.0000000  0.0000000 )
                  (  0.0000000  0.0000000  1.0000000 )
                  ( -1.0000000  0.0000000  0.0000000 )


      isym = 19     120 deg rotation - cart. axis [1,1,-1]       

 cryst.   s(19) = (     0          0         -1      )
                  (     1          0          0      )
                  (     0         -1          0      )

 cart.    s(19) = (  0.0000000  1.0000000  0.0000000 )
                  (  0.0000000  0.0000000 -1.0000000 )
                  ( -1.0000000  0.0000000  0.0000000 )


      isym = 20     120 deg rotation - cart. axis [1,-1,1]       

 cryst.   s(20) = (     0          0          1      )
                  (    -1          0          0      )
                  (     0         -1          0      )

 cart.    s(20) = (  0.0000000 -1.0000000  0.0000000 )
                  (  0.0000000  0.0000000 -1.0000000 )
                  (  1.0000000  0.0000000  0.0000000 )


      isym = 21     120 deg rotation - cart. axis [1,1,1]        

 cryst.   s(21) = (     0          1          0      )
                  (     0          0          1      )
                  (     1          0          0      )

 cart.    s(21) = (  0.0000000  0.0000000  1.0000000 )
                  (  1.0000000  0.0000000  0.0000000 )
                  (  0.0000000  1.0000000  0.0000000 )


      isym = 22     120 deg rotation - cart. axis [-1,1,-1]      

 cryst.   s(22) = (     0         -1          0      )
                  (     0          0         -1      )
                  (     1          0          0      )

 cart.    s(22) = (  0.0000000  0.0000000  1.0000000 )
                  ( -1.0000000  0.0000000  0.0000000 )
                  (  0.0000000 -1.0000000  0.0000000 )


      isym = 23     120 deg rotation - cart. axis [1,-1,-1]      

 cryst.   s(23) = (     0         -1          0      )
                  (     0          0          1      )
                  (    -1          0          0      )

 cart.    s(23) = (  0.0000000  0.0000000 -1.0000000 )
                  ( -1.0000000  0.0000000  0.0000000 )
                  (  0.0000000  1.0000000  0.0000000 )


      isym = 24     120 deg rotation - cart. axis [-1,-1,1]      

 cryst.   s(24) = (     0          1          0      )
                  (     0          0         -1      )
                  (    -1          0          0      )

 cart.    s(24) = (  0.0000000  0.0000000 -1.0000000 )
                  (  1.0000000  0.0000000  0.0000000 )
                  (  0.0000000 -1.0000000  0.0000000 )


      isym = 25     inversion                                    

 cryst.   s(25) = (    -1          0          0      )
                  (     0         -1          0      )
                  (     0          0         -1      )

 cart.    s(25) = ( -1.0000000  0.0000000  0.0000000 )
                  (  0.0000000 -1.0000000  0.0000000 )
                  (  0.0000000  0.0000000 -1.0000000 )


      isym = 26     inv. 180 deg rotation - cart. axis [0,0,1]   

 cryst.   s(26) = (     1          0          0      )
                  (     0          1          0      )
                  (     0          0         -1      )

 cart.    s(26) = (  1.0000000  0.0000000  0.0000000 )
                  (  0.0000000  1.0000000  0.0000000 )
                  (  0.0000000  0.0000000 -1.0000000 )


      isym = 27     inv. 180 deg rotation - cart. axis [0,1,0]   

 cryst.   s(27) = (     1          0          0      )
                  (     0         -1          0      )
                  (     0          0          1      )

 cart.    s(27) = (  1.0000000  0.0000000  0.0000000 )
                  (  0.0000000 -1.0000000  0.0000000 )
                  (  0.0000000  0.0000000  1.0000000 )


      isym = 28     inv. 180 deg rotation - cart. axis [1,0,0]   

 cryst.   s(28) = (    -1          0          0      )
                  (     0          1          0      )
                  (     0          0          1      )

 cart.    s(28) = ( -1.0000000  0.0000000  0.0000000 )
                  (  0.0000000  1.0000000  0.0000000 )
                  (  0.0000000  0.0000000  1.0000000 )


      isym = 29     inv. 180 deg rotation - cart. axis [1,1,0]   

 cryst.   s(29) = (     0         -1          0      )
                  (    -1          0          0      )
                  (     0          0          1      )

 cart.    s(29) = (  0.0000000 -1.0000000  0.0000000 )
                  ( -1.0000000  0.0000000  0.0000000 )
                  (  0.0000000  0.0000000  1.0000000 )


      isym = 30     inv. 180 deg rotation - cart. axis [1,-1,0]  

 cryst.   s(30) = (     0          1          0      )
                  (     1          0          0      )
                  (     0          0          1      )

 cart.    s(30) = (  0.0000000  1.0000000  0.0000000 )
                  (  1.0000000  0.0000000  0.0000000 )
                  (  0.0000000  0.0000000  1.0000000 )


      isym = 31     inv.  90 deg rotation - cart. axis [0,0,-1]  

 cryst.   s(31) = (     0          1          0      )
                  (    -1          0          0      )
                  (     0          0         -1      )

 cart.    s(31) = (  0.0000000 -1.0000000  0.0000000 )
                  (  1.0000000  0.0000000  0.0000000 )
                  (  0.0000000  0.0000000 -1.0000000 )


      isym = 32     inv.  90 deg rotation - cart. axis [0,0,1]   

 cryst.   s(32) = (     0         -1          0      )
                  (     1          0          0      )
                  (     0          0         -1      )

 cart.    s(32) = (  0.0000000  1.0000000  0.0000000 )
                  ( -1.0000000  0.0000000  0.0000000 )
                  (  0.0000000  0.0000000 -1.0000000 )


      isym = 33     inv. 180 deg rotation - cart. axis [1,0,1]   

 cryst.   s(33) = (     0          0         -1      )
                  (     0          1          0      )
                  (    -1          0          0      )

 cart.    s(33) = (  0.0000000  0.0000000 -1.0000000 )
                  (  0.0000000  1.0000000  0.0000000 )
                  ( -1.0000000  0.0000000  0.0000000 )


      isym = 34     inv. 180 deg rotation - cart. axis [-1,0,1]  

 cryst.   s(34) = (     0          0          1      )
                  (     0          1          0      )
                  (     1          0          0      )

 cart.    s(34) = (  0.0000000  0.0000000  1.0000000 )
                  (  0.0000000  1.0000000  0.0000000 )
                  (  1.0000000  0.0000000  0.0000000 )


      isym = 35     inv.  90 deg rotation - cart. axis [0,1,0]   

 cryst.   s(35) = (     0          0          1      )
                  (     0         -1          0      )
                  (    -1          0          0      )

 cart.    s(35) = (  0.0000000  0.0000000 -1.0000000 )
                  (  0.0000000 -1.0000000  0.0000000 )
                  (  1.0000000  0.0000000  0.0000000 )


      isym = 36     inv.  90 deg rotation - cart. axis [0,-1,0]  

 cryst.   s(36) = (     0          0         -1      )
                  (     0         -1          0      )
                  (     1          0          0      )

 cart.    s(36) = (  0.0000000  0.0000000  1.0000000 )
                  (  0.0000000 -1.0000000  0.0000000 )
                  ( -1.0000000  0.0000000  0.0000000 )


      isym = 37     inv. 180 deg rotation - cart. axis [0,1,1]   

 cryst.   s(37) = (     1          0          0      )
                  (     0          0         -1      )
                  (     0         -1          0      )

 cart.    s(37) = (  1.0000000  0.0000000  0.0000000 )
                  (  0.0000000  0.0000000 -1.0000000 )
                  (  0.0000000 -1.0000000  0.0000000 )


      isym = 38     inv. 180 deg rotation - cart. axis [0,1,-1]  

 cryst.   s(38) = (     1          0          0      )
                  (     0          0          1      )
                  (     0          1          0      )

 cart.    s(38) = (  1.0000000  0.0000000  0.0000000 )
                  (  0.0000000  0.0000000  1.0000000 )
                  (  0.0000000  1.0000000  0.0000000 )


      isym = 39     inv.  90 deg rotation - cart. axis [-1,0,0]  

 cryst.   s(39) = (    -1          0          0      )
                  (     0          0          1      )
                  (     0         -1          0      )

 cart.    s(39) = ( -1.0000000  0.0000000  0.0000000 )
                  (  0.0000000  0.0000000 -1.0000000 )
                  (  0.0000000  1.0000000  0.0000000 )


      isym = 40     inv.  90 deg rotation - cart. axis [1,0,0]   

 cryst.   s(40) = (    -1          0          0      )
                  (     0          0         -1      )
                  (     0          1          0      )

 cart.    s(40) = ( -1.0000000  0.0000000  0.0000000 )
                  (  0.0000000  0.0000000  1.0000000 )
                  (  0.0000000 -1.0000000  0.0000000 )


      isym = 41     inv. 120 deg rotation - cart. axis [-1,-1,-1]

 cryst.   s(41) = (     0          0         -1      )
                  (    -1          0          0      )
                  (     0         -1          0      )

 cart.    s(41) = (  0.0000000 -1.0000000  0.0000000 )
                  (  0.0000000  0.0000000 -1.0000000 )
                  ( -1.0000000  0.0000000  0.0000000 )


      isym = 42     inv. 120 deg rotation - cart. axis [-1,1,1]  

 cryst.   s(42) = (     0          0          1      )
                  (     1          0          0      )
                  (     0         -1          0      )

 cart.    s(42) = (  0.0000000  1.0000000  0.0000000 )
                  (  0.0000000  0.0000000 -1.0000000 )
                  (  1.0000000  0.0000000  0.0000000 )


      isym = 43     inv. 120 deg rotation - cart. axis [1,1,-1]  

 cryst.   s(43) = (     0          0          1      )
                  (    -1          0          0      )
                  (     0          1          0      )

 cart.    s(43) = (  0.0000000 -1.0000000  0.0000000 )
                  (  0.0000000  0.0000000  1.0000000 )
                  (  1.0000000  0.0000000  0.0000000 )


      isym = 44     inv. 120 deg rotation - cart. axis [1,-1,1]  

 cryst.   s(44) = (     0          0         -1      )
                  (     1          0          0      )
                  (     0          1          0      )

 cart.    s(44) = (  0.0000000  1.0000000  0.0000000 )
                  (  0.0000000  0.0000000  1.0000000 )
                  ( -1.0000000  0.0000000  0.0000000 )


      isym = 45     inv. 120 deg rotation - cart. axis [1,1,1]   

 cryst.   s(45) = (     0         -1          0      )
                  (     0          0         -1      )
                  (    -1          0          0      )

 cart.    s(45) = (  0.0000000  0.0000000 -1.0000000 )
                  ( -1.0000000  0.0000000  0.0000000 )
                  (  0.0000000 -1.0000000  0.0000000 )


      isym = 46     inv. 120 deg rotation - cart. axis [-1,1,-1] 

 cryst.   s(46) = (     0          1          0      )
                  (     0          0          1      )
                  (    -1          0          0      )

 cart.    s(46) = (  0.0000000  0.0000000 -1.0000000 )
                  (  1.0000000  0.0000000  0.0000000 )
                  (  0.0000000  1.0000000  0.0000000 )


      isym = 47     inv. 120 deg rotation - cart. axis [1,-1,-1] 

 cryst.   s(47) = (     0          1          0      )
                  (     0          0         -1      )
                  (     1          0          0      )

 cart.    s(47) = (  0.0000000  0.0000000  1.0000000 )
                  (  1.0000000  0.0000000  0.0000000 )
                  (  0.0000000 -1.0000000  0.0000000 )


      isym = 48     inv. 120 deg rotation - cart. axis [-1,-1,1] 

 cryst.   s(48) = (     0         -1          0      )
                  (     0          0          1      )
                  (     1          0          0      )

 cart.    s(48) = (  0.0000000  0.0000000  1.0000000 )
                  ( -1.0000000  0.0000000  0.0000000 )
                  (  0.0000000  1.0000000  0.0000000 )


   Cartesian axes

     site n.     atom                  positions (alat units)
         1        Ag     tau(   1) = (   0.0000000   0.0000000   0.0000000  )
         2        Sb     tau(   2) = (   0.5000000   0.5000000   0.5000000  )
         3        S      tau(   3) = (   0.5000000   0.5000000   0.0000000  )
         4        S      tau(   4) = (   0.5000000   0.0000000   0.5000000  )
         5        S      tau(   5) = (   0.0000000   0.5000000   0.5000000  )

   Crystallographic axes

     site n.     atom                  positions (cryst. coord.)
         1        Ag     tau(   1) = (  0.0000000  0.0000000  0.0000000  )
         2        Sb     tau(   2) = (  0.5000000  0.5000000  0.5000000  )
         3        S      tau(   3) = (  0.5000000  0.5000000  0.0000000  )
         4        S      tau(   4) = (  0.5000000  0.0000000  0.5000000  )
         5        S      tau(   5) = (  0.0000000  0.5000000  0.5000000  )

     number of k points=    35  Gaussian smearing, width (Ry)=  0.0100
                       cart. coord. in units 2pi/alat
        k(    1) = (   0.0000000   0.0000000   0.0000000), wk =   0.0039062
        k(    2) = (   0.0000000   0.0000000   0.1250000), wk =   0.0234375
        k(    3) = (   0.0000000   0.0000000   0.2500000), wk =   0.0234375
        k(    4) = (   0.0000000   0.0000000   0.3750000), wk =   0.0234375
        k(    5) = (   0.0000000   0.0000000  -0.5000000), wk =   0.0117188
        k(    6) = (   0.0000000   0.1250000   0.1250000), wk =   0.0468750
        k(    7) = (   0.0000000   0.1250000   0.2500000), wk =   0.0937500
        k(    8) = (   0.0000000   0.1250000   0.3750000), wk =   0.0937500
        k(    9) = (   0.0000000   0.1250000  -0.5000000), wk =   0.0468750
        k(   10) = (   0.0000000   0.2500000   0.2500000), wk =   0.0468750
        k(   11) = (   0.0000000   0.2500000   0.3750000), wk =   0.0937500
        k(   12) = (   0.0000000   0.2500000  -0.5000000), wk =   0.0468750
        k(   13) = (   0.0000000   0.3750000   0.3750000), wk =   0.0468750
        k(   14) = (   0.0000000   0.3750000  -0.5000000), wk =   0.0468750
        k(   15) = (   0.0000000  -0.5000000  -0.5000000), wk =   0.0117188
        k(   16) = (   0.1250000   0.1250000   0.1250000), wk =   0.0312500
        k(   17) = (   0.1250000   0.1250000   0.2500000), wk =   0.0937500
        k(   18) = (   0.1250000   0.1250000   0.3750000), wk =   0.0937500
        k(   19) = (   0.1250000   0.1250000  -0.5000000), wk =   0.0468750
        k(   20) = (   0.1250000   0.2500000   0.2500000), wk =   0.0937500
        k(   21) = (   0.1250000   0.2500000   0.3750000), wk =   0.1875000
        k(   22) = (   0.1250000   0.2500000  -0.5000000), wk =   0.0937500
        k(   23) = (   0.1250000   0.3750000   0.3750000), wk =   0.0937500
        k(   24) = (   0.1250000   0.3750000  -0.5000000), wk =   0.0937500
        k(   25) = (   0.1250000  -0.5000000  -0.5000000), wk =   0.0234375
        k(   26) = (   0.2500000   0.2500000   0.2500000), wk =   0.0312500
        k(   27) = (   0.2500000   0.2500000   0.3750000), wk =   0.0937500
        k(   28) = (   0.2500000   0.2500000  -0.5000000), wk =   0.0468750
        k(   29) = (   0.2500000   0.3750000   0.3750000), wk =   0.0937500
        k(   30) = (   0.2500000   0.3750000  -0.5000000), wk =   0.0937500
        k(   31) = (   0.2500000  -0.5000000  -0.5000000), wk =   0.0234375
        k(   32) = (   0.3750000   0.3750000   0.3750000), wk =   0.0312500
        k(   33) = (   0.3750000   0.3750000  -0.5000000), wk =   0.0468750
        k(   34) = (   0.3750000  -0.5000000  -0.5000000), wk =   0.0234375
        k(   35) = (  -0.5000000  -0.5000000  -0.5000000), wk =   0.0039062

                       cryst. coord.
        k(    1) = (   0.0000000   0.0000000   0.0000000), wk =   0.0039062
        k(    2) = (   0.0000000   0.0000000   0.1250000), wk =   0.0234375
        k(    3) = (   0.0000000   0.0000000   0.2500000), wk =   0.0234375
        k(    4) = (   0.0000000   0.0000000   0.3750000), wk =   0.0234375
        k(    5) = (   0.0000000   0.0000000  -0.5000000), wk =   0.0117188
        k(    6) = (   0.0000000   0.1250000   0.1250000), wk =   0.0468750
        k(    7) = (   0.0000000   0.1250000   0.2500000), wk =   0.0937500
        k(    8) = (   0.0000000   0.1250000   0.3750000), wk =   0.0937500
        k(    9) = (   0.0000000   0.1250000  -0.5000000), wk =   0.0468750
        k(   10) = (   0.0000000   0.2500000   0.2500000), wk =   0.0468750
        k(   11) = (   0.0000000   0.2500000   0.3750000), wk =   0.0937500
        k(   12) = (   0.0000000   0.2500000  -0.5000000), wk =   0.0468750
        k(   13) = (   0.0000000   0.3750000   0.3750000), wk =   0.0468750
        k(   14) = (   0.0000000   0.3750000  -0.5000000), wk =   0.0468750
        k(   15) = (   0.0000000  -0.5000000  -0.5000000), wk =   0.0117188
        k(   16) = (   0.1250000   0.1250000   0.1250000), wk =   0.0312500
        k(   17) = (   0.1250000   0.1250000   0.2500000), wk =   0.0937500
        k(   18) = (   0.1250000   0.1250000   0.3750000), wk =   0.0937500
        k(   19) = (   0.1250000   0.1250000  -0.5000000), wk =   0.0468750
        k(   20) = (   0.1250000   0.2500000   0.2500000), wk =   0.0937500
        k(   21) = (   0.1250000   0.2500000   0.3750000), wk =   0.1875000
        k(   22) = (   0.1250000   0.2500000  -0.5000000), wk =   0.0937500
        k(   23) = (   0.1250000   0.3750000   0.3750000), wk =   0.0937500
        k(   24) = (   0.1250000   0.3750000  -0.5000000), wk =   0.0937500
        k(   25) = (   0.1250000  -0.5000000  -0.5000000), wk =   0.0234375
        k(   26) = (   0.2500000   0.2500000   0.2500000), wk =   0.0312500
        k(   27) = (   0.2500000   0.2500000   0.3750000), wk =   0.0937500
        k(   28) = (   0.2500000   0.2500000  -0.5000000), wk =   0.0468750
        k(   29) = (   0.2500000   0.3750000   0.3750000), wk =   0.0937500
        k(   30) = (   0.2500000   0.3750000  -0.5000000), wk =   0.0937500
        k(   31) = (   0.2500000  -0.5000000  -0.5000000), wk =   0.0234375
        k(   32) = (   0.3750000   0.3750000   0.3750000), wk =   0.0312500
        k(   33) = (   0.3750000   0.3750000  -0.5000000), wk =   0.0468750
        k(   34) = (   0.3750000  -0.5000000  -0.5000000), wk =   0.0234375
        k(   35) = (  -0.5000000  -0.5000000  -0.5000000), wk =   0.0039062

     Dense  grid:   334867 G-vectors     FFT dimensions: (  90,  90,  90)

     Smooth grid:   118265 G-vectors     FFT dimensions: (  64,  64,  64)

     Dynamical RAM for                 wfc:       1.18 MB

     Dynamical RAM for     wfc (w. buffer):      22.51 MB

     Dynamical RAM for           str. fact:       3.83 MB

     Dynamical RAM for           local pot:       0.00 MB

     Dynamical RAM for          nlocal pot:       5.08 MB

     Dynamical RAM for                qrad:       6.81 MB

     Dynamical RAM for          rho,v,vnew:       8.10 MB

     Dynamical RAM for               rhoin:       2.70 MB

     Dynamical RAM for            rho*nmix:      20.44 MB

     Dynamical RAM for           G-vectors:       5.02 MB

     Dynamical RAM for          h,s,v(r/c):       0.08 MB

     Dynamical RAM for          <psi|beta>:       0.03 MB

     Dynamical RAM for                 psi:       2.37 MB

     Dynamical RAM for                hpsi:       2.37 MB

     Dynamical RAM for                spsi:       2.37 MB

     Dynamical RAM for      wfcinit/wfcrot:       2.38 MB

     Dynamical RAM for           addusdens:     121.36 MB

     Dynamical RAM for          addusforce:     123.92 MB

     Dynamical RAM for         addusstress:     128.70 MB

     Estimated static dynamical RAM per process >      66.25 MB

     Estimated max dynamical RAM per process >     215.39 MB

     Estimated total dynamical RAM >       1.60 GB
     Cannot read rho : file not found

     Initial potential from superposition of free atoms

     starting charge      33.9989, renormalised to      34.0000
     Message from routine qexsd_readschema :
     xml data file ./tmp/agsbs3.save/data-file-schema.xml not found
     Cannot read wfcs: file not found
     Starting wfcs are   25 randomized atomic wfcs
     Checking if some PAW data can be deallocated... 
       PAW data deallocated on    4 nodes for type:  3

     total cpu time spent up to now is        5.7 secs

     Self-consistent Calculation

     iteration #  1     ecut=   100.00 Ry     beta= 0.30
     Davidson diagonalization with overlap

---- Real-time Memory Report at c_bands before calling an iterative solver
           189 MiB given to the printing process from OS
             0 MiB allocation reported by mallinfo(arena+hblkhd)
         45284 MiB available memory on the node where the printing process lives
------------------
     c_bands:  2 eigenvalues not converged
     c_bands:  2 eigenvalues not converged
     c_bands:  1 eigenvalues not converged
     c_bands:  2 eigenvalues not converged
     c_bands:  1 eigenvalues not converged
     c_bands:  1 eigenvalues not converged
     c_bands:  1 eigenvalues not converged
     c_bands:  2 eigenvalues not converged
     c_bands:  1 eigenvalues not converged
     ethr =  1.00E-05,  avg # of iterations = 15.2

     total cpu time spent up to now is       31.4 secs

     total energy              =    -302.81741787 Ry
     estimated scf accuracy    <       0.27004190 Ry

     iteration #  2     ecut=   100.00 Ry     beta= 0.30
     Davidson diagonalization with overlap

---- Real-time Memory Report at c_bands before calling an iterative solver
           227 MiB given to the printing process from OS
             0 MiB allocation reported by mallinfo(arena+hblkhd)
         44976 MiB available memory on the node where the printing process lives
------------------
     ethr =  7.94E-04,  avg # of iterations =  2.0

     total cpu time spent up to now is       40.2 secs

     total energy              =    -302.84578578 Ry
     estimated scf accuracy    <       0.01887929 Ry

     iteration #  3     ecut=   100.00 Ry     beta= 0.30
     Davidson diagonalization with overlap

---- Real-time Memory Report at c_bands before calling an iterative solver
           228 MiB given to the printing process from OS
             0 MiB allocation reported by mallinfo(arena+hblkhd)
         44794 MiB available memory on the node where the printing process lives
------------------
     ethr =  5.55E-05,  avg # of iterations =  3.6

     total cpu time spent up to now is       50.0 secs

     total energy              =    -302.84914224 Ry
     estimated scf accuracy    <       0.00338110 Ry

     iteration #  4     ecut=   100.00 Ry     beta= 0.30
     Davidson diagonalization with overlap

---- Real-time Memory Report at c_bands before calling an iterative solver
           229 MiB given to the printing process from OS
             0 MiB allocation reported by mallinfo(arena+hblkhd)
         44696 MiB available memory on the node where the printing process lives
------------------
     c_bands:  1 eigenvalues not converged
     ethr =  9.94E-06,  avg # of iterations =  3.1

     total cpu time spent up to now is       59.2 secs

     total energy              =    -302.84947411 Ry
     estimated scf accuracy    <       0.00025056 Ry

     iteration #  5     ecut=   100.00 Ry     beta= 0.30
     Davidson diagonalization with overlap

---- Real-time Memory Report at c_bands before calling an iterative solver
           230 MiB given to the printing process from OS
             0 MiB allocation reported by mallinfo(arena+hblkhd)
         44906 MiB available memory on the node where the printing process lives
------------------
     ethr =  7.37E-07,  avg # of iterations =  5.4

     total cpu time spent up to now is       69.7 secs

     total energy              =    -302.84952252 Ry
     estimated scf accuracy    <       0.00002068 Ry

     iteration #  6     ecut=   100.00 Ry     beta= 0.30
     Davidson diagonalization with overlap

---- Real-time Memory Report at c_bands before calling an iterative solver
           231 MiB given to the printing process from OS
             0 MiB allocation reported by mallinfo(arena+hblkhd)
         44953 MiB available memory on the node where the printing process lives
------------------
     ethr =  6.08E-08,  avg # of iterations =  3.0

     total cpu time spent up to now is       80.2 secs

     total energy              =    -302.84952825 Ry
     estimated scf accuracy    <       0.00000149 Ry

     iteration #  7     ecut=   100.00 Ry     beta= 0.30
     Davidson diagonalization with overlap

---- Real-time Memory Report at c_bands before calling an iterative solver
           232 MiB given to the printing process from OS
             0 MiB allocation reported by mallinfo(arena+hblkhd)
         44853 MiB available memory on the node where the printing process lives
------------------
     c_bands:  1 eigenvalues not converged
     ethr =  4.39E-09,  avg # of iterations =  4.3

     total cpu time spent up to now is       90.5 secs

     total energy              =    -302.84952859 Ry
     estimated scf accuracy    <       0.00000048 Ry

     iteration #  8     ecut=   100.00 Ry     beta= 0.30
     Davidson diagonalization with overlap

---- Real-time Memory Report at c_bands before calling an iterative solver
           232 MiB given to the printing process from OS
             0 MiB allocation reported by mallinfo(arena+hblkhd)
         44811 MiB available memory on the node where the printing process lives
------------------
     ethr =  1.40E-09,  avg # of iterations =  2.4

     total cpu time spent up to now is      100.3 secs

     total energy              =    -302.84952867 Ry
     estimated scf accuracy    <       0.00000002 Ry

     iteration #  9     ecut=   100.00 Ry     beta= 0.30
     Davidson diagonalization with overlap

---- Real-time Memory Report at c_bands before calling an iterative solver
           233 MiB given to the printing process from OS
             0 MiB allocation reported by mallinfo(arena+hblkhd)
         45069 MiB available memory on the node where the printing process lives
------------------
     ethr =  4.55E-11,  avg # of iterations =  4.9

     total cpu time spent up to now is      112.2 secs

     total energy              =    -302.84952868 Ry
     estimated scf accuracy    <          2.5E-09 Ry

     iteration # 10     ecut=   100.00 Ry     beta= 0.30
     Davidson diagonalization with overlap

---- Real-time Memory Report at c_bands before calling an iterative solver
           234 MiB given to the printing process from OS
             0 MiB allocation reported by mallinfo(arena+hblkhd)
         44914 MiB available memory on the node where the printing process lives
------------------
     ethr =  7.36E-12,  avg # of iterations =  2.3

     total cpu time spent up to now is      122.4 secs

     total energy              =    -302.84952868 Ry
     estimated scf accuracy    <          1.6E-09 Ry

     iteration # 11     ecut=   100.00 Ry     beta= 0.30
     Davidson diagonalization with overlap

---- Real-time Memory Report at c_bands before calling an iterative solver
           234 MiB given to the printing process from OS
             0 MiB allocation reported by mallinfo(arena+hblkhd)
         44832 MiB available memory on the node where the printing process lives
------------------
     ethr =  4.60E-12,  avg # of iterations =  2.0

     total cpu time spent up to now is      131.9 secs

     total energy              =    -302.84952868 Ry
     estimated scf accuracy    <          3.6E-11 Ry

     iteration # 12     ecut=   100.00 Ry     beta= 0.30
     Davidson diagonalization with overlap

---- Real-time Memory Report at c_bands before calling an iterative solver
           234 MiB given to the printing process from OS
             0 MiB allocation reported by mallinfo(arena+hblkhd)
         44965 MiB available memory on the node where the printing process lives
------------------
     ethr =  1.07E-13,  avg # of iterations =  4.6

     total cpu time spent up to now is      143.8 secs

     total energy              =    -302.84952868 Ry
     estimated scf accuracy    <          8.9E-12 Ry

     iteration # 13     ecut=   100.00 Ry     beta= 0.30
     Davidson diagonalization with overlap

---- Real-time Memory Report at c_bands before calling an iterative solver
           234 MiB given to the printing process from OS
             0 MiB allocation reported by mallinfo(arena+hblkhd)
         44927 MiB available memory on the node where the printing process lives
------------------
     ethr =  1.00E-13,  avg # of iterations =  1.0

     total cpu time spent up to now is      152.1 secs

     total energy              =    -302.84952868 Ry
     estimated scf accuracy    <          4.0E-12 Ry

     iteration # 14     ecut=   100.00 Ry     beta= 0.30
     Davidson diagonalization with overlap

---- Real-time Memory Report at c_bands before calling an iterative solver
           234 MiB given to the printing process from OS
             0 MiB allocation reported by mallinfo(arena+hblkhd)
         44667 MiB available memory on the node where the printing process lives
------------------
     ethr =  1.00E-13,  avg # of iterations =  1.6

     total cpu time spent up to now is      160.8 secs

     total energy              =    -302.84952868 Ry
     estimated scf accuracy    <          1.6E-12 Ry

     iteration # 15     ecut=   100.00 Ry     beta= 0.30
     Davidson diagonalization with overlap

---- Real-time Memory Report at c_bands before calling an iterative solver
           234 MiB given to the printing process from OS
             0 MiB allocation reported by mallinfo(arena+hblkhd)
         44969 MiB available memory on the node where the printing process lives
------------------
     ethr =  1.00E-13,  avg # of iterations =  1.0

     total cpu time spent up to now is      169.1 secs

     End of self-consistent calculation

          k = 0.0000 0.0000 0.0000 ( 14771 PWs)   bands (ev):

    -9.6770  -6.8653  -6.8653  -1.2368  -1.2268  -1.2268  -1.2268   1.8000
     1.8000   1.8091   1.8091   1.8091   3.5136   3.5136   3.5136   3.5722
     3.5722   3.5722   5.1993  10.2066  10.2066

     occupation numbers 
     1.0000   1.0000   1.0000   1.0000   1.0000   1.0000   1.0000   1.0000
     1.0000   1.0000   1.0000   1.0000   1.0000   1.0000   1.0000   1.0000
     1.0000   1.0000   0.0000   0.0000   0.0000

          k = 0.0000 0.0000 0.1250 ( 14807 PWs)   bands (ev):

    -9.6233  -6.9722  -6.8626  -2.0540  -1.2039  -1.2039  -0.1427   1.7708
     1.7953   1.7953   1.8078   1.8099   3.3093   3.4337   3.4337   3.5702
     3.5898   3.5898   5.5372  10.2344  10.3355

     occupation numbers 
     1.0000   1.0000   1.0000   1.0000   1.0000   1.0000   1.0000   1.0000
     1.0000   1.0000   1.0000   1.0000   1.0000   1.0000   1.0000   1.0000
     1.0000   1.0000   0.0000   0.0000   0.0000

          k = 0.0000 0.0000 0.2500 ( 14774 PWs)   bands (ev):

    -9.4751  -7.2498  -6.8562  -2.5768  -1.1466  -1.1466   1.0361   1.7017
     1.7668   1.7668   1.8120   1.8274   3.1078   3.2010   3.2010   3.5658
     3.6777   3.6777   6.2016   9.6303  10.6318

     occupation numbers 
     1.0000   1.0000   1.0000   1.0000   1.0000   1.0000   1.0000   1.0000
     1.0000   1.0000   1.0000   1.0000   1.0000   1.0000   1.0000   1.0000
     1.0000   1.0000   0.0000   0.0000   0.0000

          k = 0.0000 0.0000 0.3750 ( 14750 PWs)   bands (ev):

    -9.2849  -7.5692  -6.8497  -2.8450  -1.0860  -1.0860   1.6343   1.7119
     1.7462   1.7462   1.8142   1.8517   2.9705   2.9705   3.5620   3.6658
     3.7673   3.7673   6.5710   8.2551   9.6268

     occupation numbers 
     1.0000   1.0000   1.0000   1.0000   1.0000   1.0000   1.0000   1.0000
     1.0000   1.0000   1.0000   1.0000   1.0000   1.0000   1.0000   1.0000
     1.0000   1.0000   0.0000   0.0000   0.0000

          k = 0.0000 0.0000-0.5000 ( 14718 PWs)   bands (ev):

    -9.1841  -7.7231  -6.8470  -2.9247  -1.0599  -1.0599   1.6069   1.7404
     1.7404   1.7940   1.8150   1.8631   2.8751   2.8751   3.5605   3.8042
     3.8042   4.6139   5.9008   8.2041   9.0357

     occupation numbers 
     1.0000   1.0000   1.0000   1.0000   1.0000   1.0000   1.0000   1.0000
     1.0000   1.0000   1.0000   1.0000   1.0000   1.0000   1.0000   1.0000
     1.0000   0.0000   0.0000   0.0000   0.0000

          k = 0.0000 0.1250 0.1250 ( 14811 PWs)   bands (ev):

    -9.5690  -7.0139  -6.9185  -2.4963  -1.1804  -0.8191   0.1901   1.7410
     1.7767   1.7981   1.8099   1.8136   3.0317   3.4435   3.4766   3.5243
     3.5338   3.6796   5.7868  10.2208  10.2986

     occupation numbers 
     1.0000   1.0000   1.0000   1.0000   1.0000   1.0000   1.0000   1.0000
     1.0000   1.0000   1.0000   1.0000   1.0000   1.0000   1.0000   1.0000
     1.0000   1.0000   0.0000   0.0000   0.0000

          k = 0.0000 0.1250 0.2500 ( 14802 PWs)   bands (ev):

    -9.4188  -7.2564  -6.9342  -2.9787  -1.1214  -0.5789   1.0887   1.6748
     1.7437   1.8012   1.8032   1.8324   2.7979   3.2498   3.3507   3.5897
     3.5902   3.7506   6.3385   9.5735  10.2807

     occupation numbers 
     1.0000   1.0000   1.0000   1.0000   1.0000   1.0000   1.0000   1.0000
     1.0000   1.0000   1.0000   1.0000   1.0000   1.0000   1.0000   1.0000
     1.0000   1.0000   0.0000   0.0000   0.0000

          k = 0.0000 0.1250 0.3750 ( 14784 PWs)   bands (ev):

    -9.2250  -7.5654  -6.9302  -3.2457  -1.0589  -0.4751   1.5817   1.6447
     1.7236   1.7836   1.8097   1.8441   2.8771   3.0351   3.6131   3.6848
     3.7084   3.8322   6.6336   8.2017   9.6822

     occupation numbers 
     1.0000   1.0000   1.0000   1.0000   1.0000   1.0000   1.0000   1.0000
     1.0000   1.0000   1.0000   1.0000   1.0000   1.0000   1.0000   1.0000
     1.0000   1.0000   0.0000   0.0000   0.0000

          k = 0.0000 0.1250-0.5000 ( 14764 PWs)   bands (ev):

    -9.1213  -7.7179  -6.9279  -3.3269  -1.0319  -0.4394   1.5568   1.7217
     1.7514   1.7603   1.7709   1.8382   2.8506   2.9478   3.6879   3.7242
     3.7436   4.6632   5.9616   8.0239   9.2571

     occupation numbers 
     1.0000   1.0000   1.0000   1.0000   1.0000   1.0000   1.0000   1.0000
     1.0000   1.0000   1.0000   1.0000   1.0000   1.0000   1.0000   1.0000
     1.0000   0.0000   0.0000   0.0000   0.0000

          k = 0.0000 0.2500 0.2500 ( 14802 PWs)   bands (ev):

    -9.2620  -7.3248  -7.0993  -3.4892  -1.0580   0.2369   1.2732   1.5863
     1.6963   1.7688   1.8038   1.9333   2.6799   3.3285   3.3321   3.4262
     3.5218   4.0041   6.6537   9.3039   9.6222

     occupation numbers 
     1.0000   1.0000   1.0000   1.0000   1.0000   1.0000   1.0000   1.0000
     1.0000   1.0000   1.0000   1.0000   1.0000   1.0000   1.0000   1.0000
     1.0000   0.9901   0.0000   0.0000   0.0000

          k = 0.0000 0.2500 0.3750 ( 14784 PWs)   bands (ev):

    -9.0556  -7.5593  -7.1573  -3.7902  -0.9903   0.6277   1.3607   1.6443
     1.6652   1.7201   1.8097   1.9326   2.8119   3.1814   3.3611   3.4994
     3.9225   4.1691   6.7791   7.9608   9.5795

     occupation numbers 
     1.0000   1.0000   1.0000   1.0000   1.0000   1.0000   1.0000   1.0000
     1.0000   1.0000   1.0000   1.0000   1.0000   1.0000   1.0000   1.0000
     0.9993   0.7306   0.0000   0.0000   0.0000

          k = 0.0000 0.2500-0.5000 ( 14798 PWs)   bands (ev):

    -8.9417  -7.7053  -7.1630  -3.8842  -0.9608   0.7172   1.3041   1.6702
     1.6811   1.7907   1.8221   1.8648   2.7662   3.1093   3.4101   3.5445
     4.1298   4.8456   6.1146   7.5851   9.6137

     occupation numbers 
     1.0000   1.0000   1.0000   1.0000   1.0000   1.0000   1.0000   1.0000
     1.0000   1.0000   1.0000   1.0000   1.0000   1.0000   1.0000   1.0000
     0.8470   0.0000   0.0000   0.0000   0.0000

          k = 0.0000 0.3750 0.3750 ( 14804 PWs)   bands (ev):

    -8.8237  -7.5883  -7.4259  -4.1234  -0.9162   1.1531   1.5869   1.6136
     1.6518   1.6824   1.8250   1.9729   2.7849   3.1179   3.3031   3.3478
     4.4084   4.5166   6.8930   7.3954   8.2616

     occupation numbers 
     1.0000   1.0000   1.0000   1.0000   1.0000   1.0000   1.0000   1.0000
     1.0000   1.0000   1.0000   1.0000   1.0000   1.0000   1.0000   1.0000
     0.0306   0.0014   0.0000   0.0000   0.0000

          k = 0.0000 0.3750-0.5000 ( 14786 PWs)   bands (ev):

    -8.6863  -7.6925  -7.4897  -4.2291  -0.8838   1.0744   1.6066   1.6082
     1.6895   1.8300   1.9591   2.0438   2.6483   3.0855   3.2596   3.3824
     4.4954   5.3130   6.2926   7.1025   7.8814

     occupation numbers 
     1.0000   1.0000   1.0000   1.0000   1.0000   1.0000   1.0000   1.0000
     1.0000   1.0000   1.0000   1.0000   1.0000   1.0000   1.0000   1.0000
     0.0027   0.0000   0.0000   0.0000   0.0000

          k = 0.0000-0.5000-0.5000 ( 14836 PWs)   bands (ev):

    -8.5226  -7.6872  -7.6872  -4.3389  -0.8498   0.9889   1.5788   1.5788
     1.8292   1.8388   2.0238   2.5824   2.5824   2.7766   3.3201   3.3201
     4.6552   6.2647   6.4041   6.4041   6.8495

     occupation numbers 
     1.0000   1.0000   1.0000   1.0000   1.0000   1.0000   1.0000   1.0000
     1.0000   1.0000   1.0000   1.0000   1.0000   1.0000   1.0000   1.0000
     0.0000   0.0000   0.0000   0.0000   0.0000

          k = 0.1250 0.1250 0.1250 ( 14831 PWs)   bands (ev):

    -9.5142  -7.0109  -7.0109  -2.8613  -0.7954  -0.7954   0.4285   1.7296
     1.7296   1.8106   1.8106   1.8331   2.9572   3.2175   3.2175   3.7008
     3.7102   3.7102   5.9753   9.9799  10.5175

     occupation numbers 
     1.0000   1.0000   1.0000   1.0000   1.0000   1.0000   1.0000   1.0000
     1.0000   1.0000   1.0000   1.0000   1.0000   1.0000   1.0000   1.0000
     1.0000   1.0000   0.0000   0.0000   0.0000

          k = 0.1250 0.1250 0.2500 ( 14803 PWs)   bands (ev):

    -9.3620  -7.2603  -7.0038  -3.3296  -0.7357  -0.4326   1.1256   1.6605
     1.7096   1.7961   1.8233   1.8809   2.8000   2.9225   3.2530   3.6952
     3.7626   3.8190   6.4306   9.4706   9.9373

     occupation numbers 
     1.0000   1.0000   1.0000   1.0000   1.0000   1.0000   1.0000   1.0000
     1.0000   1.0000   1.0000   1.0000   1.0000   1.0000   1.0000   1.0000
     1.0000   1.0000   0.0000   0.0000   0.0000

          k = 0.1250 0.1250 0.3750 ( 14765 PWs)   bands (ev):

    -9.1646  -7.5618  -6.9966  -3.6038  -0.6720  -0.2800   1.5334   1.6037
     1.6910   1.7704   1.8385   1.8930   2.6947   3.1680   3.3406   3.8192
     3.8668   3.8861   6.6592   8.1257   9.5668

     occupation numbers 
     1.0000   1.0000   1.0000   1.0000   1.0000   1.0000   1.0000   1.0000
     1.0000   1.0000   1.0000   1.0000   1.0000   1.0000   1.0000   1.0000
     0.9999   0.9998   0.0000   0.0000   0.0000

          k = 0.1250 0.1250-0.5000 ( 14786 PWs)   bands (ev):

    -9.0579  -7.7129  -6.9936  -3.6889  -0.6442  -0.2330   1.5647   1.5815
     1.7253   1.7589   1.8428   1.8464   2.6080   3.2428   3.3819   3.8397
     3.8818   4.6992   6.0074   7.8253   9.4006

     occupation numbers 
     1.0000   1.0000   1.0000   1.0000   1.0000   1.0000   1.0000   1.0000
     1.0000   1.0000   1.0000   1.0000   1.0000   1.0000   1.0000   1.0000
     0.9998   0.0000   0.0000   0.0000   0.0000

          k = 0.1250 0.2500 0.2500 ( 14772 PWs)   bands (ev):

    -9.2034  -7.3214  -7.1519  -3.8326  -0.5642   0.2628   1.2540   1.5965
     1.6633   1.8009   1.8182   1.9901   2.6948   2.9499   2.9825   3.7683
     3.8465   4.0164   6.6519   9.2462   9.3491

     occupation numbers 
     1.0000   1.0000   1.0000   1.0000   1.0000   1.0000   1.0000   1.0000
     1.0000   1.0000   1.0000   1.0000   1.0000   1.0000   1.0000   1.0000
     1.0000   0.9862   0.0000   0.0000   0.0000

          k = 0.1250 0.2500 0.3750 ( 14771 PWs)   bands (ev):

    -8.9935  -7.5559  -7.1915  -4.1461  -0.4846   0.6704   1.3570   1.5915
     1.6437   1.7718   1.8289   1.9597   2.5819   2.9871   3.3533   3.8113
     4.0356   4.1843   6.7010   7.8703   9.3966

     occupation numbers 
     1.0000   1.0000   1.0000   1.0000   1.0000   1.0000   1.0000   1.0000
     1.0000   1.0000   1.0000   1.0000   1.0000   1.0000   1.0000   1.0000
     0.9774   0.6762   0.0000   0.0000   0.0000

          k = 0.1250 0.2500-0.5000 ( 14782 PWs)   bands (ev):

    -8.8764  -7.7008  -7.1937  -4.2459  -0.4521   0.7667   1.3215   1.6041
     1.6869   1.8129   1.8323   1.8833   2.4872   3.0287   3.4335   3.8606
     4.1453   4.8580   6.1107   7.3533   9.4819

     occupation numbers 
     1.0000   1.0000   1.0000   1.0000   1.0000   1.0000   1.0000   1.0000
     1.0000   1.0000   1.0000   1.0000   1.0000   1.0000   1.0000   0.9999
     0.8058   0.0000   0.0000   0.0000   0.0000

          k = 0.1250 0.3750 0.3750 ( 14798 PWs)   bands (ev):

    -8.7579  -7.5846  -7.4344  -4.4974  -0.3942   1.1845   1.5550   1.5857
     1.6501   1.7496   1.8317   1.9799   2.5631   2.7636   3.5177   3.7058
     4.4061   4.5498   6.6711   7.3518   8.1671

     occupation numbers 
     1.0000   1.0000   1.0000   1.0000   1.0000   1.0000   1.0000   1.0000
     1.0000   1.0000   1.0000   1.0000   1.0000   1.0000   1.0000   1.0000
     0.0323   0.0004   0.0000   0.0000   0.0000

          k = 0.1250 0.3750-0.5000 ( 14790 PWs)   bands (ev):

    -8.6167  -7.6885  -7.4918  -4.6109  -0.3572   1.1178   1.5677   1.5837
     1.7337   1.8364   1.9596   2.0498   2.4248   2.7811   3.5212   3.6949
     4.4915   5.3078   6.2259   6.8374   7.8182

     occupation numbers 
     1.0000   1.0000   1.0000   1.0000   1.0000   1.0000   1.0000   1.0000
     1.0000   1.0000   1.0000   1.0000   1.0000   1.0000   1.0000   1.0000
     0.0031   0.0000   0.0000   0.0000   0.0000

          k = 0.1250-0.5000-0.5000 ( 14800 PWs)   bands (ev):

    -8.4467  -7.6834  -7.6834  -4.7295  -0.3181   1.0406   1.5664   1.5664
     1.8306   1.8424   2.0135   2.3872   2.3872   2.7796   3.5529   3.5529
     4.6492   6.2500   6.3580   6.3580   6.5172

     occupation numbers 
     1.0000   1.0000   1.0000   1.0000   1.0000   1.0000   1.0000   1.0000
     1.0000   1.0000   1.0000   1.0000   1.0000   1.0000   1.0000   1.0000
     0.0000   0.0000   0.0000   0.0000   0.0000

          k = 0.2500 0.2500 0.2500 ( 14790 PWs)   bands (ev):

    -9.0389  -7.3131  -7.3131  -4.3816   0.3305   0.3305   1.2512   1.6030
     1.6030   1.8269   1.8269   2.0970   2.5712   2.5712   3.0570   4.0396
     4.0530   4.0530   6.6223   9.1004   9.1006

     occupation numbers 
     1.0000   1.0000   1.0000   1.0000   1.0000   1.0000   1.0000   1.0000
     1.0000   1.0000   1.0000   1.0000   1.0000   1.0000   1.0000   0.9750
     0.9657   0.9657   0.0000   0.0000   0.0000

          k = 0.2500 0.2500 0.3750 ( 14776 PWs)   bands (ev):

    -8.8169  -7.5498  -7.3048  -4.7523   0.4075   0.9037   1.3258   1.5490
     1.6122   1.8137   1.8420   2.0197   2.3167   2.5881   3.6341   4.0804
     4.1954   4.2478   6.4725   7.6458   8.9720

     occupation numbers 
     1.0000   1.0000   1.0000   1.0000   1.0000   1.0000   1.0000   1.0000
     1.0000   1.0000   1.0000   1.0000   1.0000   1.0000   1.0000   0.9379
     0.6337   0.4196   0.0000   0.0000   0.0000

          k = 0.2500 0.2500-0.5000 ( 14744 PWs)   bands (ev):

    -8.6888  -7.6899  -7.3014  -4.8746   0.4432   1.0355   1.3181   1.5255
     1.7345   1.8016   1.8494   1.9211   2.2306   2.6225   3.7991   4.0954
     4.2392   4.9265   6.0558   6.8665   8.9259

     occupation numbers 
     1.0000   1.0000   1.0000   1.0000   1.0000   1.0000   1.0000   1.0000
     1.0000   1.0000   1.0000   1.0000   1.0000   1.0000   1.0000   0.9163
     0.4547   0.0000   0.0000   0.0000   0.0000

          k = 0.2500 0.3750 0.3750 ( 14798 PWs)   bands (ev):

    -8.5700  -7.5757  -7.4712  -5.1891   0.7060   1.2580   1.5165   1.5343
     1.7052   1.8126   1.8452   1.9963   2.2415   2.3826   3.9174   4.1003
     4.4020   4.5648   6.1947   7.2075   7.8506

     occupation numbers 
     1.0000   1.0000   1.0000   1.0000   1.0000   1.0000   1.0000   1.0000
     1.0000   1.0000   1.0000   1.0000   1.0000   1.0000   0.9994   0.9083
     0.0355   0.0002   0.0000   0.0000   0.0000

          k = 0.2500 0.3750-0.5000 ( 14796 PWs)   bands (ev):

    -8.4157  -7.6789  -7.5060  -5.3384   0.7704   1.2301   1.5221   1.5276
     1.7936   1.8486   1.9514   2.0496   2.1284   2.4544   3.9468   4.0893
     4.4858   5.2756   5.9470   6.4061   7.5735

     occupation numbers 
     1.0000   1.0000   1.0000   1.0000   1.0000   1.0000   1.0000   1.0000
     1.0000   1.0000   1.0000   1.0000   1.0000   1.0000   0.9983   0.9257
     0.0037   0.0000   0.0000   0.0000   0.0000

          k = 0.2500-0.5000-0.5000 ( 14804 PWs)   bands (ev):

    -8.2253  -7.6743  -7.6743  -5.4991   0.8479   1.1815   1.5320   1.5320
     1.8345   1.8510   1.9782   2.0956   2.0956   2.7868   3.9736   3.9736
     4.6346   5.9068   6.1793   6.1837   6.1837

     occupation numbers 
     1.0000   1.0000   1.0000   1.0000   1.0000   1.0000   1.0000   1.0000
     1.0000   1.0000   1.0000   1.0000   1.0000   1.0000   0.9959   0.9959
     0.0000   0.0000   0.0000   0.0000   0.0000

          k = 0.3750 0.3750 0.3750 ( 14790 PWs)   bands (ev):

    -8.3014  -7.5667  -7.5667  -5.7548   1.3183   1.4887   1.4887   1.7515
     1.7515   1.8716   1.8716   1.9911   2.1107   2.1107   4.3543   4.3543
     4.4310   4.6339   5.7726   7.0163   7.0163

     occupation numbers 
     1.0000   1.0000   1.0000   1.0000   1.0000   1.0000   1.0000   1.0000
     1.0000   1.0000   1.0000   1.0000   1.0000   1.0000   0.0952   0.0952
     0.0176   0.0000   0.0000   0.0000   0.0000

          k = 0.3750 0.3750-0.5000 ( 14822 PWs)   bands (ev):

    -8.1204  -7.6692  -7.5630  -5.9714   1.3421   1.4788   1.4878   1.7622
     1.8541   1.9211   1.9421   1.9615   1.9744   2.4234   4.3064   4.3757
     4.5174   5.3293   5.5746   6.0652   6.9246

     occupation numbers 
     1.0000   1.0000   1.0000   1.0000   1.0000   1.0000   1.0000   1.0000
     1.0000   1.0000   1.0000   1.0000   1.0000   1.0000   0.2082   0.0627
     0.0013   0.0000   0.0000   0.0000   0.0000

          k = 0.3750-0.5000-0.5000 ( 14796 PWs)   bands (ev):

    -7.8940  -7.6652  -7.6652  -6.2345   1.3620   1.4870   1.4870   1.8322
     1.8596   1.8999   1.8999   1.9133   2.1233   2.7940   4.3937   4.3937
     4.6200   5.4191   5.8916   5.8916   5.9580

     occupation numbers 
     1.0000   1.0000   1.0000   1.0000   1.0000   1.0000   1.0000   1.0000
     1.0000   1.0000   1.0000   1.0000   1.0000   1.0000   0.0428   0.0428
     0.0000   0.0000   0.0000   0.0000   0.0000

          k =-0.5000-0.5000-0.5000 ( 14832 PWs)   bands (ev):

    -7.6614  -7.6614  -7.6614  -6.6102   1.4633   1.4633   1.4633   1.8366
     1.8366   1.8366   1.8633   1.8633   2.7970   2.7970   4.6139   4.6139
     4.6139   5.2360   5.7042   5.7042   5.7042

     occupation numbers 
     1.0000   1.0000   1.0000   1.0000   1.0000   1.0000   1.0000   1.0000
     1.0000   1.0000   1.0000   1.0000   1.0000   1.0000   0.0000   0.0000
     0.0000   0.0000   0.0000   0.0000   0.0000

     the Fermi energy is     4.2283 ev

!    total energy              =    -302.84952868 Ry
     estimated scf accuracy    <          5.9E-14 Ry
     smearing contrib. (-TS)   =      -0.00248634 Ry
     internal energy E=F+TS    =    -302.84704234 Ry

     The total energy is F=E-TS. E is the sum of the following terms:
     one-electron contribution =     -24.19813453 Ry
     hartree contribution      =      32.96023267 Ry
     xc contribution           =     -49.60118820 Ry
     ewald contribution        =    -123.61239984 Ry
     one-center paw contrib.   =    -138.39555244 Ry
      -> PAW hartree energy AE =       0.00000000 Ry
      -> PAW hartree energy PS =       0.00000000 Ry
      -> PAW xc energy AE      =       0.00000000 Ry
      -> PAW xc energy PS      =       0.00000000 Ry
      -> total E_H with PAW    =      32.96023267 Ry
      -> total E_XC with PAW   =     -49.60118820 Ry

     convergence has been achieved in  15 iterations

     Forces acting on atoms (cartesian axes, Ry/au):

     atom    1 type  1   force =     0.00000000    0.00000000    0.00000000
     atom    2 type  2   force =     0.00000000    0.00000000    0.00000000
     atom    3 type  3   force =     0.00000000    0.00000000    0.00000000
     atom    4 type  3   force =     0.00000000    0.00000000    0.00000000
     atom    5 type  3   force =     0.00000000    0.00000000    0.00000000
     The non-local contrib.  to forces
     atom    1 type  1   force =     0.00000000    0.00000000    0.00000000
     atom    2 type  2   force =     0.00000000    0.00000000    0.00000000
     atom    3 type  3   force =     0.00000000    0.00000000    0.00000000
     atom    4 type  3   force =     0.00000000    0.00000000    0.00000000
     atom    5 type  3   force =     0.00000000    0.00000000    0.00000000
     The ionic contribution  to forces
     atom    1 type  1   force =    -0.00000000   -0.00000000   -0.00000000
     atom    2 type  2   force =     0.00000000    0.00000000    0.00000000
     atom    3 type  3   force =     0.00000000    0.00000000   -0.00000000
     atom    4 type  3   force =     0.00000000   -0.00000000    0.00000000
     atom    5 type  3   force =    -0.00000000    0.00000000    0.00000000
     The local contribution  to forces
     atom    1 type  1   force =     0.00000000    0.00000000    0.00000000
     atom    2 type  2   force =     0.00000000    0.00000000    0.00000000
     atom    3 type  3   force =     0.00000000    0.00000000   -0.00000000
     atom    4 type  3   force =     0.00000000    0.00000000    0.00000000
     atom    5 type  3   force =     0.00000000    0.00000000    0.00000000
     The core correction contribution to forces
     atom    1 type  1   force =     0.00000000    0.00000000   -0.00000000
     atom    2 type  2   force =     0.00000000    0.00000000    0.00000000
     atom    3 type  3   force =     0.00000000   -0.00000000   -0.00000000
     atom    4 type  3   force =    -0.00000000    0.00000000   -0.00000000
     atom    5 type  3   force =     0.00000000    0.00000000    0.00000000
     The Hubbard contrib.    to forces
     atom    1 type  1   force =     0.00000000    0.00000000    0.00000000
     atom    2 type  2   force =     0.00000000    0.00000000    0.00000000
     atom    3 type  3   force =     0.00000000    0.00000000    0.00000000
     atom    4 type  3   force =     0.00000000    0.00000000    0.00000000
     atom    5 type  3   force =     0.00000000    0.00000000    0.00000000
     The SCF correction term to forces
     atom    1 type  1   force =    -0.00000000   -0.00000000    0.00000000
     atom    2 type  2   force =    -0.00000000    0.00000000    0.00000000
     atom    3 type  3   force =     0.00000000    0.00000000   -0.00000000
     atom    4 type  3   force =     0.00000000   -0.00000000   -0.00000000
     atom    5 type  3   force =    -0.00000000    0.00000000   -0.00000000

     Total force =     0.000000     Total SCF correction =     0.000000


     Computing stress (Cartesian axis) and pressure

          total   stress  (Ry/bohr**3)                   (kbar)     P=       -7.15
  -0.00004863   0.00000000   0.00000000           -7.15        0.00        0.00
   0.00000000  -0.00004863   0.00000000            0.00       -7.15        0.00
   0.00000000   0.00000000  -0.00004863            0.00        0.00       -7.15

     kinetic stress (kbar)   8128.39      0.00      0.00
                                0.00   8128.39      0.00
                                0.00      0.00   8128.39

     local   stress (kbar)    208.59     -0.00     -0.00
                               -0.00    208.59      0.00
                               -0.00      0.00    208.59

     nonloc. stress (kbar)  -1432.51      0.00      0.00
                                0.00  -1432.51      0.00
                                0.00      0.00  -1432.51

     hartree stress (kbar)   1845.47      0.00      0.00
                                0.00   1845.47     -0.00
                                0.00     -0.00   1845.47

     exc-cor stress (kbar)   1608.47     -0.00      0.00
                               -0.00   1608.47      0.00
                                0.00      0.00   1608.47

     corecor stress (kbar)  -3444.41     -0.00      0.00
                               -0.00  -3444.41      0.00
                                0.00      0.00  -3444.41

     ewald   stress (kbar)  -6921.14     -0.00     -0.00
                               -0.00  -6921.14     -0.00
                               -0.00     -0.00  -6921.14

     hubbard stress (kbar)      0.00      0.00      0.00
                                0.00      0.00      0.00
                                0.00      0.00      0.00

     DFT-D   stress (kbar)      0.00      0.00      0.00
                                0.00      0.00      0.00
                                0.00      0.00      0.00

     XDM     stress (kbar)      0.00      0.00      0.00
                                0.00      0.00      0.00
                                0.00      0.00      0.00

     dft-nl  stress (kbar)      0.00      0.00      0.00
                                0.00      0.00      0.00
                                0.00      0.00      0.00

     TS-vdW  stress (kbar)      0.00      0.00      0.00
                                0.00      0.00      0.00
                                0.00      0.00      0.00

     MDB     stress (kbar)      0.00      0.00      0.00
                                0.00      0.00      0.00
                                0.00      0.00      0.00

     3D-RISM stress (kbar)      0.00      0.00      0.00
                                0.00      0.00      0.00
                                0.00      0.00      0.00


     Writing all to output data dir ./tmp/agsbs3.save/ :
     XML data file, charge density, pseudopotentials, collected wavefunctions

     init_run     :      5.90s CPU      5.14s WALL (       1 calls)
     electrons    :    214.91s CPU    163.52s WALL (       1 calls)
     forces       :      2.73s CPU      2.19s WALL (       1 calls)
     stress       :     15.07s CPU     14.21s WALL (       1 calls)

     Called by init_run:
     wfcinit      :      3.55s CPU      2.60s WALL (       1 calls)
     wfcinit:atom :      0.07s CPU      0.04s WALL (      18 calls)
     wfcinit:wfcr :      3.02s CPU      2.21s WALL (      18 calls)
     potinit      :      0.61s CPU      0.65s WALL (       1 calls)
     hinit0       :      0.81s CPU      0.84s WALL (       1 calls)

     Called by electrons:
     c_bands      :    155.16s CPU    109.53s WALL (      15 calls)
     sum_band     :     42.49s CPU     34.38s WALL (      15 calls)
     v_of_rho     :      2.99s CPU      3.33s WALL (      16 calls)
     v_h          :      0.19s CPU      0.25s WALL (      16 calls)
     v_xc         :      3.14s CPU      3.45s WALL (      18 calls)
     newd         :     11.92s CPU     14.05s WALL (      16 calls)
     PAW_pot      :      2.69s CPU      2.69s WALL (      16 calls)
     mix_rho      :      0.33s CPU      0.33s WALL (      15 calls)

     Called by c_bands:
     init_us_2    :      6.12s CPU      4.33s WALL (     594 calls)
     cegterg      :    134.26s CPU     94.22s WALL (     270 calls)

     Called by sum_band:
     sum_band:wei :      0.02s CPU      0.02s WALL (      15 calls)
     sum_band:loo :     24.42s CPU     17.43s WALL (      15 calls)
     sum_band:buf :      0.22s CPU      0.16s WALL (     270 calls)
     sum_band:ini :      2.72s CPU      1.91s WALL (     270 calls)
     sum_band:cal :      2.37s CPU      1.33s WALL (     270 calls)
     sum_band:bec :      0.03s CPU      0.02s WALL (     270 calls)
     addusdens    :     17.10s CPU     16.03s WALL (      15 calls)
                                        0.00s GPU  (      15 calls)
     addusd:skk   :      0.03s CPU      0.03s WALL (      45 calls)
                                        0.00s GPU  (      45 calls)

     Called by *egterg:
     cdiaghg      :      3.14s CPU      2.28s WALL (    1353 calls)
     cegterg:over :      5.84s CPU      3.36s WALL (    1083 calls)
     cegterg:upda :      3.14s CPU      1.80s WALL (    1083 calls)
     cegterg:last :      6.02s CPU      3.35s WALL (     667 calls)
     h_psi        :    107.86s CPU     78.90s WALL (    1371 calls)
     s_psi        :      6.70s CPU      3.63s WALL (    1371 calls)
     g_psi        :      0.86s CPU      0.60s WALL (    1083 calls)

     Called by h_psi:
     h_psi:calbec :      7.76s CPU      4.48s WALL (    1371 calls)
     vloc_psi     :     91.90s CPU     69.84s WALL (    1371 calls)
     add_vuspsi   :      7.60s CPU      4.15s WALL (    1371 calls)

     General routines
     calbec       :     11.44s CPU      6.65s WALL (    1731 calls)
     fft          :      2.15s CPU      2.34s WALL (     231 calls)
     ffts         :      0.26s CPU      0.25s WALL (      31 calls)
     fftw         :     80.92s CPU     61.58s WALL (   40282 calls)
     interpolate  :      0.40s CPU      0.42s WALL (      16 calls)

     Parallel routines

     PAW routines
     PAW_pot      :      2.69s CPU      2.69s WALL (      16 calls)
     PAW_symme    :      0.03s CPU      0.02s WALL (      31 calls)

     PWSCF        :   3m59.25s CPU   3m 5.82s WALL


   This run was terminated on:  17:44:10   8May2025            

=------------------------------------------------------------------------------=
   JOB DONE.
=------------------------------------------------------------------------------=
