
     Program PWSCF v.7.3.1 starts on 15May2025 at 21:17:29 

     This program is part of the open-source Quantum ESPRESSO suite
     for quantum simulation of materials; please cite
         "P. Giannozzi et al., J. Phys.:Condens. Matter 21 395502 (2009);
         "P. Giannozzi et al., J. Phys.:Condens. Matter 29 465901 (2017);
         "P. Giannozzi et al., J. Chem. Phys. 152 154105 (2020);
          URL http://www.quantum-espresso.org", 
     in publications or presentations arising from this work. More details at
     http://www.quantum-espresso.org/quote

     Parallel version (MPI), running on     8 processors

     MPI processes distributed on     1 nodes
     55663 MiB available memory on the printing compute node when the environment starts

     Waiting for input...
     Reading input from standard input

     Current dimensions of program PWSCF are:
     Max number of different atomic species (ntypx) = 10
     Max number of k-points (npk) = 120000
     Max angular momentum in pseudopotentials (lmaxx) =  4
     file K.pbe-spn-kjpaw_psl.1.0.0.UPF: wavefunction(s)  3S renormalized
     file Zn.pbe-spn-kjpaw_psl.1.0.0.UPF: wavefunction(s)  3P 3D renormalized
     file I.pbe-n-kjpaw_psl.1.0.0.UPF: wavefunction(s)  5S renormalized

     IMPORTANT: XC functional enforced from input :
     Exchange-correlation= PBE
                           (   1   4   3   4   0   0   0)
     Any further DFT definition will be discarded
     Please, verify this is what you really want

     Message from routine setup:
     using ibrav=0 with symmetry is DISCOURAGED, use correct ibrav instead

     K-points division:     npool     =       4
     R & G space division:  proc/nbgrp/npool/nimage =       2
     Subspace diagonalization in iterative solution of the eigenvalue problem:
     a serial algorithm will be used


     Parallelization info
     --------------------
     sticks:   dense  smooth     PW     G-vecs:    dense   smooth      PW
     Min        3716    1860    516               241924    85450   12418
     Max        3717    1861    517               241925    85451   12419
     Sum        7433    3721   1033               483849   170901   24837

     Using Slab Decomposition



     bravais-lattice index     =            0
     lattice parameter (alat)  =      10.8190  a.u.
     unit-cell volume          =    1266.3551 (a.u.)^3
     number of atoms/cell      =            5
     number of atomic types    =            3
     number of electrons       =        50.00
     number of Kohn-Sham states=           30
     kinetic-energy cutoff     =     100.0000  Ry
     charge density cutoff     =     800.0000  Ry
     scf convergence threshold =      1.0E-12
     mixing beta               =       0.3000
     number of iterations used =            8  plain     mixing
     Exchange-correlation= PBE
                           (   1   4   3   4   0   0   0)

     celldm(1)=  10.818951  celldm(2)=   0.000000  celldm(3)=   0.000000
     celldm(4)=   0.000000  celldm(5)=   0.000000  celldm(6)=   0.000000

     crystal axes: (cart. coord. in units of alat)
               a(1) = (   1.000000   0.000000   0.000000 )  
               a(2) = (   0.000000   1.000000   0.000000 )  
               a(3) = (   0.000000   0.000000   1.000000 )  

     reciprocal axes: (cart. coord. in units 2 pi/alat)
               b(1) = (  1.000000  0.000000  0.000000 )  
               b(2) = (  0.000000  1.000000  0.000000 )  
               b(3) = (  0.000000  0.000000  1.000000 )  


     PseudoPot. # 1 for K  read from file:
     /home/administrator/Downloads/BURAI/BURAI1.3/pseudopot/K.pbe-spn-kjpaw_psl.1.0.0.UPF
     MD5 check sum: 14ff5a24ff9f8afecca2cb30191d3c3d
     Pseudo is Projector augmented-wave + core cor, Zval =  9.0
     Generated using "atomic" code by A. Dal Corso  v.5.1.2
     Shape of augmentation charge: PSQ
     Using radial grid of 1165 points,  6 beta functions with: 
                l(1) =   0
                l(2) =   0
                l(3) =   1
                l(4) =   1
                l(5) =   2
                l(6) =   2
     Q(r) pseudized with 0 coefficients 


     PseudoPot. # 2 for Zn read from file:
     /home/administrator/Downloads/BURAI/BURAI1.3/pseudopot/Zn.pbe-spn-kjpaw_psl.1.0.0.UPF
     MD5 check sum: 9ae49ce97c5e3111e3f06ee7e23c2246
     Pseudo is Projector augmented-wave + core cor, Zval = 20.0
     Generated using "atomic" code by A. Dal Corso  v.5.1.2
     Shape of augmentation charge: PSQ
     Using radial grid of 1201 points,  6 beta functions with: 
                l(1) =   0
                l(2) =   0
                l(3) =   1
                l(4) =   1
                l(5) =   2
                l(6) =   2
     Q(r) pseudized with 0 coefficients 


     PseudoPot. # 3 for I  read from file:
     /home/administrator/Downloads/BURAI/BURAI1.3/pseudopot/I.pbe-n-kjpaw_psl.1.0.0.UPF
     MD5 check sum: e1b2a55c91904a364f23c37cb15bc296
     Pseudo is Projector augmented-wave + core cor, Zval =  7.0
     Generated using "atomic" code by A. Dal Corso  v.5.1.2
     Shape of augmentation charge: PSQ
     Using radial grid of 1247 points,  6 beta functions with: 
                l(1) =   0
                l(2) =   0
                l(3) =   1
                l(4) =   1
                l(5) =   2
                l(6) =   2
     Q(r) pseudized with 0 coefficients 


     atomic species   valence    mass     pseudopotential
     K                 9.00    39.09830     K ( 1.00)
     Zn               20.00    65.38000     Zn( 1.00)
     I                 7.00   126.90450     I ( 1.00)

     48 Sym. Ops., with inversion, found



   Cartesian axes

     site n.     atom                  positions (alat units)
         1        K      tau(   1) = (   0.0000000   0.0000000   0.0000000  )
         2        Zn     tau(   2) = (   0.5000000   0.5000000   0.5000000  )
         3        I      tau(   3) = (   0.5000000   0.5000000   0.0000000  )
         4        I      tau(   4) = (   0.5000000   0.0000000   0.5000000  )
         5        I      tau(   5) = (   0.0000000   0.5000000   0.5000000  )

     number of k points=    56  Gaussian smearing, width (Ry)=  0.0050
                       cart. coord. in units 2pi/alat
        k(    1) = (   0.0000000   0.0000000   0.0000000), wk =   0.0020000
        k(    2) = (   0.0000000   0.0000000   0.1000000), wk =   0.0120000
        k(    3) = (   0.0000000   0.0000000   0.2000000), wk =   0.0120000
        k(    4) = (   0.0000000   0.0000000   0.3000000), wk =   0.0120000
        k(    5) = (   0.0000000   0.0000000   0.4000000), wk =   0.0120000
        k(    6) = (   0.0000000   0.0000000  -0.5000000), wk =   0.0060000
        k(    7) = (   0.0000000   0.1000000   0.1000000), wk =   0.0240000
        k(    8) = (   0.0000000   0.1000000   0.2000000), wk =   0.0480000
        k(    9) = (   0.0000000   0.1000000   0.3000000), wk =   0.0480000
        k(   10) = (   0.0000000   0.1000000   0.4000000), wk =   0.0480000
        k(   11) = (   0.0000000   0.1000000  -0.5000000), wk =   0.0240000
        k(   12) = (   0.0000000   0.2000000   0.2000000), wk =   0.0240000
        k(   13) = (   0.0000000   0.2000000   0.3000000), wk =   0.0480000
        k(   14) = (   0.0000000   0.2000000   0.4000000), wk =   0.0480000
        k(   15) = (   0.0000000   0.2000000  -0.5000000), wk =   0.0240000
        k(   16) = (   0.0000000   0.3000000   0.3000000), wk =   0.0240000
        k(   17) = (   0.0000000   0.3000000   0.4000000), wk =   0.0480000
        k(   18) = (   0.0000000   0.3000000  -0.5000000), wk =   0.0240000
        k(   19) = (   0.0000000   0.4000000   0.4000000), wk =   0.0240000
        k(   20) = (   0.0000000   0.4000000  -0.5000000), wk =   0.0240000
        k(   21) = (   0.0000000  -0.5000000  -0.5000000), wk =   0.0060000
        k(   22) = (   0.1000000   0.1000000   0.1000000), wk =   0.0160000
        k(   23) = (   0.1000000   0.1000000   0.2000000), wk =   0.0480000
        k(   24) = (   0.1000000   0.1000000   0.3000000), wk =   0.0480000
        k(   25) = (   0.1000000   0.1000000   0.4000000), wk =   0.0480000
        k(   26) = (   0.1000000   0.1000000  -0.5000000), wk =   0.0240000
        k(   27) = (   0.1000000   0.2000000   0.2000000), wk =   0.0480000
        k(   28) = (   0.1000000   0.2000000   0.3000000), wk =   0.0960000
        k(   29) = (   0.1000000   0.2000000   0.4000000), wk =   0.0960000
        k(   30) = (   0.1000000   0.2000000  -0.5000000), wk =   0.0480000
        k(   31) = (   0.1000000   0.3000000   0.3000000), wk =   0.0480000
        k(   32) = (   0.1000000   0.3000000   0.4000000), wk =   0.0960000
        k(   33) = (   0.1000000   0.3000000  -0.5000000), wk =   0.0480000
        k(   34) = (   0.1000000   0.4000000   0.4000000), wk =   0.0480000
        k(   35) = (   0.1000000   0.4000000  -0.5000000), wk =   0.0480000
        k(   36) = (   0.1000000  -0.5000000  -0.5000000), wk =   0.0120000
        k(   37) = (   0.2000000   0.2000000   0.2000000), wk =   0.0160000
        k(   38) = (   0.2000000   0.2000000   0.3000000), wk =   0.0480000
        k(   39) = (   0.2000000   0.2000000   0.4000000), wk =   0.0480000
        k(   40) = (   0.2000000   0.2000000  -0.5000000), wk =   0.0240000
        k(   41) = (   0.2000000   0.3000000   0.3000000), wk =   0.0480000
        k(   42) = (   0.2000000   0.3000000   0.4000000), wk =   0.0960000
        k(   43) = (   0.2000000   0.3000000  -0.5000000), wk =   0.0480000
        k(   44) = (   0.2000000   0.4000000   0.4000000), wk =   0.0480000
        k(   45) = (   0.2000000   0.4000000  -0.5000000), wk =   0.0480000
        k(   46) = (   0.2000000  -0.5000000  -0.5000000), wk =   0.0120000
        k(   47) = (   0.3000000   0.3000000   0.3000000), wk =   0.0160000
        k(   48) = (   0.3000000   0.3000000   0.4000000), wk =   0.0480000
        k(   49) = (   0.3000000   0.3000000  -0.5000000), wk =   0.0240000
        k(   50) = (   0.3000000   0.4000000   0.4000000), wk =   0.0480000
        k(   51) = (   0.3000000   0.4000000  -0.5000000), wk =   0.0480000
        k(   52) = (   0.3000000  -0.5000000  -0.5000000), wk =   0.0120000
        k(   53) = (   0.4000000   0.4000000   0.4000000), wk =   0.0160000
        k(   54) = (   0.4000000   0.4000000  -0.5000000), wk =   0.0240000
        k(   55) = (   0.4000000  -0.5000000  -0.5000000), wk =   0.0120000
        k(   56) = (  -0.5000000  -0.5000000  -0.5000000), wk =   0.0020000

     Dense  grid:   483849 G-vectors     FFT dimensions: ( 100, 100, 100)

     Smooth grid:   170901 G-vectors     FFT dimensions: (  72,  72,  72)

     Estimated max dynamical RAM per process >     420.59 MB

     Estimated total dynamical RAM >       2.94 GB

     Initial potential from superposition of free atoms

     starting charge      49.9808, renormalised to      50.0000
     Starting wfcs are   30 randomized atomic wfcs
     Checking if some PAW data can be deallocated... 

     total cpu time spent up to now is       12.6 secs

     Self-consistent Calculation

     iteration #  1     ecut=   100.00 Ry     beta= 0.30
     Davidson diagonalization with overlap
     ethr =  1.00E-02,  avg # of iterations =  6.3

     Threshold (ethr) on eigenvalues was too large:
     Diagonalizing with lowered threshold

     Davidson diagonalization with overlap
     ethr =  2.98E-04,  avg # of iterations =  4.0

     total cpu time spent up to now is       70.0 secs

     total energy              =   -1799.96053595 Ry
     estimated scf accuracy    <       0.14917941 Ry

     iteration #  2     ecut=   100.00 Ry     beta= 0.30
     Davidson diagonalization with overlap
     ethr =  2.98E-04,  avg # of iterations =  2.3

     total cpu time spent up to now is       97.5 secs

     total energy              =   -1799.97270613 Ry
     estimated scf accuracy    <       0.02085807 Ry

     iteration #  3     ecut=   100.00 Ry     beta= 0.30
     Davidson diagonalization with overlap
     ethr =  4.17E-05,  avg # of iterations =  7.9

     total cpu time spent up to now is      130.2 secs

     total energy              =   -1799.97491852 Ry
     estimated scf accuracy    <       0.00306578 Ry

     iteration #  4     ecut=   100.00 Ry     beta= 0.30
     Davidson diagonalization with overlap
     ethr =  6.13E-06,  avg # of iterations =  6.7

     total cpu time spent up to now is      161.3 secs

     total energy              =   -1799.97543589 Ry
     estimated scf accuracy    <       0.00065540 Ry

     iteration #  5     ecut=   100.00 Ry     beta= 0.30
     Davidson diagonalization with overlap
     ethr =  1.31E-06,  avg # of iterations =  5.6

     total cpu time spent up to now is      192.0 secs

     total energy              =   -1799.97551324 Ry
     estimated scf accuracy    <       0.00000964 Ry

     iteration #  6     ecut=   100.00 Ry     beta= 0.30
     Davidson diagonalization with overlap
     ethr =  1.93E-08,  avg # of iterations =  5.4

     total cpu time spent up to now is      228.6 secs

     total energy              =   -1799.97552490 Ry
     estimated scf accuracy    <       0.00000240 Ry

     iteration #  7     ecut=   100.00 Ry     beta= 0.30
     Davidson diagonalization with overlap
     ethr =  4.79E-09,  avg # of iterations =  2.2

     total cpu time spent up to now is      256.8 secs

     total energy              =   -1799.97552605 Ry
     estimated scf accuracy    <       0.00000075 Ry

     iteration #  8     ecut=   100.00 Ry     beta= 0.30
     Davidson diagonalization with overlap
     ethr =  1.51E-09,  avg # of iterations =  2.0

     total cpu time spent up to now is      285.5 secs

     total energy              =   -1799.97552654 Ry
     estimated scf accuracy    <       0.00000020 Ry

     iteration #  9     ecut=   100.00 Ry     beta= 0.30
     Davidson diagonalization with overlap
     ethr =  4.04E-10,  avg # of iterations =  2.0

     total cpu time spent up to now is      313.3 secs

     total energy              =   -1799.97552675 Ry
     estimated scf accuracy    <          5.2E-09 Ry

     iteration # 10     ecut=   100.00 Ry     beta= 0.30
     Davidson diagonalization with overlap
     ethr =  1.05E-11,  avg # of iterations =  4.3

     total cpu time spent up to now is      344.3 secs

     total energy              =   -1799.97552683 Ry
     estimated scf accuracy    <          4.6E-09 Ry

     iteration # 11     ecut=   100.00 Ry     beta= 0.30
     Davidson diagonalization with overlap
     ethr =  9.24E-12,  avg # of iterations =  2.0

     total cpu time spent up to now is      372.3 secs

     total energy              =   -1799.97552686 Ry
     estimated scf accuracy    <          2.3E-10 Ry

     iteration # 12     ecut=   100.00 Ry     beta= 0.30
     Davidson diagonalization with overlap
     ethr =  4.56E-13,  avg # of iterations =  2.6

     total cpu time spent up to now is      399.9 secs

     total energy              =   -1799.97552688 Ry
     estimated scf accuracy    <          3.3E-11 Ry

     iteration # 13     ecut=   100.00 Ry     beta= 0.30
     Davidson diagonalization with overlap
     ethr =  1.00E-13,  avg # of iterations =  2.9

     total cpu time spent up to now is      430.2 secs

     total energy              =   -1799.97552689 Ry
     estimated scf accuracy    <          5.2E-11 Ry

     iteration # 14     ecut=   100.00 Ry     beta= 0.30
     Davidson diagonalization with overlap
     ethr =  1.00E-13,  avg # of iterations =  2.0

     total cpu time spent up to now is      458.2 secs

     total energy              =   -1799.97552690 Ry
     estimated scf accuracy    <          1.1E-12 Ry

     iteration # 15     ecut=   100.00 Ry     beta= 0.30
     Davidson diagonalization with overlap
     ethr =  1.00E-13,  avg # of iterations =  1.0

     total cpu time spent up to now is      482.1 secs

     total energy              =   -1799.97552690 Ry
     estimated scf accuracy    <          2.0E-12 Ry

     iteration # 16     ecut=   100.00 Ry     beta= 0.30
     Davidson diagonalization with overlap
     ethr =  1.00E-13,  avg # of iterations =  1.0

     total cpu time spent up to now is      505.7 secs

     End of self-consistent calculation

          k = 0.0000 0.0000 0.0000 ( 21367 PWs)   bands (ev):

  -122.1234 -76.2963 -76.2963 -76.2963 -26.3213  -9.7852  -9.7852  -9.7852
    -8.7562  -7.8319  -7.8319  -3.0321  -3.0321  -3.0321  -2.9431  -2.9431
     0.1177   0.1177   0.1177   2.5014   2.5594   2.5594   2.5594   2.9232
     2.9232   2.9232   6.8674   8.4295   8.4295   8.8734

          k = 0.0000 0.0000 0.1000 ( 21423 PWs)   bands (ev):

  -122.1234 -76.2964 -76.2963 -76.2963 -26.3213  -9.7873  -9.7851  -9.7851
    -8.7358  -7.8489  -7.8311  -3.0334  -3.0334  -3.0321  -2.9713  -2.9430
     0.1041   0.1388   0.1388   2.3234   2.5309   2.5345   2.5345   2.8946
     2.8946   3.2037   7.0004   8.4849   8.5495   8.9807

          k = 0.0000 0.0000 0.2000 ( 21411 PWs)   bands (ev):

  -122.1234 -76.2963 -76.2963 -76.2963 -26.3213  -9.7928  -9.7849  -9.7849
    -8.6776  -7.8981  -7.8292  -3.0434  -3.0368  -3.0368  -3.0321  -2.9429
     0.0793   0.1970   0.1970   2.0596   2.4532   2.4532   2.4589   2.8361
     2.8361   3.7694   7.3556   8.6333   8.8851   9.0297

          k = 0.0000 0.0000 0.3000 ( 21386 PWs)   bands (ev):

  -122.1234 -76.2963 -76.2963 -76.2963 -26.3212  -9.7993  -9.7847  -9.7847
    -8.5925  -7.9728  -7.8267  -3.1288  -3.0409  -3.0409  -3.0320  -2.9428
     0.0664   0.2760   0.2760   1.8183   2.3253   2.3253   2.3745   2.7899
     2.7899   4.4913   7.8221   8.7657   9.2230   9.3627

          k = 0.0000 0.0000 0.4000 ( 21422 PWs)   bands (ev):

  -122.1234 -76.2963 -76.2963 -76.2963 -26.3212  -9.8044  -9.7844  -9.7844
    -8.5027  -8.0546  -7.8247  -3.1950  -3.0442  -3.0442  -3.0320  -2.9426
     0.0685   0.3476   0.3476   1.6459   2.2053   2.2053   2.3095   2.7656
     2.7656   5.2430   8.1831   8.5600   9.4899   9.7707

          k = 0.0000 0.0000-0.5000 ( 21426 PWs)   bands (ev):

  -122.1234 -76.2964 -76.2964 -76.2963 -26.3212  -9.8063  -9.7844  -9.7844
    -8.4577  -8.0966  -7.8240  -3.2196  -3.0455  -3.0455  -3.0320  -2.9426
     0.0722   0.3772   0.3772   1.5827   2.1561   2.1561   2.2854   2.7582
     2.7582   5.6449   8.0086   8.5779   9.7081   9.8117

          k = 0.0000 0.1000 0.1000 ( 21403 PWs)   bands (ev):

  -122.1234 -76.2963 -76.2963 -76.2963 -26.3213  -9.7881  -9.7862  -9.7850
    -8.7156  -7.8562  -7.8396  -3.0348  -3.0334  -3.0334  -2.9838  -2.9577
    -0.0486   0.1602   0.3068   2.1879   2.4470   2.5137   2.5788   2.8619
     2.9351   3.3651   7.1240   8.5723   8.6069   8.9878

          k = 0.0000 0.1000 0.2000 ( 21406 PWs)   bands (ev):

  -122.1234 -76.2963 -76.2963 -76.2963 -26.3213  -9.7928  -9.7863  -9.7848
    -8.6585  -7.9004  -7.8413  -3.0480  -3.0382  -3.0368  -3.0334  -2.9632
    -0.1768   0.2193   0.4848   1.9445   2.3311   2.4423   2.5826   2.7931
     2.9011   3.8604   7.4592   8.7185   8.8848   9.1112

          k = 0.0000 0.1000 0.3000 ( 21383 PWs)   bands (ev):

  -122.1234 -76.2963 -76.2963 -76.2963 -26.3212  -9.7988  -9.7859  -9.7846
    -8.5747  -7.9727  -7.8394  -3.1307  -3.0425  -3.0409  -3.0333  -2.9638
    -0.2544   0.2998   0.6449   1.7164   2.1918   2.3217   2.5696   2.7388
     2.8259   4.5545   7.9108   8.8523   9.2946   9.3114

          k = 0.0000 0.1000 0.4000 ( 21394 PWs)   bands (ev):

  -122.1234 -76.2963 -76.2963 -76.2963 -26.3212  -9.8035  -9.7856  -9.7844
    -8.4861  -8.0527  -7.8376  -3.1958  -3.0459  -3.0442  -3.0333  -2.9638
    -0.2899   0.3728   0.7677   1.5554   2.0726   2.2036   2.5466   2.7115
     2.7683   5.2944   8.2556   8.6421   9.5430   9.6537

          k = 0.0000 0.1000-0.5000 ( 21394 PWs)   bands (ev):

  -122.1234 -76.2963 -76.2963 -76.2963 -26.3212  -9.8053  -9.7855  -9.7843
    -8.4414  -8.0942  -7.8369  -3.2202  -3.0472  -3.0455  -3.0333  -2.9638
    -0.2992   0.4031   0.8166   1.4968   2.0239   2.1546   2.5340   2.7034
     2.7493   5.6945   8.0460   8.6924   9.6145   9.7966

          k = 0.0000 0.2000 0.2000 ( 21382 PWs)   bands (ev):

  -122.1234 -76.2963 -76.2963 -76.2963 -26.3212  -9.7937  -9.7888  -9.7846
    -8.6041  -7.9181  -7.8656  -3.0750  -3.0421  -3.0368  -3.0367  -3.0009
    -0.4142   0.2811   0.8077   1.7144   2.2450   2.4005   2.6153   2.6934
     3.0033   4.1887   7.7472   8.9621   8.9640   9.2782

          k = 0.0000 0.2000 0.3000 ( 21367 PWs)   bands (ev):

  -122.1234 -76.2963 -76.2963 -76.2963 -26.3212  -9.7975  -9.7891  -9.7844
    -8.5239  -7.9746  -7.8746  -3.1392  -3.0466  -3.0409  -3.0367  -3.0161
    -0.5711   0.3658   1.0816   1.4999   2.1362   2.3085   2.6077   2.6454
     3.0009   4.7715   8.1537   9.1026   9.2779   9.4416

          k = 0.0000 0.2000 0.4000 ( 21400 PWs)   bands (ev):

  -122.1234 -76.2963 -76.2963 -76.2963 -26.3212  -9.8012  -9.7886  -9.7842
    -8.4382  -8.0479  -7.8754  -3.1991  -3.0502  -3.0442  -3.0367  -3.0198
    -0.6553   0.4433   1.2811   1.3544   2.0251   2.1991   2.5682   2.7009
     2.9250   5.4631   8.4326   8.8392   9.5108   9.6101

          k = 0.0000 0.2000-0.5000 ( 21386 PWs)   bands (ev):

  -122.1234 -76.2963 -76.2963 -76.2963 -26.3212  -9.8027  -9.7884  -9.7841
    -8.3942  -8.0877  -7.8752  -3.2224  -3.0515  -3.0455  -3.0367  -3.0207
    -0.6812   0.4757   1.3018   1.3632   1.9723   2.1507   2.5578   2.7492
     2.8631   5.8556   8.1205   9.0135   9.4040   9.7070

          k = 0.0000 0.3000 0.3000 ( 21370 PWs)   bands (ev):

  -122.1234 -76.2963 -76.2963 -76.2963 -26.3212  -9.7968  -9.7921  -9.7841
    -8.4484  -7.9918  -7.9162  -3.1660  -3.0670  -3.0509  -3.0409  -3.0408
    -0.7872   0.4572   1.2963   1.4364   2.0892   2.2720   2.4613   2.6877
     3.1485   5.1979   8.4915   9.3456   9.3548   9.5473

          k = 0.0000 0.3000 0.4000 ( 21390 PWs)   bands (ev):

  -122.1234 -76.2963 -76.2963 -76.2963 -26.3212  -9.7985  -9.7923  -9.7839
    -8.3660  -8.0433  -7.9337  -3.2084  -3.0873  -3.0553  -3.0442  -3.0409
    -0.9077   0.5421   1.1601   1.6727   2.0217   2.1922   2.3858   2.7716
     3.1762   5.7897   8.5910   8.9558   9.5299   9.7137

          k = 0.0000 0.3000-0.5000 ( 21366 PWs)   bands (ev):

  -122.1234 -76.2963 -76.2963 -76.2963 -26.3212  -9.7995  -9.7920  -9.7838
    -8.3220  -8.0796  -7.9363  -3.2282  -3.0916  -3.0570  -3.0455  -3.0408
    -0.9459   0.5780   1.1125   1.7704   1.9736   2.1458   2.3701   2.8264
     3.1580   6.1645   8.1444   9.1719   9.4652   9.6237

          k = 0.0000 0.4000 0.4000 ( 21338 PWs)   bands (ev):

  -122.1234 -76.2963 -76.2963 -76.2963 -26.3212  -9.7967  -9.7949  -9.7837
    -8.2840  -8.0492  -7.9949  -3.2276  -3.1319  -3.0597  -3.0442  -3.0442
    -1.0502   0.6354   1.0308   1.8770   2.0114   2.1756   2.2393   2.9053
     3.3251   6.2850   8.5365   8.7580   9.0202   9.5794

          k = 0.0000 0.4000-0.5000 ( 21368 PWs)   bands (ev):

  -122.1234 -76.2963 -76.2963 -76.2963 -26.3212  -9.7970  -9.7949  -9.7837
    -8.2357  -8.0731  -8.0136  -3.2402  -3.1441  -3.0614  -3.0455  -3.0442
    -1.0956   0.6755   0.9858   1.9516   1.9857   2.1419   2.2070   2.9817
     3.3642   6.6496   8.1023   8.6833   8.9782   9.5690

          k = 0.0000-0.5000-0.5000 ( 21296 PWs)   bands (ev):

  -122.1234 -76.2963 -76.2963 -76.2962 -26.3211  -9.7960  -9.7960  -9.7836
    -8.1752  -8.0706  -8.0706  -3.2490  -3.1605  -3.0631  -3.0454  -3.0454
    -1.1435   0.7178   0.9418   1.9913   1.9913   2.1404   2.1404   3.0619
     3.4389   7.0639   8.0743   8.0743   8.9033   9.5502

          k = 0.1000 0.1000 0.1000 ( 21431 PWs)   bands (ev):

  -122.1234 -76.2963 -76.2963 -76.2963 -26.3213  -9.7888  -9.7860  -9.7860
    -8.6959  -7.8555  -7.8555  -3.0348  -3.0347  -3.0347  -2.9837  -2.9837
    -0.1954   0.3284   0.3284   2.0963   2.3998   2.3998   2.6322   2.9252
     2.9252   3.4914   7.2369   8.6491   8.6491   9.0472

          k = 0.1000 0.1000 0.2000 ( 21372 PWs)   bands (ev):

  -122.1234 -76.2963 -76.2963 -76.2963 -26.3212  -9.7928  -9.7865  -9.7857
    -8.6397  -7.9018  -7.8537  -3.0510  -3.0382  -3.0382  -3.0347  -2.9834
    -0.3621   0.3884   0.5578   1.8804   2.2198   2.3742   2.6585   2.8875
     2.8933   3.9387   7.5490   8.7790   8.8964   9.1634

          k = 0.1000 0.1000 0.3000 ( 21343 PWs)   bands (ev):

  -122.1234 -76.2963 -76.2963 -76.2963 -26.3212  -9.7983  -9.7863  -9.7853
    -8.5572  -7.9726  -7.8514  -3.1323  -3.0425  -3.0424  -3.0347  -2.9831
    -0.4710   0.4716   0.7606   1.6630   2.0361   2.3632   2.6510   2.7588
     2.8506   4.6103   7.9798   8.9161   9.3025   9.3300

          k = 0.1000 0.1000 0.4000 ( 21389 PWs)   bands (ev):

  -122.1234 -76.2963 -76.2963 -76.2963 -26.3212  -9.8027  -9.7860  -9.7849
    -8.4697  -8.0510  -7.8496  -3.1966  -3.0459  -3.0458  -3.0346  -2.9828
    -0.5264   0.5493   0.9105   1.5079   1.8940   2.3469   2.6275   2.6402
     2.8202   5.3407   8.3058   8.7014   9.4969   9.6256

          k = 0.1000 0.1000-0.5000 ( 21390 PWs)   bands (ev):

  -122.1234 -76.2963 -76.2963 -76.2963 -26.3212  -9.8043  -9.7859  -9.7848
    -8.4254  -8.0919  -7.8490  -3.2207  -3.0472  -3.0471  -3.0346  -2.9828
    -0.5426   0.5824   0.9690   1.4509   1.8390   2.3351   2.5955   2.6149
     2.8104   5.7396   8.0725   8.7727   9.4473   9.7703

          k = 0.1000 0.2000 0.2000 ( 21372 PWs)   bands (ev):

  -122.1234 -76.2963 -76.2963 -76.2963 -26.3212  -9.7937  -9.7885  -9.7856
    -8.5863  -7.9176  -7.8785  -3.0749  -3.0421  -3.0383  -3.0380  -3.0205
    -0.6004   0.5093   0.8287   1.6940   2.1185   2.2485   2.7225   2.8447
     3.0057   4.2438   7.8048   8.9742   8.9912   9.2401

          k = 0.1000 0.2000 0.3000 ( 21375 PWs)   bands (ev):

  -122.1234 -76.2963 -76.2963 -76.2963 -26.3212  -9.7971  -9.7889  -9.7852
    -8.5074  -7.9745  -7.8850  -3.1399  -3.0468  -3.0424  -3.0381  -3.0317
    -0.7679   0.6052   1.1065   1.4928   1.9546   2.2472   2.7174   2.7844
     3.0018   4.8119   8.1730   9.1138   9.2794   9.3607

          k = 0.1000 0.2000 0.4000 ( 21383 PWs)   bands (ev):

  -122.1234 -76.2963 -76.2963 -76.2963 -26.3212  -9.8005  -9.7886  -9.7849
    -8.4229  -8.0468  -7.8849  -3.1997  -3.0502  -3.0458  -3.0381  -3.0339
    -0.8603   0.6913   1.3021   1.3539   1.8017   2.3166   2.5877   2.8078
     2.9343   5.4977   8.4228   8.8374   9.3340   9.5434

          k = 0.1000 0.2000-0.5000 ( 21378 PWs)   bands (ev):

  -122.1234 -76.2963 -76.2963 -76.2963 -26.3212  -9.8018  -9.7884  -9.7848
    -8.3794  -8.0860  -7.8846  -3.2229  -3.0515  -3.0471  -3.0381  -3.0344
    -0.8891   0.7286   1.2982   1.3841   1.7357   2.4098   2.4660   2.8425
     2.8789   5.8905   8.1174   9.0097   9.1314   9.7034

          k = 0.1000 0.3000 0.3000 ( 21371 PWs)   bands (ev):

  -122.1234 -76.2963 -76.2963 -76.2963 -26.3212  -9.7964  -9.7917  -9.7849
    -8.4333  -7.9916  -7.9244  -3.1659  -3.0790  -3.0511  -3.0425  -3.0423
    -0.9845   0.7112   1.3018   1.4285   1.9085   2.1783   2.6761   2.7956
     3.1494   5.2259   8.4332   9.2316   9.3920   9.4393

          k = 0.1000 0.3000 0.4000 ( 21381 PWs)   bands (ev):

  -122.1234 -76.2963 -76.2963 -76.2963 -26.3212  -9.7978  -9.7919  -9.7846
    -8.3525  -8.0429  -7.9398  -3.2085  -3.0969  -3.0553  -3.0458  -3.0423
    -1.1080   0.8056   1.1683   1.6128   1.8021   2.2717   2.5617   2.8488
     3.1781   5.8129   8.5098   8.8280   9.3026   9.5953

          k = 0.1000 0.3000-0.5000 ( 21370 PWs)   bands (ev):

  -122.1234 -76.2963 -76.2963 -76.2963 -26.3212  -9.7987  -9.7917  -9.7845
    -8.3090  -8.0788  -7.9420  -3.2284  -3.1004  -3.0569  -3.0471  -3.0423
    -1.1474   0.8474   1.1203   1.6952   1.7183   2.4141   2.4291   2.8838
     3.1626   6.1893   8.1134   8.8157   9.3425   9.7175

          k = 0.1000 0.4000 0.4000 ( 21366 PWs)   bands (ev):

  -122.1234 -76.2963 -76.2963 -76.2963 -26.3212  -9.7960  -9.7943  -9.7843
    -8.2725  -8.0491  -7.9977  -3.2276  -3.1387  -3.0597  -3.0458  -3.0457
    -1.2508   0.9082   1.0422   1.7035   1.7783   2.3454   2.5098   2.9354
     3.3270   6.3025   8.5065   8.5541   8.8371   9.6325

          k = 0.1000 0.4000-0.5000 ( 21400 PWs)   bands (ev):

  -122.1234 -76.2964 -76.2963 -76.2963 -26.3211  -9.7963  -9.7943  -9.7842
    -8.2251  -8.0729  -8.0152  -3.2402  -3.1500  -3.0613  -3.0470  -3.0457
    -1.2966   0.9549   0.9967   1.7217   1.7449   2.4347   2.4375   2.9947
     3.3667   6.6696   8.0647   8.5857   8.6492   9.8212

          k = 0.1000-0.5000-0.5000 ( 21352 PWs)   bands (ev):

  -122.1234 -76.2963 -76.2963 -76.2963 -26.3211  -9.7953  -9.7953  -9.7841
    -8.1656  -8.0707  -8.0707  -3.2489  -3.1654  -3.0630  -3.0470  -3.0470
    -1.3446   0.9534   1.0032   1.7245   1.7245   2.4402   2.4402   3.0637
     3.4412   7.0913   8.0379   8.0379   8.5015   9.9801

          k = 0.2000 0.2000 0.2000 ( 21335 PWs)   bands (ev):

  -122.1234 -76.2963 -76.2963 -76.2963 -26.3212  -9.7941  -9.7878  -9.7878
    -8.5355  -7.9163  -7.9163  -3.0746  -3.0746  -3.0422  -3.0416  -3.0416
    -0.8747   0.8893   0.8893   1.5958   2.0139   2.0139   2.8337   3.0104
     3.0104   4.4763   7.9782   9.0901   9.0901   9.1658

          k = 0.2000 0.2000 0.3000 ( 21376 PWs)   bands (ev):

  -122.1234 -76.2963 -76.2963 -76.2963 -26.3212  -9.7960  -9.7889  -9.7869
    -8.4604  -7.9756  -7.9147  -3.1439  -3.0741  -3.0466  -3.0460  -3.0418
    -1.0791   0.9811   1.2060   1.4395   1.7879   2.0684   2.8949   2.9913
     3.0069   4.9712   8.2310   9.0748   9.2819   9.3697

          k = 0.2000 0.2000 0.4000 ( 21368 PWs)   bands (ev):

  -122.1234 -76.2963 -76.2963 -76.2963 -26.3212  -9.7985  -9.7889  -9.7862
    -8.3793  -8.0440  -7.9133  -3.2020  -3.0736  -3.0502  -3.0497  -3.0417
    -1.1958   1.0856   1.2988   1.4057   1.6028   2.2415   2.8249   2.9299
     2.9880   5.6227   8.3631   8.8089   9.1153   9.5325

          k = 0.2000 0.2000-0.5000 ( 21384 PWs)   bands (ev):

  -122.1234 -76.2963 -76.2963 -76.2963 -26.3212  -9.7995  -9.7888  -9.7859
    -8.3368  -8.0818  -7.9128  -3.2245  -3.0734  -3.0516  -3.0512  -3.0417
    -1.2330   1.1447   1.2594   1.4538   1.5172   2.3952   2.6746   2.9537
     2.9655   6.0134   8.0819   8.7343   9.0566   9.6766

          k = 0.2000 0.3000 0.3000 ( 21391 PWs)   bands (ev):

  -122.1234 -76.2963 -76.2963 -76.2963 -26.3212  -9.7953  -9.7905  -9.7868
    -8.3906  -7.9908  -7.9492  -3.1656  -3.1143  -3.0512  -3.0464  -3.0461
    -1.3206   1.1577   1.3138   1.3990   1.7327   2.0446   2.9724   2.9774
     3.1521   5.3369   8.2812   9.0125   9.4168   9.4562

          k = 0.2000 0.3000 0.4000 ( 21392 PWs)   bands (ev):

  -122.1234 -76.2963 -76.2963 -76.2963 -26.3212  -9.7961  -9.7909  -9.7862
    -8.3141  -8.0418  -7.9584  -3.2092  -3.1248  -3.0552  -3.0499  -3.0462
    -1.4619   1.1727   1.2963   1.4710   1.6179   2.3060   2.8885   3.0071
     3.1841   5.8976   8.2333   8.6508   9.1094   9.5664

          k = 0.2000 0.3000-0.5000 ( 21394 PWs)   bands (ev):

  -122.1234 -76.2963 -76.2963 -76.2963 -26.3212  -9.7967  -9.7908  -9.7860
    -8.2723  -8.0765  -7.9592  -3.2292  -3.1263  -3.0567  -3.0513  -3.0462
    -1.5075   1.1377   1.3654   1.4487   1.5678   2.5065   2.7735   3.0183
     3.1794   6.2757   7.9959   8.3756   9.1590   9.6039

          k = 0.2000 0.4000 0.4000 ( 21425 PWs)   bands (ev):

  -122.1234 -76.2964 -76.2964 -76.2963 -26.3211  -9.7944  -9.7927  -9.7858
    -8.2404  -8.0490  -8.0067  -3.2274  -3.1594  -3.0595  -3.0499  -3.0497
    -1.6195   1.0657   1.3827   1.4682   1.6277   2.5487   2.8666   3.0381
     3.3321   6.3595   8.1017   8.3916   8.6901   9.4266

          k = 0.2000 0.4000-0.5000 ( 21424 PWs)   bands (ev):

  -122.1234 -76.2964 -76.2964 -76.2963 -26.3211  -9.7944  -9.7928  -9.7856
    -8.1961  -8.0723  -8.0206  -3.2402  -3.1680  -3.0611  -3.0512  -3.0498
    -1.6705   1.0253   1.4333   1.4463   1.6151   2.7184   2.7995   3.0510
     3.3735   6.7293   7.9205   8.1039   8.5322   9.5210

          k = 0.2000-0.5000-0.5000 ( 21388 PWs)   bands (ev):

  -122.1234 -76.2963 -76.2963 -76.2963 -26.3211  -9.7936  -9.7936  -9.7854
    -8.1403  -8.0707  -8.0707  -3.2489  -3.1809  -3.0628  -3.0511  -3.0511
    -1.7233   0.9843   1.4492   1.4492   1.6224   2.8060   2.8060   3.0684
     3.4472   7.1692   7.9145   7.9145   7.9785   9.6782

          k = 0.3000 0.3000 0.3000 ( 21398 PWs)   bands (ev):

  -122.1234 -76.2963 -76.2963 -76.2963 -26.3212  -9.7942  -9.7890  -9.7890
    -8.3273  -7.9899  -7.9899  -3.1652  -3.1652  -3.0516  -3.0509  -3.0509
    -1.5936   1.2582   1.3460   1.3460   1.9667   1.9667   3.1090   3.1620
     3.1620   5.6142   8.0905   8.9557   9.2357   9.2358

          k = 0.3000 0.3000 0.4000 ( 21386 PWs)   bands (ev):

  -122.1234 -76.2963 -76.2963 -76.2963 -26.3211  -9.7940  -9.7901  -9.7878
    -8.2575  -8.0413  -7.9892  -3.2125  -3.1649  -3.0553  -3.0548  -3.0510
    -1.7573   1.1710   1.2934   1.3649   1.9401   2.3992   3.1440   3.1460
     3.2128   6.0997   7.9296   8.4598   9.0319   9.1381

          k = 0.3000 0.3000-0.5000 ( 21420 PWs)   bands (ev):

  -122.1234 -76.2964 -76.2963 -76.2963 -26.3211  -9.7942  -9.7902  -9.7874
    -8.2180  -8.0738  -7.9890  -3.2320  -3.1648  -3.0568  -3.0563  -3.0510
    -1.8106   1.1337   1.2720   1.3714   1.9356   2.6468   3.0381   3.1488
     3.2384   6.4689   7.7983   8.0335   9.0791   9.1083

          k = 0.3000 0.4000 0.4000 ( 21396 PWs)   bands (ev):

  -122.1234 -76.2963 -76.2963 -76.2963 -26.3211  -9.7924  -9.7907  -9.7877
    -8.1945  -8.0487  -8.0233  -3.2272  -3.1925  -3.0592  -3.0550  -3.0548
    -1.9370   1.0976   1.2641   1.2799   2.1835   2.6642   3.1698   3.2013
     3.3390   6.4866   7.7196   8.2030   8.4805   9.0769

          k = 0.3000 0.4000-0.5000 ( 21390 PWs)   bands (ev):

  -122.1234 -76.2963 -76.2963 -76.2963 -26.3211  -9.7922  -9.7909  -9.7873
    -8.1556  -8.0715  -8.0310  -3.2405  -3.1973  -3.0608  -3.0563  -3.0548
    -1.9958   1.0609   1.2385   1.2755   2.2289   2.8787   3.1234   3.1979
     3.3832   6.8419   7.6266   7.8023   8.3304   9.1156

          k = 0.3000-0.5000-0.5000 ( 21368 PWs)   bands (ev):

  -122.1234 -76.2963 -76.2963 -76.2963 -26.3211  -9.7914  -9.7914  -9.7871
    -8.1080  -8.0707  -8.0707  -3.2488  -3.2067  -3.0624  -3.0563  -3.0563
    -2.0564   1.0234   1.2411   1.2411   2.3049   3.0744   3.1363   3.1363
     3.4546   7.2827   7.5635   7.7158   7.7158   9.1596

          k = 0.4000 0.4000 0.4000 ( 21392 PWs)   bands (ev):

  -122.1234 -76.2963 -76.2963 -76.2963 -26.3211  -9.7909  -9.7891  -9.7891
    -8.1450  -8.0485  -8.0485  -3.2271  -3.2271  -3.0592  -3.0589  -3.0589
    -2.1342   1.1055   1.1606   1.1606   2.7157   2.7157   3.3308   3.3308
     3.3593   6.7547   7.4737   8.0347   8.0347   8.8397

          k = 0.4000 0.4000-0.5000 ( 21394 PWs)   bands (ev):

  -122.1234 -76.2964 -76.2963 -76.2963 -26.3211  -9.7903  -9.7896  -9.7885
    -8.1131  -8.0709  -8.0485  -3.2425  -3.2270  -3.0607  -3.0605  -3.0589
    -2.1992   1.0802   1.1200   1.1539   2.7307   2.9632   3.3397   3.3413
     3.4068   7.0612   7.3847   7.6049   7.9691   8.8036

          k = 0.4000-0.5000-0.5000 ( 21412 PWs)   bands (ev):

  -122.1234 -76.2963 -76.2963 -76.2963 -26.3211  -9.7896  -9.7896  -9.7884
    -8.0812  -8.0707  -8.0707  -3.2487  -3.2353  -3.0622  -3.0605  -3.0605
    -2.2665   1.0559   1.1122   1.1122   2.8591   3.0792   3.3746   3.3746
     3.4607   7.2995   7.3970   7.5273   7.5273   8.7276

          k =-0.5000-0.5000-0.5000 ( 21368 PWs)   bands (ev):

  -122.1234 -76.2963 -76.2963 -76.2963 -26.3211  -9.7890  -9.7890  -9.7890
    -8.0707  -8.0707  -8.0707  -3.2487  -3.2487  -3.0621  -3.0621  -3.0621
    -2.3363   1.0686   1.0686   1.0686   3.0810   3.0810   3.4631   3.4631
     3.4631   7.2090   7.4500   7.4500   7.4500   8.5442

     the Fermi energy is     3.4564 ev

!    total energy              =   -1799.97552690 Ry
     total all-electron energy =    -47495.386713 Ry
     estimated scf accuracy    <          2.5E-13 Ry
     smearing contrib. (-TS)   =      -0.00020425 Ry
     internal energy E=F+TS    =   -1799.97532265 Ry

     The total energy is F=E-TS. E is the sum of the following terms:
     one-electron contribution =    -569.56955165 Ry
     hartree contribution      =     300.79479530 Ry
     xc contribution           =    -100.46930139 Ry
     ewald contribution        =    -235.00959572 Ry
     one-center paw contrib.   =   -1195.72166919 Ry

     convergence has been achieved in  16 iterations

     Writing all to output data dir ./tmp/KZnI3.save/ :
     XML data file, charge density, pseudopotentials, collected wavefunctions

     init_run     :     12.92s CPU     12.06s WALL (       1 calls)
     electrons    :    591.83s CPU    493.18s WALL (       1 calls)

     Called by init_run:
     wfcinit      :      8.61s CPU      7.36s WALL (       1 calls)
     potinit      :      1.33s CPU      1.46s WALL (       1 calls)
     hinit0       :      1.38s CPU      1.42s WALL (       1 calls)

     Called by electrons:
     c_bands      :    442.16s CPU    356.69s WALL (      17 calls)
     sum_band     :    118.59s CPU    102.12s WALL (      17 calls)
     v_of_rho     :      8.58s CPU      9.49s WALL (      17 calls)
     newd         :     18.30s CPU     20.98s WALL (      17 calls)
     PAW_pot      :      3.98s CPU      3.99s WALL (      17 calls)
     mix_rho      :      0.77s CPU      0.79s WALL (      17 calls)

     Called by c_bands:
     init_us_2    :     14.77s CPU     10.85s WALL (     490 calls)
     cegterg      :    379.80s CPU    305.37s WALL (     238 calls)

     Called by *egterg:
     cdiaghg      :      4.61s CPU      3.26s WALL (    1086 calls)
     h_psi        :    307.34s CPU    266.43s WALL (    1114 calls)
     s_psi        :     17.49s CPU      9.32s WALL (    1114 calls)
     g_psi        :      2.06s CPU      1.50s WALL (     862 calls)

     Called by h_psi:
     h_psi:calbec :     18.77s CPU     10.27s WALL (    1114 calls)
     vloc_psi     :    269.20s CPU    245.17s WALL (    1114 calls)
     add_vuspsi   :     17.68s CPU      9.52s WALL (    1114 calls)

     General routines
     calbec       :     25.50s CPU     13.98s WALL (    1352 calls)
     fft          :      5.44s CPU      5.97s WALL (     220 calls)
     ffts         :      0.70s CPU      0.67s WALL (      34 calls)
     fftw         :    234.84s CPU    212.47s WALL (   44128 calls)
     interpolate  :      1.07s CPU      1.10s WALL (      17 calls)

     Parallel routines

     PWSCF        :  10m 5.41s CPU   8m26.10s WALL


   This run was terminated on:  21:25:55  15May2025            

=------------------------------------------------------------------------------=
   JOB DONE.
=------------------------------------------------------------------------------=
