
     Program PWSCF v.7.3.1 starts on 10May2025 at 15:13:30 

     This program is part of the open-source Quantum ESPRESSO suite
     for quantum simulation of materials; please cite
         "P. Giannozzi et al., J. Phys.:Condens. Matter 21 395502 (2009);
         "P. Giannozzi et al., J. Phys.:Condens. Matter 29 465901 (2017);
         "P. Giannozzi et al., J. Chem. Phys. 152 154105 (2020);
          URL http://www.quantum-espresso.org", 
     in publications or presentations arising from this work. More details at
     http://www.quantum-espresso.org/quote

     Parallel version (MPI), running on     8 processors

     MPI processes distributed on     1 nodes
     42139 MiB available memory on the printing compute node when the environment starts

     Waiting for input...
     Reading input from standard input

     Current dimensions of program PWSCF are:
     Max number of different atomic species (ntypx) = 10
     Max number of k-points (npk) = 120000
     Max angular momentum in pseudopotentials (lmaxx) =  4
     file Na.pbe-spn-kjpaw_psl.1.0.0.UPF: wavefunction(s)  2P renormalized
     file F.pbe-n-kjpaw_psl.1.0.0.UPF: wavefunction(s)  2S 2P renormalized

     IMPORTANT: XC functional enforced from input :
     Exchange-correlation= PBE
                           (   1   4   3   4   0   0   0)
     Any further DFT definition will be discarded
     Please, verify this is what you really want

     Message from routine setup:
     using ibrav=0 with symmetry is DISCOURAGED, use correct ibrav instead

     K-points division:     npool     =       2
     R & G space division:  proc/nbgrp/npool/nimage =       4
     Subspace diagonalization in iterative solution of the eigenvalue problem:
     a serial algorithm will be used


     Parallelization info
     --------------------
     sticks:   dense  smooth     PW     G-vecs:    dense   smooth      PW
     Min         606     301     89                22443     7948    1283
     Max         607     303     90                22444     7953    1286
     Sum        2425    1209    357                89775    31799    5137

     Using Slab Decomposition



     bravais-lattice index     =            0
     lattice parameter (alat)  =       6.1734  a.u.
     unit-cell volume          =     235.2759 (a.u.)^3
     number of atoms/cell      =            5
     number of atomic types    =            3
     number of electrons       =        34.00
     number of Kohn-Sham states=           21
     kinetic-energy cutoff     =     100.0000  Ry
     charge density cutoff     =     800.0000  Ry
     scf convergence threshold =      1.0E-12
     mixing beta               =       0.3000
     number of iterations used =            8  plain     mixing
     energy convergence thresh.=      1.0E-07
     force convergence thresh. =      1.0E-05
     press convergence thresh. =      1.0E-01
     Exchange-correlation= PBE
                           (   1   4   3   4   0   0   0)
     nstep                     =           50


     celldm(1)=   6.173420  celldm(2)=   0.000000  celldm(3)=   0.000000
     celldm(4)=   0.000000  celldm(5)=   0.000000  celldm(6)=   0.000000

     crystal axes: (cart. coord. in units of alat)
               a(1) = (   1.000000   0.000000   0.000000 )  
               a(2) = (   0.000000   1.000000   0.000000 )  
               a(3) = (   0.000000   0.000000   1.000000 )  

     reciprocal axes: (cart. coord. in units 2 pi/alat)
               b(1) = (  1.000000  0.000000  0.000000 )  
               b(2) = (  0.000000  1.000000  0.000000 )  
               b(3) = (  0.000000  0.000000  1.000000 )  


     PseudoPot. # 1 for Na read from file:
     /home/administrator/Downloads/BURAI/BURAI1.3/pseudopot/Na.pbe-spn-kjpaw_psl.1.0.0.UPF
     MD5 check sum: abc0658962c54638d3013c5a8f1b04c6
     Pseudo is Projector augmented-wave + core cor, Zval =  9.0
     Generated using "atomic" code by A. Dal Corso  v.5.1.2
     Shape of augmentation charge: PSQ
     Using radial grid of 1121 points,  4 beta functions with: 
                l(1) =   0
                l(2) =   0
                l(3) =   1
                l(4) =   1
     Q(r) pseudized with 0 coefficients 


     PseudoPot. # 2 for Ge read from file:
     /home/administrator/Downloads/BURAI/BURAI1.3/pseudopot/Ge.pbe-n-kjpaw_psl.1.0.0.UPF
     MD5 check sum: 4aa708d04ebeac8ef886ea6b7189f44d
     Pseudo is Projector augmented-wave + core cor, Zval =  4.0
     Generated using "atomic" code by A. Dal Corso  v.5.1.2
     Shape of augmentation charge: PSQ
     Using radial grid of 1207 points,  4 beta functions with: 
                l(1) =   0
                l(2) =   0
                l(3) =   1
                l(4) =   1
     Q(r) pseudized with 0 coefficients 


     PseudoPot. # 3 for F  read from file:
     /home/administrator/Downloads/BURAI/BURAI1.3/pseudopot/F.pbe-n-kjpaw_psl.1.0.0.UPF
     MD5 check sum: de2194216b7114fcf395f1df79715f8b
     Pseudo is Projector augmented-wave + core cor, Zval =  7.0
     Generated using "atomic" code by A. Dal Corso  v.5.1.2
     Shape of augmentation charge: PSQ
     Using radial grid of 1105 points,  4 beta functions with: 
                l(1) =   0
                l(2) =   0
                l(3) =   1
                l(4) =   1
     Q(r) pseudized with 0 coefficients 


     atomic species   valence    mass     pseudopotential
     Na                9.00    22.98980     Na( 1.00)
     Ge                4.00    72.63000     Ge( 1.00)
     F                 7.00    18.99840     F ( 1.00)

     48 Sym. Ops., with inversion, found



   Cartesian axes

     site n.     atom                  positions (alat units)
         1        Na     tau(   1) = (   0.0000000   0.0000000   0.0000000  )
         2        Ge     tau(   2) = (   0.5000000   0.5000000   0.5000000  )
         3        F      tau(   3) = (   0.5000000   0.5000000   0.0000000  )
         4        F      tau(   4) = (   0.5000000   0.0000000   0.5000000  )
         5        F      tau(   5) = (   0.0000000   0.5000000   0.5000000  )

     number of k points=    35  Gaussian smearing, width (Ry)=  0.0100
                       cart. coord. in units 2pi/alat
        k(    1) = (   0.0000000   0.0000000   0.0000000), wk =   0.0039062
        k(    2) = (   0.0000000   0.0000000   0.1250000), wk =   0.0234375
        k(    3) = (   0.0000000   0.0000000   0.2500000), wk =   0.0234375
        k(    4) = (   0.0000000   0.0000000   0.3750000), wk =   0.0234375
        k(    5) = (   0.0000000   0.0000000  -0.5000000), wk =   0.0117188
        k(    6) = (   0.0000000   0.1250000   0.1250000), wk =   0.0468750
        k(    7) = (   0.0000000   0.1250000   0.2500000), wk =   0.0937500
        k(    8) = (   0.0000000   0.1250000   0.3750000), wk =   0.0937500
        k(    9) = (   0.0000000   0.1250000  -0.5000000), wk =   0.0468750
        k(   10) = (   0.0000000   0.2500000   0.2500000), wk =   0.0468750
        k(   11) = (   0.0000000   0.2500000   0.3750000), wk =   0.0937500
        k(   12) = (   0.0000000   0.2500000  -0.5000000), wk =   0.0468750
        k(   13) = (   0.0000000   0.3750000   0.3750000), wk =   0.0468750
        k(   14) = (   0.0000000   0.3750000  -0.5000000), wk =   0.0468750
        k(   15) = (   0.0000000  -0.5000000  -0.5000000), wk =   0.0117188
        k(   16) = (   0.1250000   0.1250000   0.1250000), wk =   0.0312500
        k(   17) = (   0.1250000   0.1250000   0.2500000), wk =   0.0937500
        k(   18) = (   0.1250000   0.1250000   0.3750000), wk =   0.0937500
        k(   19) = (   0.1250000   0.1250000  -0.5000000), wk =   0.0468750
        k(   20) = (   0.1250000   0.2500000   0.2500000), wk =   0.0937500
        k(   21) = (   0.1250000   0.2500000   0.3750000), wk =   0.1875000
        k(   22) = (   0.1250000   0.2500000  -0.5000000), wk =   0.0937500
        k(   23) = (   0.1250000   0.3750000   0.3750000), wk =   0.0937500
        k(   24) = (   0.1250000   0.3750000  -0.5000000), wk =   0.0937500
        k(   25) = (   0.1250000  -0.5000000  -0.5000000), wk =   0.0234375
        k(   26) = (   0.2500000   0.2500000   0.2500000), wk =   0.0312500
        k(   27) = (   0.2500000   0.2500000   0.3750000), wk =   0.0937500
        k(   28) = (   0.2500000   0.2500000  -0.5000000), wk =   0.0468750
        k(   29) = (   0.2500000   0.3750000   0.3750000), wk =   0.0937500
        k(   30) = (   0.2500000   0.3750000  -0.5000000), wk =   0.0937500
        k(   31) = (   0.2500000  -0.5000000  -0.5000000), wk =   0.0234375
        k(   32) = (   0.3750000   0.3750000   0.3750000), wk =   0.0312500
        k(   33) = (   0.3750000   0.3750000  -0.5000000), wk =   0.0468750
        k(   34) = (   0.3750000  -0.5000000  -0.5000000), wk =   0.0234375
        k(   35) = (  -0.5000000  -0.5000000  -0.5000000), wk =   0.0039062

     Dense  grid:    89775 G-vectors     FFT dimensions: (  60,  60,  60)

     Smooth grid:    31799 G-vectors     FFT dimensions: (  40,  40,  40)

     Estimated max dynamical RAM per process >      33.58 MB

     Estimated total dynamical RAM >     246.69 MB

     Initial potential from superposition of free atoms

     starting charge      33.9929, renormalised to      34.0000
     Starting wfcs are   21 randomized atomic wfcs
     Checking if some PAW data can be deallocated... 

     total cpu time spent up to now is        2.3 secs

     Self-consistent Calculation

     iteration #  1     ecut=   100.00 Ry     beta= 0.30
     Davidson diagonalization with overlap
     ethr =  1.00E-02,  avg # of iterations =  4.8

     total cpu time spent up to now is        4.9 secs

     total energy              =    -449.98503067 Ry
     estimated scf accuracy    <       0.50232108 Ry

     iteration #  2     ecut=   100.00 Ry     beta= 0.30
     Davidson diagonalization with overlap
     ethr =  1.48E-03,  avg # of iterations =  2.7

     total cpu time spent up to now is        7.1 secs

     total energy              =    -450.03651796 Ry
     estimated scf accuracy    <       0.04409123 Ry

     iteration #  3     ecut=   100.00 Ry     beta= 0.30
     Davidson diagonalization with overlap
     ethr =  1.30E-04,  avg # of iterations =  6.0

     total cpu time spent up to now is        9.7 secs

     total energy              =    -450.04845208 Ry
     estimated scf accuracy    <       0.00227964 Ry

     iteration #  4     ecut=   100.00 Ry     beta= 0.30
     Davidson diagonalization with overlap
     ethr =  6.70E-06,  avg # of iterations =  6.2

     total cpu time spent up to now is       12.5 secs

     total energy              =    -450.04904359 Ry
     estimated scf accuracy    <       0.00027919 Ry

     iteration #  5     ecut=   100.00 Ry     beta= 0.30
     Davidson diagonalization with overlap
     ethr =  8.21E-07,  avg # of iterations =  3.8

     total cpu time spent up to now is       14.8 secs

     total energy              =    -450.04907189 Ry
     estimated scf accuracy    <       0.00003562 Ry

     iteration #  6     ecut=   100.00 Ry     beta= 0.30
     Davidson diagonalization with overlap
     ethr =  1.05E-07,  avg # of iterations =  3.5

     total cpu time spent up to now is       17.2 secs

     total energy              =    -450.04909106 Ry
     estimated scf accuracy    <       0.00002492 Ry

     iteration #  7     ecut=   100.00 Ry     beta= 0.30
     Davidson diagonalization with overlap
     ethr =  7.33E-08,  avg # of iterations =  1.8

     total cpu time spent up to now is       18.9 secs

     total energy              =    -450.04909161 Ry
     estimated scf accuracy    <       0.00000394 Ry

     iteration #  8     ecut=   100.00 Ry     beta= 0.30
     Davidson diagonalization with overlap
     ethr =  1.16E-08,  avg # of iterations =  2.3

     total cpu time spent up to now is       20.9 secs

     total energy              =    -450.04909198 Ry
     estimated scf accuracy    <       0.00000039 Ry

     iteration #  9     ecut=   100.00 Ry     beta= 0.30
     Davidson diagonalization with overlap
     ethr =  1.14E-09,  avg # of iterations =  4.0

     total cpu time spent up to now is       23.3 secs

     total energy              =    -450.04909214 Ry
     estimated scf accuracy    <          9.3E-09 Ry

     iteration # 10     ecut=   100.00 Ry     beta= 0.30
     Davidson diagonalization with overlap
     ethr =  2.74E-11,  avg # of iterations =  4.7

     total cpu time spent up to now is       26.1 secs

     total energy              =    -450.04909214 Ry
     estimated scf accuracy    <       0.00000003 Ry

     iteration # 11     ecut=   100.00 Ry     beta= 0.30
     Davidson diagonalization with overlap
     ethr =  2.74E-11,  avg # of iterations =  4.0

     total cpu time spent up to now is       28.6 secs

     total energy              =    -450.04909214 Ry
     estimated scf accuracy    <          8.6E-10 Ry

     iteration # 12     ecut=   100.00 Ry     beta= 0.30
     Davidson diagonalization with overlap
     ethr =  2.53E-12,  avg # of iterations =  3.2

     total cpu time spent up to now is       30.9 secs

     total energy              =    -450.04909214 Ry
     estimated scf accuracy    <          3.1E-11 Ry

     iteration # 13     ecut=   100.00 Ry     beta= 0.30
     Davidson diagonalization with overlap
     ethr =  1.00E-13,  avg # of iterations =  4.0

     total cpu time spent up to now is       33.3 secs

     total energy              =    -450.04909214 Ry
     estimated scf accuracy    <          1.3E-11 Ry

     iteration # 14     ecut=   100.00 Ry     beta= 0.30
     Davidson diagonalization with overlap
     ethr =  1.00E-13,  avg # of iterations =  2.0

     total cpu time spent up to now is       35.2 secs

     total energy              =    -450.04909214 Ry
     estimated scf accuracy    <          1.2E-12 Ry

     iteration # 15     ecut=   100.00 Ry     beta= 0.30
     Davidson diagonalization with overlap
     ethr =  1.00E-13,  avg # of iterations =  1.2

     total cpu time spent up to now is       36.9 secs

     End of self-consistent calculation

          k = 0.0000 0.0000 0.0000 (  3911 PWs)   bands (ev):

   -37.7336 -16.6672 -12.6650 -12.6650  -9.7162  -9.7162  -9.7162   0.7134
     0.7134   0.7134   6.5302   6.5302   6.5302   7.0033   7.0033   7.0033
    16.1940  18.7378  24.1253  24.1253  27.1718

          k = 0.0000 0.0000 0.1250 (  3939 PWs)   bands (ev):

   -37.7325 -16.5778 -12.8716 -12.6577  -9.7113  -9.7113  -9.6789   0.7835
     0.7835   0.8808   6.4450   6.4467   6.4467   6.6629   6.9365   6.9365
    16.6756  19.0943  24.0784  24.4597  27.2753

          k = 0.0000 0.0000 0.2500 (  3948 PWs)   bands (ev):

   -37.7299 -16.3234 -13.3851 -12.6402  -9.6994  -9.6994  -9.6093   0.9658
     0.9658   1.3412   5.8425   6.1727   6.1727   6.2451   6.8386   6.8386
    17.8909  20.0702  23.8001  25.3223  27.5409

          k = 0.0000 0.0000 0.3750 (  3976 PWs)   bands (ev):

   -37.7273 -15.9675 -13.9748 -12.6225  -9.6874  -9.6874  -9.5599   1.1714
     1.1714   1.9570   4.9246   5.8338   5.8338   6.0529   6.7875   6.7875
    19.3524  21.2737  23.2211  26.2946  27.8623

          k = 0.0000 0.0000-0.5000 (  3980 PWs)   bands (ev):

   -37.7262 -15.7487 -14.2848 -12.6152  -9.6825  -9.6825  -9.5438   1.2654
     1.2654   2.3296   4.4394   5.6800   5.6800   5.9754   6.7723   6.7723
    20.2405  21.6305  23.0111  26.7441  28.0456

          k = 0.0000 0.1250 0.1250 (  3950 PWs)   bands (ev):

   -37.7315 -16.4884 -12.9570 -12.7592  -9.7066  -9.6856  -9.6707   0.5287
     0.8560   1.3657   5.9849   6.3860   6.4456   6.5644   6.8464   7.0108
    17.0964  19.4381  24.2261  24.5816  27.2584

          k = 0.0000 0.1250 0.2500 (  3971 PWs)   bands (ev):

   -37.7289 -16.2331 -13.4079 -12.7788  -9.6952  -9.6779  -9.6142   0.4711
     1.0447   2.0420   5.2454   6.0396   6.1520   6.5738   6.7062   6.9439
    18.2005  20.3795  24.0129  25.3265  27.4069

          k = 0.0000 0.1250 0.3750 (  3979 PWs)   bands (ev):

   -37.7263 -15.8735 -13.9782 -12.7618  -9.6838  -9.6751  -9.5713   0.5656
     1.2584   2.7305   4.5216   5.5953   5.8247   6.5789   6.6393   6.7772
    19.5949  21.5269  23.4422  26.2048  27.4589

          k = 0.0000 0.1250-0.5000 (  3994 PWs)   bands (ev):

   -37.7252 -15.6485 -14.2869 -12.7533  -9.6791  -9.6740  -9.5576   0.6346
     1.3564   3.1177   4.1428   5.3813   5.6714   6.5888   6.6211   6.6866
    20.4877  21.7897  23.3032  26.4833  27.3978

          k = 0.0000 0.2500 0.2500 (  3974 PWs)   bands (ev):

   -37.7264 -15.9743 -13.5723 -13.0343  -9.6852  -9.6429  -9.6197   0.0950
     1.2515   2.9631   4.4292   5.8859   6.0546   6.4208   6.4959   7.2257
    19.0695  21.2272  24.2729  25.4080  27.1586

          k = 0.0000 0.2500 0.3750 (  3975 PWs)   bands (ev):

   -37.7239 -15.6026 -13.9986 -13.1287  -9.6751  -9.6472  -9.5970  -0.0518
     1.4880   3.7084   3.8787   5.5620   5.8003   6.2667   6.4695   7.3026
    20.2890  22.2240  23.9059  25.7246  27.0022

          k = 0.0000 0.2500-0.5000 (  3984 PWs)   bands (ev):

   -37.7229 -15.3559 -14.2920 -13.1408  -9.6710  -9.6524  -9.5868  -0.0777
     1.5978   3.5429   4.2141   5.3244   5.6505   6.2367   6.4808   7.2903
    21.1960  22.2233  24.0331  25.4670  27.5359

          k = 0.0000 0.3750 0.3750 (  3986 PWs)   bands (ev):

   -37.7216 -15.2009 -14.1000 -13.5442  -9.6664  -9.6237  -9.6181  -0.4041
     1.7552   3.2622   4.6315   5.5036   5.7441   5.8919   6.3086   7.6646
    21.3245  23.1291  23.8269  25.2677  26.7129

          k = 0.0000 0.3750-0.5000 (  3976 PWs)   bands (ev):

   -37.7206 -14.8965 -14.2975 -13.6986  -9.6628  -9.6296  -9.6110  -0.5141
     1.8815   3.0655   5.0528   5.3619   5.6296   5.8133   6.2635   7.7756
    22.2707  22.8289  24.4225  24.4550  26.9998

          k = 0.0000-0.5000-0.5000 (  4012 PWs)   bands (ev):

   -37.7196 -14.3370 -14.2998 -14.2998  -9.6594  -9.6198  -9.6198  -0.6578
     2.0169   2.8903   5.3840   5.3840   5.6209   5.6209   6.1542   7.9478
    23.3817  23.3817  23.6874  23.7781  27.2319

          k = 0.1250 0.1250 0.1250 (  3935 PWs)   bands (ev):

   -37.7304 -16.3991 -12.9449 -12.9449  -9.6877  -9.6877  -9.6574   0.1716
     1.4371   1.4371   5.8899   6.0227   6.0227   6.7251   7.0111   7.0111
    17.4635  19.7684  24.5305  24.5305  27.0528

          k = 0.1250 0.1250 0.2500 (  3971 PWs)   bands (ev):

   -37.7279 -16.1440 -13.4163 -12.9153  -9.6929  -9.6682  -9.6147  -0.0516
     1.6259   2.2567   5.1049   5.4926   6.0116   6.7874   6.9052   6.9778
    18.4638  20.6724  24.2261  25.3230  26.9713

          k = 0.1250 0.1250 0.3750 (  3984 PWs)   bands (ev):

   -37.7253 -15.7824 -13.9764 -12.8853  -9.6984  -9.6548  -9.5827  -0.0808
     1.8469   3.0230   4.3883   5.0364   6.0553   6.5464   6.7770   6.9170
    19.7892  21.7558  23.6481  26.2249  26.7298

          k = 0.1250 0.1250-0.5000 (  3974 PWs)   bands (ev):

   -37.7243 -15.5521 -14.2848 -12.8728  -9.7008  -9.6491  -9.5733  -0.0606
     1.9522   3.4389   4.0185   4.8489   6.1827   6.2338   6.7576   6.8932
    20.6801  21.9241  23.5898  26.3095  26.6407

          k = 0.1250 0.2500 0.2500 (  3967 PWs)   bands (ev):

   -37.7254 -15.8885 -13.5525 -13.1609  -9.6922  -9.6572  -9.6080  -0.5295
     2.0549   3.0218   4.4226   5.3170   5.5699   6.8683   6.8874   7.2244
    19.2346  21.4701  24.4765  25.3803  26.6202

          k = 0.1250 0.2500 0.3750 (  3978 PWs)   bands (ev):

   -37.7230 -15.5201 -13.9842 -13.2147  -9.7021  -9.6439  -9.6037  -0.7615
     2.3349   3.7227   3.9169   4.8823   5.6374   6.6166   6.8863   7.3120
    20.3750  22.3728  24.0547  25.7070  26.3574

          k = 0.1250 0.2500-0.5000 (  3974 PWs)   bands (ev):

   -37.7220 -15.2716 -14.2800 -13.2136  -9.7083  -9.6334  -9.6073  -0.8218
     2.4650   3.5625   4.2123   4.6288   5.8125   6.3615   6.8909   7.3123
    21.2597  22.2851  24.3022  25.1506  26.8717

          k = 0.1250 0.3750 0.3750 (  3959 PWs)   bands (ev):

   -37.7207 -15.1314 -14.0755 -13.5882  -9.6973  -9.6471  -9.6186  -1.1662
     2.6586   3.3155   4.4309   4.8228   5.5440   6.5809   6.7217   7.6693
    21.3106  23.1289  23.8329  25.2234  26.1575

          k = 0.1250 0.3750-0.5000 (  3978 PWs)   bands (ev):

   -37.7197 -14.8342 -14.2756 -13.7171  -9.6962  -9.6362  -9.6360  -1.2961
     2.8081   3.1194   4.6239   4.6581   5.8092   6.4000   6.6836   7.7810
    22.2050  22.7839  24.1663  24.4982  26.4708

          k = 0.1250-0.5000-0.5000 (  3992 PWs)   bands (ev):

   -37.7188 -14.3063 -14.2739 -14.2739  -9.6819  -9.6464  -9.6464  -1.4539
     2.9526   2.9576   4.6347   4.6347   6.1581   6.4100   6.4100   7.9519
    23.2808  23.2808  23.5142  23.5521  26.9499

          k = 0.2500 0.2500 0.2500 (  3977 PWs)   bands (ev):

   -37.7231 -15.6424 -13.5039 -13.5039  -9.6928  -9.6928  -9.6006  -1.2323
     3.1889   3.1889   4.2030   4.9203   4.9203   7.2176   7.2228   7.2228
    19.7729  22.1077  24.9801  24.9801  26.0760

          k = 0.2500 0.2500 0.3750 (  3975 PWs)   bands (ev):

   -37.7208 -15.2835 -13.9576 -13.4540  -9.7299  -9.6767  -9.6161  -1.6452
     3.4400   3.6885   4.0081   4.3563   5.2080   7.1671   7.2182   7.3974
    20.6934  22.7181  24.2343  25.4781  25.5424

          k = 0.2500 0.2500-0.5000 (  3960 PWs)   bands (ev):

   -37.7198 -15.0290 -14.2509 -13.4329  -9.7456  -9.6540  -9.6402  -1.7754
     3.5256   3.6543   4.0357   4.1746   5.5479   6.9973   7.2170   7.4471
    21.5139  22.4297  24.2868  25.0148  25.6619

          k = 0.2500 0.3750 0.3750 (  3972 PWs)   bands (ev):

   -37.7186 -14.9344 -14.0151 -13.7247  -9.7437  -9.7051  -9.6469  -2.2117
     3.3940   3.8673   3.9968   4.4000   5.4478   7.2603   7.2789   7.6837
    21.3441  22.9869  23.7343  24.6331  25.8084

          k = 0.2500 0.3750-0.5000 (  3974 PWs)   bands (ev):

   -37.7177 -14.6598 -14.2218 -13.7848  -9.7534  -9.6963  -9.6764  -2.4022
     3.2478   3.9231   3.9969   4.3631   5.8395   7.1825   7.2807   7.7966
    22.0840  22.6115  23.4545  24.2692  26.0232

          k = 0.2500-0.5000-0.5000 (  3968 PWs)   bands (ev):

   -37.7168 -14.2297 -14.2097 -14.2097  -9.7356  -9.7124  -9.7124  -2.6166
     3.1043   3.9359   3.9359   4.4893   6.1676   7.2091   7.2091   7.9618
    22.8733  22.9398  22.9398  23.1275  27.0420

          k = 0.3750 0.3750 0.3750 (  3987 PWs)   bands (ev):

   -37.7165 -14.6484 -13.9526 -13.9526  -9.7655  -9.7655  -9.6984  -2.9213
     3.4366   3.6374   3.6374   5.4437   5.4437   7.6223   7.6223   7.7454
    21.6159  22.6777  23.4987  23.4987  26.1687

          k = 0.3750 0.3750-0.5000 (  3982 PWs)   bands (ev):

   -37.7156 -14.4112 -14.1666 -13.9261  -9.7912  -9.7564  -9.7372  -3.1677
     3.3378   3.5046   3.6264   5.4495   5.9436   7.6636   7.6919   7.8484
    22.1250  22.3693  22.7856  23.3754  26.3777

          k = 0.3750-0.5000-0.5000 (  3960 PWs)   bands (ev):

   -37.7147 -14.1495 -14.1433 -14.1433  -9.7886  -9.7811  -9.7811  -3.4367
     3.2579   3.4800   3.4800   5.7115   6.1771   7.7718   7.7718   7.9718
    22.2615  22.5166  22.5166  22.5836  26.8592

          k =-0.5000-0.5000-0.5000 (  3912 PWs)   bands (ev):

   -37.7139 -14.1151 -14.1151 -14.1151  -9.8104  -9.8104  -9.8104  -3.7278
     3.3221   3.3221   3.3221   6.1811   6.1811   7.9760   7.9760   7.9760
    22.0198  22.3302  22.3302  22.3302  26.8330

     the Fermi energy is    21.4601 ev

!    total energy              =    -450.04909214 Ry
     total all-electron energy =     -5120.788071 Ry
     estimated scf accuracy    <          4.8E-14 Ry
     smearing contrib. (-TS)   =      -0.00092376 Ry
     internal energy E=F+TS    =    -450.04816838 Ry

     The total energy is F=E-TS. E is the sum of the following terms:
     one-electron contribution =     -77.30072105 Ry
     hartree contribution      =      68.38083575 Ry
     xc contribution           =     -51.94126889 Ry
     ewald contribution        =    -187.51535089 Ry
     one-center paw contrib.   =    -201.67166330 Ry

     convergence has been achieved in  15 iterations

     Forces acting on atoms (cartesian axes, Ry/au):

     atom    1 type  1   force =     0.00000000    0.00000000    0.00000000
     atom    2 type  2   force =     0.00000000    0.00000000    0.00000000
     atom    3 type  3   force =     0.00000000    0.00000000    0.00000000
     atom    4 type  3   force =     0.00000000    0.00000000    0.00000000
     atom    5 type  3   force =     0.00000000    0.00000000    0.00000000

     Total force =     0.000000     Total SCF correction =     0.000000


     Computing stress (Cartesian axis) and pressure

          total   stress  (Ry/bohr**3)                   (kbar)     P=     3386.52
   0.02302110   0.00000000   0.00000000         3386.52        0.00        0.00
   0.00000000   0.02302110   0.00000000            0.00     3386.52        0.00
   0.00000000   0.00000000   0.02302110            0.00        0.00     3386.52


     BFGS Geometry Optimization
     Energy error            =      0.0E+00 Ry
     Gradient error          =      0.0E+00 Ry/Bohr
     Cell gradient error     =      3.4E+03 kbar

     number of scf cycles    =   1
     number of bfgs steps    =   0

     enthalpy           new  =    -450.0490921423 Ry

     new trust radius        =       0.5000000000 bohr
     new conv_thr            =            1.0E-12 Ry

     new unit-cell volume =    370.08492 a.u.^3 (    54.84093 Ang^3 )
     density =      4.62106 g/cm^3

CELL_PARAMETERS (angstrom)
   3.799282579   0.000000000   0.000000000
   0.000000000   3.799282579   0.000000000
   0.000000000   0.000000000   3.799282579

ATOMIC_POSITIONS (crystal)
Na               0.0000000000        0.0000000000        0.0000000000
Ge               0.5000000000        0.5000000000        0.5000000000
F                0.5000000000        0.5000000000        0.0000000000
F                0.5000000000        0.0000000000        0.5000000000
F                0.0000000000        0.5000000000        0.5000000000



     Writing config-only to output data dir ./tmp/NaGeF3.save/ :
     XML data file
     NEW-OLD atomic charge density approx. for the potential

     total cpu time spent up to now is       39.2 secs

     Self-consistent Calculation

     iteration #  1     ecut=   100.00 Ry     beta= 0.30
     Davidson diagonalization with overlap
     c_bands:  1 eigenvalues not converged
     c_bands:  1 eigenvalues not converged
     ethr =  1.00E-06,  avg # of iterations = 15.1

     total cpu time spent up to now is       46.7 secs

     total energy              =    -451.54279479 Ry
     estimated scf accuracy    <       0.01023639 Ry

     iteration #  2     ecut=   100.00 Ry     beta= 0.30
     Davidson diagonalization with overlap
     ethr =  3.01E-05,  avg # of iterations =  3.0

     total cpu time spent up to now is       48.5 secs

     total energy              =    -451.49856137 Ry
     estimated scf accuracy    <       0.00356111 Ry

     iteration #  3     ecut=   100.00 Ry     beta= 0.30
     Davidson diagonalization with overlap
     ethr =  1.05E-05,  avg # of iterations =  3.7

     total cpu time spent up to now is       50.9 secs

     total energy              =    -451.49625327 Ry
     estimated scf accuracy    <       0.00065464 Ry

     iteration #  4     ecut=   100.00 Ry     beta= 0.30
     Davidson diagonalization with overlap
     ethr =  1.93E-06,  avg # of iterations =  5.1

     total cpu time spent up to now is       53.3 secs

     total energy              =    -451.49469209 Ry
     estimated scf accuracy    <       0.00023529 Ry

     iteration #  5     ecut=   100.00 Ry     beta= 0.30
     Davidson diagonalization with overlap
     ethr =  6.92E-07,  avg # of iterations =  4.9

     total cpu time spent up to now is       55.8 secs

     total energy              =    -451.49501854 Ry
     estimated scf accuracy    <       0.00004253 Ry

     iteration #  6     ecut=   100.00 Ry     beta= 0.30
     Davidson diagonalization with overlap
     ethr =  1.25E-07,  avg # of iterations =  2.0

     total cpu time spent up to now is       57.6 secs

     total energy              =    -451.49504334 Ry
     estimated scf accuracy    <       0.00001913 Ry

     iteration #  7     ecut=   100.00 Ry     beta= 0.30
     Davidson diagonalization with overlap
     ethr =  5.63E-08,  avg # of iterations =  4.1

     total cpu time spent up to now is       60.0 secs

     total energy              =    -451.49505407 Ry
     estimated scf accuracy    <       0.00003023 Ry

     iteration #  8     ecut=   100.00 Ry     beta= 0.30
     Davidson diagonalization with overlap
     ethr =  5.63E-08,  avg # of iterations =  3.7

     total cpu time spent up to now is       62.1 secs

     total energy              =    -451.49504998 Ry
     estimated scf accuracy    <       0.00000595 Ry

     iteration #  9     ecut=   100.00 Ry     beta= 0.30
     Davidson diagonalization with overlap
     ethr =  1.75E-08,  avg # of iterations =  3.7

     total cpu time spent up to now is       64.3 secs

     total energy              =    -451.49505284 Ry
     estimated scf accuracy    <       0.00000049 Ry

     iteration # 10     ecut=   100.00 Ry     beta= 0.30
     Davidson diagonalization with overlap
     ethr =  1.44E-09,  avg # of iterations =  4.0

     total cpu time spent up to now is       66.5 secs

     total energy              =    -451.49505318 Ry
     estimated scf accuracy    <       0.00000032 Ry

     iteration # 11     ecut=   100.00 Ry     beta= 0.30
     Davidson diagonalization with overlap
     ethr =  9.51E-10,  avg # of iterations =  2.7

     total cpu time spent up to now is       68.4 secs

     total energy              =    -451.49505306 Ry
     estimated scf accuracy    <       0.00000018 Ry

     iteration # 12     ecut=   100.00 Ry     beta= 0.30
     Davidson diagonalization with overlap
     ethr =  5.29E-10,  avg # of iterations =  3.9

     total cpu time spent up to now is       70.6 secs

     total energy              =    -451.49505311 Ry
     estimated scf accuracy    <          4.8E-11 Ry

     iteration # 13     ecut=   100.00 Ry     beta= 0.30
     Davidson diagonalization with overlap
     ethr =  1.42E-13,  avg # of iterations =  5.8

     total cpu time spent up to now is       73.9 secs

     total energy              =    -451.49505311 Ry
     estimated scf accuracy    <          2.5E-10 Ry

     iteration # 14     ecut=   100.00 Ry     beta= 0.30
     Davidson diagonalization with overlap
     ethr =  1.42E-13,  avg # of iterations =  4.0

     total cpu time spent up to now is       76.3 secs

     total energy              =    -451.49505311 Ry
     estimated scf accuracy    <          2.9E-11 Ry

     iteration # 15     ecut=   100.00 Ry     beta= 0.30
     Davidson diagonalization with overlap
     ethr =  1.00E-13,  avg # of iterations =  4.0

     total cpu time spent up to now is       78.5 secs

     total energy              =    -451.49505311 Ry
     estimated scf accuracy    <          2.9E-12 Ry

     iteration # 16     ecut=   100.00 Ry     beta= 0.30
     Davidson diagonalization with overlap
     ethr =  1.00E-13,  avg # of iterations =  1.9

     total cpu time spent up to now is       80.3 secs

     End of self-consistent calculation

          k = 0.0000 0.0000 0.0000 (  3911 PWs)   bands (ev):

   -45.0886 -18.7569 -17.2373 -17.2373 -17.0008 -17.0008 -17.0008  -1.9079
    -1.9079  -1.9079   1.7470   1.7470   1.7470   1.8665   1.8665   1.8665
     4.6571  10.5866  16.6588  16.6588  19.3022

          k = 0.0000 0.0000 0.1075 (  3939 PWs)   bands (ev):

   -45.0885 -18.7165 -17.3109 -17.2356 -17.0004 -17.0004 -16.9781  -1.9352
    -1.8639  -1.8639   1.5317   1.7022   1.7022   1.7110   1.8420   1.8420
     5.2189  10.8089  15.9840  16.8681  17.6011

          k = 0.0000 0.0000 0.2150 (  3948 PWs)   bands (ev):

   -45.0883 -18.6042 -17.4775 -17.2314 -16.9995 -16.9995 -16.9487  -1.9908
    -1.7507  -1.7507   0.9546   1.5479   1.5479   1.6258   1.8226   1.8226
     6.4241  11.3832  14.9713  17.4142  17.5049

          k = 0.0000 0.0000 0.3224 (  3976 PWs)   bands (ev):

   -45.0881 -18.4544 -17.6674 -17.2272 -16.9986 -16.9986 -16.9335  -2.0315
    -1.6253  -1.6253   0.5149   1.3675   1.3675   1.5425   1.8174   1.8174
     7.6895  11.9156  14.2729  17.3847  17.3998

          k = 0.0000 0.0000-0.4299 (  3980 PWs)   bands (ev):

   -45.0881 -18.3677 -17.7687 -17.2255 -16.9982 -16.9982 -16.9293  -2.0437
    -1.5689  -1.5689   0.3532   1.2874   1.2874   1.5086   1.8164   1.8164
     8.3158  11.9483  14.2778  16.6865  18.3330

          k = 0.0000 0.1075 0.1075 (  3950 PWs)   bands (ev):

   -45.0885 -18.6764 -17.3423 -17.2706 -17.0001 -16.9829 -16.9764  -2.2179
    -1.8195  -1.5623   1.2278   1.6089   1.6774   1.7504   1.7979   1.8889
     5.6602  11.0225  15.8249  16.4989  17.5559

          k = 0.0000 0.1075 0.2150 (  3971 PWs)   bands (ev):

   -45.0883 -18.5646 -17.4894 -17.2766 -16.9992 -16.9840 -16.9514  -2.4763
    -1.7049  -1.2377   0.7581   1.4170   1.5453   1.7393   1.7568   1.8882
     6.7203  11.5728  14.9647  16.6963  17.5836

          k = 0.0000 0.1075 0.3224 (  3979 PWs)   bands (ev):

   -45.0881 -18.4143 -17.6742 -17.2704 -16.9982 -16.9878 -16.9366  -2.6421
    -1.5778  -0.9676   0.3944   1.2012   1.3683   1.7457   1.7485   1.8336
     7.9176  12.0584  14.3078  16.7502  16.9962

          k = 0.0000 0.1075-0.4299 (  3994 PWs)   bands (ev):

   -45.0880 -18.3255 -17.7758 -17.2674 -16.9979 -16.9895 -16.9325  -2.6983
    -1.5206  -0.8516   0.2564   1.1041   1.2884   1.7472   1.7550   1.7993
     8.5325  12.0416  14.3803  16.1243  17.0743

          k = 0.0000 0.2150 0.2150 (  3974 PWs)   bands (ev):

   -45.0881 -18.4536 -17.5536 -17.3523 -16.9982 -16.9653 -16.9525  -2.9539
    -1.5867  -0.6720   0.4039   1.3081   1.5143   1.6155   1.6382   2.0736
     7.5297  12.0638  14.6146  16.3366  16.7672

          k = 0.0000 0.2150 0.3224 (  3975 PWs)   bands (ev):

   -45.0879 -18.3007 -17.6949 -17.3843 -16.9973 -16.9670 -16.9417  -3.2628
    -1.4548  -0.2220   0.1306   1.1225   1.3696   1.5745   1.5979   2.1436
     8.5738  12.4507  14.1138  15.8343  16.5392

          k = 0.0000 0.2150-0.4299 (  3984 PWs)   bands (ev):

   -45.0878 -18.2043 -17.7924 -17.3904 -16.9969 -16.9689 -16.9376  -3.3686
    -1.3951  -0.0206   0.0273   1.0049   1.2909   1.5714   1.5949   2.1542
     9.1637  12.3007  14.3476  15.1627  16.7071

          k = 0.0000 0.3224 0.3224 (  3986 PWs)   bands (ev):

   -45.0877 -18.1385 -17.7412 -17.5197 -16.9965 -16.9517 -16.9432  -3.6627
    -1.3167  -0.0948   0.3525   1.0707   1.3576   1.3990   1.4386   2.3412
     9.5043  12.9203  13.4437  14.9205  16.7483

          k = 0.0000 0.3224-0.4299 (  3976 PWs)   bands (ev):

   -45.0876 -18.0208 -17.8084 -17.5781 -16.9961 -16.9490 -16.9402  -3.7999
    -1.2537  -0.1790   0.6250   0.9888   1.2934   1.3765   1.3799   2.4048
    10.0965  12.6610  13.5781  14.3441  17.0448

          k = 0.0000-0.4299-0.4299 (  4012 PWs)   bands (ev):

   -45.0875 -17.8148 -17.8148 -17.7864 -16.9959 -16.9411 -16.9411  -3.9477
    -1.1890  -0.2579   0.9899   0.9899   1.1561   1.2944   1.2944   2.4946
    10.7478  12.9015  12.9015  13.9513  17.4313

          k = 0.1075 0.1075 0.1075 (  3935 PWs)   bands (ev):

   -45.0884 -18.6368 -17.3371 -17.3371 -16.9841 -16.9796 -16.9796  -2.4962
    -1.5179  -1.5179   1.0570   1.4728   1.4728   1.8524   1.8969   1.8969
     6.0307  11.2274  15.9516  15.9516  17.6027

          k = 0.1075 0.1075 0.2150 (  3971 PWs)   bands (ev):

   -45.0882 -18.5260 -17.4934 -17.3239 -16.9878 -16.9822 -16.9549  -2.8324
    -1.4020  -1.1053   0.6604   1.1897   1.4406   1.8379   1.8779   1.9180
     6.9830  11.7542  14.9884  16.2456  17.3824

          k = 0.1075 0.1075 0.3224 (  3984 PWs)   bands (ev):

   -45.0880 -18.3758 -17.6774 -17.3101 -16.9967 -16.9814 -16.9408  -3.0551
    -1.2698  -0.7660   0.3327   0.9452   1.4570   1.6605   1.8824   1.9066
     8.1220  12.1915  14.3437  16.4734  16.5080

          k = 0.1075 0.1075-0.4299 (  3974 PWs)   bands (ev):

   -45.0879 -18.2853 -17.7799 -17.3041 -17.0006 -16.9810 -16.9369  -3.1316
    -1.2086  -0.6217   0.2048   0.8449   1.5115   1.5211   1.8857   1.8934
     8.7275  12.1232  14.4917  15.7753  17.4078

          k = 0.1075 0.2150 0.2150 (  3967 PWs)   bands (ev):

   -45.0880 -18.4174 -17.5446 -17.3997 -16.9902 -16.9641 -16.9596  -3.3076
    -1.1813  -0.6325   0.3851   1.0355   1.2045   1.8647   1.8816   2.0769
     7.7268  12.2223  14.6733  15.8258  16.6704

          k = 0.1075 0.2150 0.3224 (  3978 PWs)   bands (ev):

   -45.0878 -18.2670 -17.6896 -17.4147 -16.9975 -16.9662 -16.9485  -3.6292
    -1.0303  -0.1840   0.1333   0.8012   1.1974   1.7333   1.8822   2.1525
     8.7261  12.5571  14.1475  15.6888  15.9902

          k = 0.1075 0.2150-0.4299 (  3974 PWs)   bands (ev):

   -45.0877 -18.1704 -17.7897 -17.4138 -17.0011 -16.9670 -16.9446  -3.7407
    -0.9627   0.0138   0.0318   0.6779   1.2436   1.6264   1.8841   2.1678
     9.3091  12.3484  14.4636  14.9873  16.0339

          k = 0.1075 0.3224 0.3224 (  3959 PWs)   bands (ev):

   -45.0876 -18.1115 -17.7303 -17.5366 -16.9988 -16.9552 -16.9523  -4.0216
    -0.8697  -0.0763   0.3218   0.7399   1.0484   1.7352   1.7819   2.3441
     9.6143  12.9945  13.4264  14.8026  16.0509

          k = 0.1075 0.3224-0.4299 (  3978 PWs)   bands (ev):

   -45.0875 -17.9971 -17.7994 -17.5848 -16.9995 -16.9554 -16.9495  -4.1582
    -0.7995  -0.1585   0.5288   0.6416   1.0925   1.6549   1.7683   2.4074
    10.1997  12.6556  13.5839  14.2543  16.1574

          k = 0.1075-0.4299-0.4299 (  3992 PWs)   bands (ev):

   -45.0875 -17.8034 -17.8034 -17.7783 -16.9986 -16.9510 -16.9510  -4.3037
    -0.7291  -0.2347   0.6390   0.6390   1.1578   1.6623   1.6623   2.4964
    10.8500  12.8521  12.8521  13.9099  16.2905

          k = 0.2150 0.2150 0.2150 (  3977 PWs)   bands (ev):

   -45.0878 -18.3156 -17.5219 -17.5219 -16.9779 -16.9779 -16.9611  -3.8376
    -0.5221  -0.5221   0.2744   0.8300   0.8300   2.0511   2.0511   2.1146
     8.3224  12.6323  14.7955  14.7955  16.2740

          k = 0.2150 0.2150 0.3224 (  3975 PWs)   bands (ev):

   -45.0876 -18.1721 -17.6802 -17.4975 -16.9978 -16.9702 -16.9595  -4.2083
    -0.3717  -0.0381   0.1042   0.5090   0.8766   2.0307   2.0703   2.2089
     9.2031  12.8450  14.0880  14.8808  15.4778

          k = 0.2150 0.2150-0.4299 (  3960 PWs)   bands (ev):

   -45.0875 -18.0740 -17.7833 -17.4868 -17.0065 -16.9671 -16.9597  -4.3380
    -0.2808   0.0078   0.1427   0.3597   0.9711   1.9611   2.0729   2.2410
     9.7664  12.4731  14.5142  14.7095  14.9024

          k = 0.2150 0.3224 0.3224 (  3972 PWs)   bands (ev):

   -45.0874 -18.0359 -17.7029 -17.5884 -17.0026 -16.9760 -16.9654  -4.6219
    -0.0969  -0.0162   0.2160   0.4081   0.8322   2.1029   2.1104   2.3532
     9.9721  13.1941  13.3588  14.3046  15.1324

          k = 0.2150 0.3224-0.4299 (  3974 PWs)   bands (ev):

   -45.0873 -17.9313 -17.7770 -17.6093 -17.0071 -16.9722 -16.9719  -4.7678
    -0.1102   0.0363   0.2589   0.3040   0.9984   2.0740   2.1168   2.4153
    10.5336  12.6260  13.5460  14.0135  15.0348

          k = 0.2150-0.4299-0.4299 (  3968 PWs)   bands (ev):

   -45.0873 -17.7745 -17.7745 -17.7585 -17.0054 -16.9760 -16.9760  -4.9197
    -0.1781   0.1475   0.2523   0.2523   1.1619   2.0920   2.0920   2.5008
    11.1730  12.7090  12.7090  13.7933  15.1398

          k = 0.3224 0.3224 0.3224 (  3987 PWs)   bands (ev):

   -45.0872 -17.9280 -17.6734 -17.6734 -17.0015 -17.0015 -16.9797  -5.0623
    -0.0363   0.0815   0.0815   0.7530   0.7530   2.3046   2.3046   2.3892
    10.6020  13.2567  13.2567  13.5362  14.4545

          k = 0.3224 0.3224-0.4299 (  3982 PWs)   bands (ev):

   -45.0872 -17.8386 -17.7536 -17.6605 -17.0127 -16.9941 -16.9922  -5.2190
    -0.0810   0.0231   0.0693   0.7370   1.0294   2.3329   2.3494   2.4425
    11.1386  12.5692  13.2054  13.7578  14.0826

          k = 0.3224-0.4299-0.4299 (  3960 PWs)   bands (ev):

   -45.0871 -17.7436 -17.7436 -17.7385 -17.0123 -17.0032 -17.0032  -5.3802
    -0.1206  -0.0061  -0.0061   0.8835   1.1659   2.3965   2.3965   2.5051
    11.7560  12.5365  12.5365  13.6524  13.8621

          k =-0.4299-0.4299-0.4299 (  3912 PWs)   bands (ev):

   -45.0870 -17.7301 -17.7301 -17.7301 -17.0149 -17.0149 -17.0149  -5.5453
    -0.0965  -0.0965  -0.0965   1.1676   1.1676   2.5070   2.5070   2.5070
    12.4580  12.4580  12.4580  12.8938  13.5870

     the Fermi energy is    11.1198 ev

!    total energy              =    -451.49505311 Ry
     total all-electron energy =     -5122.234032 Ry
     estimated scf accuracy    <          1.1E-13 Ry
     smearing contrib. (-TS)   =      -0.00031612 Ry
     internal energy E=F+TS    =    -451.49473699 Ry

     The total energy is F=E-TS. E is the sum of the following terms:
     one-electron contribution =    -120.69008228 Ry
     hartree contribution      =      82.68773184 Ry
     xc contribution           =     -50.74178275 Ry
     ewald contribution        =    -161.23607164 Ry
     one-center paw contrib.   =    -201.51453217 Ry

     convergence has been achieved in  16 iterations

     Forces acting on atoms (cartesian axes, Ry/au):

     atom    1 type  1   force =     0.00000000    0.00000000    0.00000000
     atom    2 type  2   force =     0.00000000    0.00000000    0.00000000
     atom    3 type  3   force =     0.00000000    0.00000000    0.00000000
     atom    4 type  3   force =     0.00000000    0.00000000    0.00000000
     atom    5 type  3   force =     0.00000000    0.00000000    0.00000000

     Total force =     0.000000     Total SCF correction =     0.000000


     Computing stress (Cartesian axis) and pressure

          total   stress  (Ry/bohr**3)                   (kbar)     P=      611.51
   0.00415693   0.00000000   0.00000000          611.51        0.00        0.00
   0.00000000   0.00415693   0.00000000            0.00      611.51        0.00
   0.00000000   0.00000000   0.00415693            0.00        0.00      611.51

     Energy error            =      1.4E+00 Ry
     Gradient error          =      0.0E+00 Ry/Bohr
     Cell gradient error     =      6.1E+02 kbar

     number of scf cycles    =   2
     number of bfgs steps    =   1

     enthalpy           old  =    -450.0490921423 Ry
     enthalpy           new  =    -451.4950531132 Ry

     CASE: enthalpy          _new < enthalpy          _old

     new trust radius        =       0.1742460097 bohr
     new conv_thr            =            1.0E-14 Ry

     new unit-cell volume =    422.67752 a.u.^3 (    62.63435 Ang^3 )
     density =      4.04607 g/cm^3

CELL_PARAMETERS (angstrom)
   3.971344095   0.000000000   0.000000000
   0.000000000   3.971344095   0.000000000
   0.000000000   0.000000000   3.971344095

ATOMIC_POSITIONS (crystal)
Na               0.0000000000        0.0000000000        0.0000000000
Ge               0.5000000000        0.5000000000        0.5000000000
F                0.5000000000        0.5000000000        0.0000000000
F                0.5000000000        0.0000000000        0.5000000000
F                0.0000000000        0.5000000000        0.5000000000



     Writing config-only to output data dir ./tmp/NaGeF3.save/ :
     XML data file
     NEW-OLD atomic charge density approx. for the potential

     total cpu time spent up to now is       82.7 secs

     Self-consistent Calculation

     iteration #  1     ecut=   100.00 Ry     beta= 0.30
     Davidson diagonalization with overlap
     c_bands:  1 eigenvalues not converged
     ethr =  1.00E-06,  avg # of iterations = 11.3

     total cpu time spent up to now is       88.9 secs

     total energy              =    -451.65973132 Ry
     estimated scf accuracy    <       0.00199135 Ry

     iteration #  2     ecut=   100.00 Ry     beta= 0.30
     Davidson diagonalization with overlap
     ethr =  5.86E-06,  avg # of iterations =  2.0

     total cpu time spent up to now is       90.9 secs

     total energy              =    -451.65785185 Ry
     estimated scf accuracy    <       0.00024835 Ry

     iteration #  3     ecut=   100.00 Ry     beta= 0.30
     Davidson diagonalization with overlap
     ethr =  7.30E-07,  avg # of iterations =  3.5

     total cpu time spent up to now is       93.0 secs

     total energy              =    -451.65649833 Ry
     estimated scf accuracy    <       0.00012636 Ry

     iteration #  4     ecut=   100.00 Ry     beta= 0.30
     Davidson diagonalization with overlap
     ethr =  3.72E-07,  avg # of iterations =  4.1

     total cpu time spent up to now is       95.1 secs

     total energy              =    -451.65639884 Ry
     estimated scf accuracy    <       0.00002108 Ry

     iteration #  5     ecut=   100.00 Ry     beta= 0.30
     Davidson diagonalization with overlap
     ethr =  6.20E-08,  avg # of iterations =  5.5

     total cpu time spent up to now is       97.5 secs

     total energy              =    -451.65641496 Ry
     estimated scf accuracy    <       0.00000171 Ry

     iteration #  6     ecut=   100.00 Ry     beta= 0.30
     Davidson diagonalization with overlap
     ethr =  5.02E-09,  avg # of iterations =  4.0

     total cpu time spent up to now is       99.9 secs

     total energy              =    -451.65641593 Ry
     estimated scf accuracy    <       0.00000051 Ry

     iteration #  7     ecut=   100.00 Ry     beta= 0.30
     Davidson diagonalization with overlap
     ethr =  1.50E-09,  avg # of iterations =  4.0

     total cpu time spent up to now is      102.2 secs

     total energy              =    -451.65641597 Ry
     estimated scf accuracy    <       0.00000015 Ry

     iteration #  8     ecut=   100.00 Ry     beta= 0.30
     Davidson diagonalization with overlap
     ethr =  4.45E-10,  avg # of iterations =  3.1

     total cpu time spent up to now is      104.4 secs

     total energy              =    -451.65641602 Ry
     estimated scf accuracy    <          1.0E-09 Ry

     iteration #  9     ecut=   100.00 Ry     beta= 0.30
     Davidson diagonalization with overlap
     ethr =  2.98E-12,  avg # of iterations =  5.1

     total cpu time spent up to now is      107.4 secs

     total energy              =    -451.65641602 Ry
     estimated scf accuracy    <          6.7E-09 Ry

     iteration # 10     ecut=   100.00 Ry     beta= 0.30
     Davidson diagonalization with overlap
     ethr =  2.98E-12,  avg # of iterations =  4.2

     total cpu time spent up to now is      110.0 secs

     total energy              =    -451.65641602 Ry
     estimated scf accuracy    <          1.5E-09 Ry

     iteration # 11     ecut=   100.00 Ry     beta= 0.30
     Davidson diagonalization with overlap
     ethr =  2.98E-12,  avg # of iterations =  4.0

     total cpu time spent up to now is      112.5 secs

     total energy              =    -451.65641602 Ry
     estimated scf accuracy    <          1.3E-10 Ry

     iteration # 12     ecut=   100.00 Ry     beta= 0.30
     Davidson diagonalization with overlap
     ethr =  3.74E-13,  avg # of iterations =  2.0

     total cpu time spent up to now is      114.6 secs

     total energy              =    -451.65641602 Ry
     estimated scf accuracy    <          1.2E-12 Ry

     iteration # 13     ecut=   100.00 Ry     beta= 0.30
     Davidson diagonalization with overlap
     ethr =  1.00E-13,  avg # of iterations =  4.0

     total cpu time spent up to now is      116.8 secs

     total energy              =    -451.65641602 Ry
     estimated scf accuracy    <          1.6E-11 Ry

     iteration # 14     ecut=   100.00 Ry     beta= 0.30
     Davidson diagonalization with overlap
     ethr =  1.00E-13,  avg # of iterations =  2.4

     total cpu time spent up to now is      118.7 secs

     total energy              =    -451.65641602 Ry
     estimated scf accuracy    <          7.1E-13 Ry

     iteration # 15     ecut=   100.00 Ry     beta= 0.30
     Davidson diagonalization with overlap
     ethr =  1.00E-13,  avg # of iterations =  1.4

     total cpu time spent up to now is      120.4 secs

     total energy              =    -451.65641602 Ry
     estimated scf accuracy    <          7.3E-14 Ry

     iteration # 16     ecut=   100.00 Ry     beta= 0.30
     Davidson diagonalization with overlap
     ethr =  1.00E-13,  avg # of iterations =  1.0

     total cpu time spent up to now is      122.1 secs

     total energy              =    -451.65641602 Ry
     estimated scf accuracy    <          1.8E-13 Ry

     iteration # 17     ecut=   100.00 Ry     beta= 0.30
     Davidson diagonalization with overlap
     ethr =  1.00E-13,  avg # of iterations =  1.0

     total cpu time spent up to now is      123.8 secs

     End of self-consistent calculation

          k = 0.0000 0.0000 0.0000 (  3911 PWs)   bands (ev):

   -46.7243 -19.2664 -18.6285 -18.6285 -18.6285 -18.1633 -18.1633  -2.4323
    -2.4323  -2.4323   0.7488   0.7488   0.7488   0.8208   0.8208   0.8208
     2.2292   8.8342  14.9305  14.9551  14.9551

          k = 0.0000 0.0000 0.1028 (  3939 PWs)   bands (ev):

   -46.7243 -19.2397 -18.6284 -18.6284 -18.6275 -18.1958 -18.1622  -2.5179
    -2.3952  -2.3952   0.4477   0.7110   0.7110   0.7211   0.8039   0.8039
     2.8666   9.0251  13.8815  14.8995  15.1389

          k = 0.0000 0.0000 0.2057 (  3948 PWs)   bands (ev):

   -46.7242 -19.1687 -18.6280 -18.6280 -18.6199 -18.2852 -18.1596  -2.7102
    -2.2999  -2.2999  -0.0348   0.5829   0.5829   0.6556   0.7946   0.7946
     4.0523   9.5045  12.8391  14.8202  15.6207

          k = 0.0000 0.0000 0.3085 (  3976 PWs)   bands (ev):

   -46.7241 -19.0848 -18.6277 -18.6277 -18.5933 -18.4069 -18.1569  -2.8850
    -2.1951  -2.1951  -0.3433   0.4373   0.4373   0.5913   0.7934   0.7934
     5.2269   9.8794  12.2526  14.7344  14.7699

          k = 0.0000 0.0000-0.4113 (  3980 PWs)   bands (ev):

   -46.7241 -19.0444 -18.6275 -18.6275 -18.5368 -18.5084 -18.1558  -2.9527
    -2.1482  -2.1482  -0.4480   0.3731   0.3731   0.5651   0.7934   0.7934
     5.7869   9.8425  12.3749  14.0396  14.6972

          k = 0.0000 0.1028 0.1028 (  3950 PWs)   bands (ev):

   -46.7242 -19.2131 -18.6392 -18.6283 -18.6156 -18.2086 -18.1797  -2.8077
    -2.3578  -2.1416   0.1997   0.6267   0.6930   0.7440   0.7675   0.8479
     3.3111   9.2083  13.6495  14.3478  14.8628

          k = 0.0000 0.1028 0.2057 (  3971 PWs)   bands (ev):

   -46.7242 -19.1421 -18.6496 -18.6279 -18.5991 -18.2867 -18.1853  -3.1347
    -2.2616  -1.8803  -0.1673   0.4692   0.5822   0.7311   0.7416   0.8558
     4.3311   9.6669  12.7729  14.3661  14.7692

          k = 0.0000 0.1028 0.3085 (  3979 PWs)   bands (ev):

   -46.7241 -19.0570 -18.6570 -18.6276 -18.5695 -18.4009 -18.1847  -3.3693
    -2.1558  -1.6776  -0.4261   0.2967   0.4386   0.7354   0.7389   0.8194
     5.4387   9.9998  12.2240  14.2979  14.4999

          k = 0.0000 0.1028-0.4113 (  3994 PWs)   bands (ev):

   -46.7240 -19.0154 -18.6600 -18.6274 -18.5090 -18.5034 -18.1843  -3.4539
    -2.1085  -1.5948  -0.5181   0.2203   0.3746   0.7389   0.7401   0.7973
     5.9864   9.9217  12.4052  13.6358  14.4832

          k = 0.0000 0.2057 0.2057 (  3974 PWs)   bands (ev):

   -46.7241 -19.0702 -18.6739 -18.6275 -18.5747 -18.3056 -18.2412  -3.6221
    -2.1633  -1.3863  -0.4179   0.3715   0.5618   0.6267   0.6389   1.0119
     5.0898  10.0781  12.3227  14.0119  14.4891

          k = 0.0000 0.2057 0.3085 (  3975 PWs)   bands (ev):

   -46.7240 -18.9808 -18.6956 -18.6271 -18.5449 -18.3866 -18.2604  -3.9489
    -2.0546  -1.0109  -0.6153   0.2189   0.4415   0.6013   0.6024   1.0737
     6.0478  10.3305  11.8684  13.4530  14.2759

          k = 0.0000 0.2057-0.4113 (  3984 PWs)   bands (ev):

   -46.7239 -18.9343 -18.7067 -18.6269 -18.5123 -18.4541 -18.2621  -4.0628
    -2.0058  -0.8524  -0.6884   0.1267   0.3784   0.5991   0.6004   1.0848
     6.5666  10.1408  12.1184  12.8488  14.3545

          k = 0.0000 0.3085 0.3085 (  3986 PWs)   bands (ev):

   -46.7239 -18.8812 -18.7251 -18.6267 -18.5311 -18.3813 -18.3489  -4.3330
    -1.9422  -0.7828  -0.5012   0.1718   0.4349   0.4576   0.4620   1.2362
     6.8947  10.7125  11.1387  12.6122  14.5582

          k = 0.0000 0.3085-0.4113 (  3976 PWs)   bands (ev):

   -46.7238 -18.8230 -18.7399 -18.6265 -18.5265 -18.4186 -18.3592  -4.4658
    -1.8914  -0.8465  -0.2666   0.1057   0.3821   0.4000   0.4503   1.2889
     7.4035  10.4370  11.2245  12.1481  14.8223

          k = 0.0000-0.4113-0.4113 (  4012 PWs)   bands (ev):

   -46.7238 -18.7519 -18.7519 -18.6265 -18.5515 -18.4058 -18.4058  -4.6051
    -1.8397  -0.9078   0.1043   0.1043   0.1588   0.3836   0.3836   1.3623
     7.9407  10.6177  10.6177  11.8285  15.1987

          k = 0.1028 0.1028 0.1028 (  3935 PWs)   bands (ev):

   -46.7242 -19.1868 -18.6377 -18.6377 -18.6060 -18.2089 -18.2089  -3.0850
    -2.1041  -2.1041   0.0553   0.5217   0.5217   0.8357   0.8527   0.8527
     3.6712   9.3842  13.7215  13.7215  14.9184

          k = 0.1028 0.1028 0.2057 (  3971 PWs)   bands (ev):

   -46.7241 -19.1163 -18.6526 -18.6341 -18.5892 -18.2893 -18.2096  -3.4599
    -2.0067  -1.7661  -0.2398   0.2909   0.4909   0.8039   0.8483   0.8839
     4.5787   9.8227  12.7532  13.8723  14.7773

          k = 0.1028 0.1028 0.3085 (  3984 PWs)   bands (ev):

   -46.7240 -19.0307 -18.6675 -18.6305 -18.5592 -18.3975 -18.2103  -3.7253
    -1.8967  -1.5045  -0.4713   0.0924   0.5027   0.6624   0.8507   0.8815
     5.6309  10.1123  12.2113  13.9816  14.0764

          k = 0.1028 0.1028-0.4113 (  3974 PWs)   bands (ev):

   -46.7240 -18.9878 -18.6750 -18.6288 -18.5092 -18.4857 -18.2106  -3.8196
    -1.8462  -1.3993  -0.5569   0.0111   0.5398   0.5594   0.8518   0.8747
     6.1686   9.9911  12.4608  13.3545  14.7635

          k = 0.1028 0.2057 0.2057 (  3967 PWs)   bands (ev):

   -46.7240 -19.0462 -18.6682 -18.6348 -18.5697 -18.3100 -18.2626  -3.9277
    -1.8254  -1.3523  -0.4334   0.1551   0.2960   0.8318   0.8493   1.0158
     5.2781  10.2158  12.3566  13.4378  14.3121

          k = 0.1028 0.2057 0.3085 (  3978 PWs)   bands (ev):

   -46.7239 -18.9582 -18.6911 -18.6311 -18.5422 -18.3899 -18.2800  -4.2547
    -1.7018  -0.9752  -0.6142  -0.0364   0.2815   0.7281   0.8496   1.0815
     6.1976  10.4210  11.8872  13.2571  13.6726

          k = 0.1028 0.2057-0.4113 (  3974 PWs)   bands (ev):

   -46.7239 -18.9111 -18.7057 -18.6290 -18.5117 -18.4526 -18.2826  -4.3696
    -1.6472  -0.8175  -0.6853  -0.1342   0.3119   0.6468   0.8515   1.0962
     6.7101  10.1812  12.1970  12.7087  13.5889

          k = 0.1028 0.3085 0.3085 (  3959 PWs)   bands (ev):

   -46.7238 -18.8632 -18.7148 -18.6293 -18.5294 -18.3903 -18.3621  -4.6255
    -1.5723  -0.7685  -0.5132  -0.0935   0.1397   0.7330   0.7680   1.2385
     7.0124  10.7769  11.1211  12.5089  13.6528

          k = 0.1028 0.3085-0.4113 (  3978 PWs)   bands (ev):

   -46.7238 -18.8063 -18.7306 -18.6282 -18.5238 -18.4263 -18.3730  -4.7556
    -1.5163  -0.8305  -0.3206  -0.1717   0.1531   0.6713   0.7581   1.2910
     7.5165  10.4318  11.2219  12.0917  13.6872

          k = 0.1028-0.4113-0.4113 (  3992 PWs)   bands (ev):

   -46.7238 -18.7398 -18.7398 -18.6278 -18.5459 -18.4167 -18.4167  -4.8911
    -1.4602  -0.8896  -0.1760  -0.1760   0.1600   0.6778   0.6778   1.3637
     8.0526  10.5775  10.5775  11.8149  13.7472

          k = 0.2057 0.2057 0.2057 (  3977 PWs)   bands (ev):

   -46.7239 -18.9807 -18.6542 -18.6542 -18.5566 -18.3213 -18.3213  -4.4143
    -1.2581  -1.2581  -0.5139  -0.0144  -0.0144   0.9874   0.9874   1.0514
     5.8451  10.5676  12.4225  12.4225  13.8761

          k = 0.2057 0.2057 0.3085 (  3975 PWs)   bands (ev):

   -46.7238 -18.8961 -18.6826 -18.6389 -18.5348 -18.3991 -18.3337  -4.7642
    -1.1343  -0.8316  -0.6401  -0.2773   0.0036   0.9732   1.0067   1.1290
     6.6626  10.6659  11.8166  12.4621  13.1381

          k = 0.2057 0.2057-0.4113 (  3960 PWs)   bands (ev):

   -46.7238 -18.8469 -18.7045 -18.6320 -18.5113 -18.4496 -18.3392  -4.8880
    -1.0644  -0.7040  -0.6783  -0.3946   0.0643   0.9204   1.0095   1.1563
     7.1565  10.2855  12.3367  12.3464  12.4698

          k = 0.2057 0.3085 0.3085 (  3972 PWs)   bands (ev):

   -46.7238 -18.8141 -18.6873 -18.6379 -18.5248 -18.4152 -18.3986  -5.1374
    -0.8860  -0.7344  -0.5620  -0.3746  -0.0800   1.0360   1.0420   1.2461
     7.3877  10.9526  11.0618  12.0614  12.7116

          k = 0.2057 0.3085-0.4113 (  3974 PWs)   bands (ev):

   -46.7237 -18.7604 -18.7058 -18.6323 -18.5173 -18.4475 -18.4117  -5.2701
    -0.7964  -0.7927  -0.4853  -0.4750   0.0370   1.0150   1.0481   1.2973
     7.8767  10.4060  11.1866  11.9432  12.5436

          k = 0.2057-0.4113-0.4113 (  3968 PWs)   bands (ev):

   -46.7237 -18.7068 -18.7068 -18.6315 -18.5324 -18.4469 -18.4469  -5.4062
    -0.8453  -0.7127  -0.4937  -0.4937   0.1632   1.0304   1.0304   1.3671
     8.4079  10.4647  10.4647  11.7749  12.5988

          k = 0.3085 0.3085 0.3085 (  3987 PWs)   bands (ev):

   -46.7237 -18.7486 -18.6533 -18.6533 -18.5186 -18.4465 -18.4465  -5.5217
    -0.7368  -0.6406  -0.6406  -0.1785  -0.1785   1.2034   1.2034   1.2760
     8.0189  10.9799  10.9799  11.3015  12.1116

          k = 0.3085 0.3085-0.4113 (  3982 PWs)   bands (ev):

   -46.7236 -18.6996 -18.6767 -18.6354 -18.5130 -18.4742 -18.4630  -5.6594
    -0.7703  -0.6797  -0.6482  -0.2011   0.0508   1.2276   1.2416   1.3195
     8.5025  10.3585  10.9399  11.4900  11.7869

          k = 0.3085-0.4113-0.4113 (  3960 PWs)   bands (ev):

   -46.7236 -18.6629 -18.6629 -18.6353 -18.5187 -18.4880 -18.4880  -5.7994
    -0.8004  -0.7069  -0.7069  -0.0774   0.1663   1.2809   1.2809   1.3704
     9.0487  10.3317  10.3317  11.2905  11.7228

          k =-0.4113-0.4113-0.4113 (  3912 PWs)   bands (ev):

   -46.7235 -18.6364 -18.6364 -18.6364 -18.5130 -18.5130 -18.5130  -5.9413
    -0.7816  -0.7816  -0.7816   0.1677   0.1677   1.3719   1.3719   1.3719
     9.8128  10.2714  10.2714  10.2714  11.6970

     the Fermi energy is     9.0296 ev

!    total energy              =    -451.65641602 Ry
     total all-electron energy =     -5122.395395 Ry
     estimated scf accuracy    <          5.4E-15 Ry
     smearing contrib. (-TS)   =      -0.00015593 Ry
     internal energy E=F+TS    =    -451.65626009 Ry

     The total energy is F=E-TS. E is the sum of the following terms:
     one-electron contribution =    -132.38310933 Ry
     hartree contribution      =      86.95300089 Ry
     xc contribution           =     -50.49272613 Ry
     ewald contribution        =    -154.25039566 Ry
     one-center paw contrib.   =    -201.48302986 Ry

     convergence has been achieved in  17 iterations

     Forces acting on atoms (cartesian axes, Ry/au):

     atom    1 type  1   force =     0.00000000    0.00000000    0.00000000
     atom    2 type  2   force =     0.00000000    0.00000000    0.00000000
     atom    3 type  3   force =     0.00000000    0.00000000    0.00000000
     atom    4 type  3   force =     0.00000000    0.00000000    0.00000000
     atom    5 type  3   force =     0.00000000    0.00000000    0.00000000

     Total force =     0.000000     Total SCF correction =     0.000000


     Computing stress (Cartesian axis) and pressure

          total   stress  (Ry/bohr**3)                   (kbar)     P=      317.55
   0.00215864   0.00000000   0.00000000          317.55        0.00        0.00
   0.00000000   0.00215864   0.00000000            0.00      317.55        0.00
   0.00000000   0.00000000   0.00215864            0.00        0.00      317.55

     Energy error            =      1.6E-01 Ry
     Gradient error          =      0.0E+00 Ry/Bohr
     Cell gradient error     =      3.2E+02 kbar

     number of scf cycles    =   3
     number of bfgs steps    =   2

     enthalpy           old  =    -451.4950531132 Ry
     enthalpy           new  =    -451.6564160218 Ry

     CASE: enthalpy          _new < enthalpy          _old

     new trust radius        =       0.1959627328 bohr
     new conv_thr            =            1.0E-14 Ry

     new unit-cell volume =    486.03571 a.u.^3 (    72.02306 Ang^3 )
     density =      3.51864 g/cm^3

CELL_PARAMETERS (angstrom)
   4.160611764   0.000000000   0.000000000
   0.000000000   4.160611764   0.000000000
   0.000000000   0.000000000   4.160611764

ATOMIC_POSITIONS (crystal)
Na               0.0000000000        0.0000000000        0.0000000000
Ge               0.5000000000        0.5000000000        0.5000000000
F                0.5000000000        0.5000000000        0.0000000000
F                0.5000000000        0.0000000000        0.5000000000
F                0.0000000000        0.5000000000        0.5000000000



     Writing config-only to output data dir ./tmp/NaGeF3.save/ :
     XML data file
     NEW-OLD atomic charge density approx. for the potential

     total cpu time spent up to now is      126.1 secs

     Self-consistent Calculation

     iteration #  1     ecut=   100.00 Ry     beta= 0.30
     Davidson diagonalization with overlap
     ethr =  1.00E-06,  avg # of iterations =  9.9

     total cpu time spent up to now is      131.4 secs

     total energy              =    -451.75067398 Ry
     estimated scf accuracy    <       0.00453349 Ry

     iteration #  2     ecut=   100.00 Ry     beta= 0.30
     Davidson diagonalization with overlap
     ethr =  1.33E-05,  avg # of iterations =  2.0

     total cpu time spent up to now is      133.5 secs

     total energy              =    -451.74884404 Ry
     estimated scf accuracy    <       0.00047280 Ry

     iteration #  3     ecut=   100.00 Ry     beta= 0.30
     Davidson diagonalization with overlap
     ethr =  1.39E-06,  avg # of iterations =  3.0

     total cpu time spent up to now is      135.5 secs

     total energy              =    -451.74720504 Ry
     estimated scf accuracy    <       0.00020124 Ry

     iteration #  4     ecut=   100.00 Ry     beta= 0.30
     Davidson diagonalization with overlap
     ethr =  5.92E-07,  avg # of iterations =  3.7

     total cpu time spent up to now is      137.6 secs

     total energy              =    -451.74715816 Ry
     estimated scf accuracy    <       0.00002429 Ry

     iteration #  5     ecut=   100.00 Ry     beta= 0.30
     Davidson diagonalization with overlap
     ethr =  7.14E-08,  avg # of iterations =  5.3

     total cpu time spent up to now is      139.9 secs

     total energy              =    -451.74717261 Ry
     estimated scf accuracy    <       0.00000329 Ry

     iteration #  6     ecut=   100.00 Ry     beta= 0.30
     Davidson diagonalization with overlap
     ethr =  9.67E-09,  avg # of iterations =  3.3

     total cpu time spent up to now is      142.3 secs

     total energy              =    -451.74717397 Ry
     estimated scf accuracy    <       0.00000037 Ry

     iteration #  7     ecut=   100.00 Ry     beta= 0.30
     Davidson diagonalization with overlap
     ethr =  1.10E-09,  avg # of iterations =  4.9

     total cpu time spent up to now is      144.7 secs

     total energy              =    -451.74717411 Ry
     estimated scf accuracy    <       0.00000034 Ry

     iteration #  8     ecut=   100.00 Ry     beta= 0.30
     Davidson diagonalization with overlap
     ethr =  1.00E-09,  avg # of iterations =  2.0

     total cpu time spent up to now is      146.6 secs

     total energy              =    -451.74717413 Ry
     estimated scf accuracy    <       0.00000002 Ry

     iteration #  9     ecut=   100.00 Ry     beta= 0.30
     Davidson diagonalization with overlap
     ethr =  5.29E-11,  avg # of iterations =  4.1

     total cpu time spent up to now is      149.2 secs

     total energy              =    -451.74717416 Ry
     estimated scf accuracy    <       0.00000004 Ry

     iteration # 10     ecut=   100.00 Ry     beta= 0.30
     Davidson diagonalization with overlap
     ethr =  5.29E-11,  avg # of iterations =  2.0

     total cpu time spent up to now is      151.1 secs

     total energy              =    -451.74717415 Ry
     estimated scf accuracy    <       0.00000002 Ry

     iteration # 11     ecut=   100.00 Ry     beta= 0.30
     Davidson diagonalization with overlap
     ethr =  5.29E-11,  avg # of iterations =  4.0

     total cpu time spent up to now is      153.5 secs

     total energy              =    -451.74717415 Ry
     estimated scf accuracy    <       0.00000004 Ry

     iteration # 12     ecut=   100.00 Ry     beta= 0.30
     Davidson diagonalization with overlap
     ethr =  5.29E-11,  avg # of iterations =  4.1

     total cpu time spent up to now is      155.7 secs

     total energy              =    -451.74717415 Ry
     estimated scf accuracy    <          6.1E-11 Ry

     iteration # 13     ecut=   100.00 Ry     beta= 0.30
     Davidson diagonalization with overlap
     ethr =  1.80E-13,  avg # of iterations =  3.0

     total cpu time spent up to now is      157.9 secs

     total energy              =    -451.74717415 Ry
     estimated scf accuracy    <          1.2E-10 Ry

     iteration # 14     ecut=   100.00 Ry     beta= 0.30
     Davidson diagonalization with overlap
     ethr =  1.80E-13,  avg # of iterations =  4.2

     total cpu time spent up to now is      160.3 secs

     total energy              =    -451.74717415 Ry
     estimated scf accuracy    <          4.8E-11 Ry

     iteration # 15     ecut=   100.00 Ry     beta= 0.30
     Davidson diagonalization with overlap
     ethr =  1.41E-13,  avg # of iterations =  4.0

     total cpu time spent up to now is      162.5 secs

     total energy              =    -451.74717415 Ry
     estimated scf accuracy    <          1.5E-13 Ry

     iteration # 16     ecut=   100.00 Ry     beta= 0.30
     Davidson diagonalization with overlap
     ethr =  1.00E-13,  avg # of iterations =  1.0

     total cpu time spent up to now is      164.2 secs

     total energy              =    -451.74717415 Ry
     estimated scf accuracy    <          1.1E-13 Ry

     iteration # 17     ecut=   100.00 Ry     beta= 0.30
     Davidson diagonalization with overlap
     ethr =  1.00E-13,  avg # of iterations =  1.0

     total cpu time spent up to now is      165.9 secs

     total energy              =    -451.74717415 Ry
     estimated scf accuracy    <          2.1E-14 Ry

     iteration # 18     ecut=   100.00 Ry     beta= 0.30
     Davidson diagonalization with overlap
     ethr =  1.00E-13,  avg # of iterations =  1.0

     total cpu time spent up to now is      167.5 secs

     total energy              =    -451.74717415 Ry
     estimated scf accuracy    <          3.0E-14 Ry

     iteration # 19     ecut=   100.00 Ry     beta= 0.30
     Davidson diagonalization with overlap
     ethr =  1.00E-13,  avg # of iterations =  1.0

     total cpu time spent up to now is      169.1 secs

     End of self-consistent calculation

          k = 0.0000 0.0000 0.0000 (  3911 PWs)   bands (ev):

   -48.1954 -20.0960 -20.0960 -20.0960 -19.7845 -19.0113 -19.0113  -2.9245
    -2.9245  -2.9245  -0.1640  -0.1640  -0.1640  -0.1303  -0.1303  -0.1303
    -0.0224   7.2249  12.3500  13.3289  13.3289

          k = 0.0000 0.0000 0.0981 (  3939 PWs)   bands (ev):

   -48.1954 -20.1045 -20.0960 -20.0960 -19.7528 -19.0363 -19.0107  -3.0979
    -2.8940  -2.8940  -0.6337  -0.1966  -0.1966  -0.1849  -0.1398  -0.1398
     0.8140   7.3854  11.6817  12.3224  12.3224

          k = 0.0000 0.0000 0.1963 (  3948 PWs)   bands (ev):

   -48.1954 -20.1204 -20.0959 -20.0959 -19.6701 -19.1063 -19.0091  -3.4494
    -2.8158  -2.8158  -0.9428  -0.3008  -0.3008  -0.2342  -0.1417  -0.1417
     1.9277   7.7710  10.7421  12.2527  13.4118

          k = 0.0000 0.0000 0.2944 (  3976 PWs)   bands (ev):

   -48.1954 -20.1335 -20.0959 -20.0959 -19.5639 -19.2031 -19.0075  -3.7374
    -2.7307  -2.7307  -1.1128  -0.4149  -0.4149  -0.2828  -0.1405  -0.1405
     2.9881   7.9904  10.3196  12.1790  12.3620

          k = 0.0000 0.0000-0.3926 (  3980 PWs)   bands (ev):

   -48.1954 -20.1382 -20.0958 -20.0958 -19.4979 -19.2657 -19.0068  -3.8434
    -2.6929  -2.6929  -1.1695  -0.4649  -0.4649  -0.3027  -0.1399  -0.1399
     3.4791   7.8923  10.6066  11.5630  12.1473

          k = 0.0000 0.0981 0.0981 (  3950 PWs)   bands (ev):

   -48.1954 -20.1081 -20.0984 -20.0961 -19.7237 -19.0469 -19.0235  -3.4131
    -2.8632  -2.6809  -0.7946  -0.2687  -0.2079  -0.1784  -0.1704  -0.0968
     1.2343   7.5395  11.4284  12.0271  12.2907

          k = 0.0000 0.0981 0.1963 (  3971 PWs)   bands (ev):

   -48.1954 -20.1199 -20.0992 -20.0960 -19.6463 -19.1089 -19.0274  -3.8200
    -2.7847  -2.4739  -1.0171  -0.3966  -0.3003  -0.1911  -0.1833  -0.0836
     2.1781   7.9079  10.6251  11.9519  12.2112

          k = 0.0000 0.0981 0.2944 (  3979 PWs)   bands (ev):

   -48.1954 -20.1305 -20.0987 -20.0959 -19.5449 -19.2016 -19.0267  -4.1160
    -2.6990  -2.3251  -1.1667  -0.5312  -0.4135  -0.1882  -0.1826  -0.1062
     3.1774   8.0896  10.2231  11.8310  12.2544

          k = 0.0000 0.0981-0.3926 (  3994 PWs)   bands (ev):

   -48.1954 -20.1346 -20.0986 -20.0958 -19.4811 -19.2624 -19.0262  -4.2223
    -2.6610  -2.2663  -1.2193  -0.5896  -0.4633  -0.1857  -0.1820  -0.1200
     3.6564   7.9569  10.5310  11.2819  12.0407

          k = 0.0000 0.1963 0.1963 (  3974 PWs)   bands (ev):

   -48.1953 -20.1199 -20.1044 -20.0958 -19.5806 -19.1305 -19.0649  -4.3068
    -2.7049  -2.0430  -1.1688  -0.4831  -0.3116  -0.2757  -0.2725   0.0447
     2.8657   8.2431  10.1179  11.5952  12.5280

          k = 0.0000 0.1963 0.2944 (  3975 PWs)   bands (ev):

   -48.1953 -20.1234 -20.1056 -20.0957 -19.4910 -19.1997 -19.0794  -4.6408
    -2.6177  -1.7342  -1.2953  -0.6046  -0.4099  -0.3046  -0.2887   0.0980
     3.7241   8.3606   9.7336  11.1399  12.2222

          k = 0.0000 0.1963-0.3926 (  3984 PWs)   bands (ev):

   -48.1953 -20.1259 -20.1050 -20.0956 -19.4320 -19.2545 -19.0813  -4.7578
    -2.5789  -1.6121  -1.3428  -0.6740  -0.4591  -0.3079  -0.2882   0.1089
     4.1730   8.1332   9.9731  10.6806  12.1866

          k = 0.0000 0.2944 0.2944 (  3986 PWs)   bands (ev):

   -48.1953 -20.1178 -20.1112 -20.0955 -19.4132 -19.2111 -19.1427  -5.0002
    -2.5284  -1.4145  -1.2838  -0.6464  -0.4329  -0.4125  -0.3967   0.2294
     4.4740   8.6560   8.9731  10.4627  11.8932

          k = 0.0000 0.2944-0.3926 (  3976 PWs)   bands (ev):

   -48.1952 -20.1173 -20.1114 -20.0954 -19.3559 -19.2467 -19.1630  -5.1255
    -2.4886  -1.4608  -1.0852  -0.6971  -0.4843  -0.4551  -0.4029   0.2725
     4.9036   8.3598   9.0242  10.1232  11.8465

          k = 0.0000-0.3926-0.3926 (  4012 PWs)   bands (ev):

   -48.1953 -20.1143 -20.1143 -20.0955 -19.2777 -19.2436 -19.2436  -5.2539
    -2.4483  -1.5074  -0.7524  -0.7003  -0.7003  -0.4534  -0.4534   0.3314
     5.3428   8.4844   8.4844   9.8808  11.7983

          k = 0.0981 0.0981 0.0981 (  3935 PWs)   bands (ev):

   -48.1953 -20.1105 -20.0981 -20.0981 -19.6967 -19.0464 -19.0464  -3.6981
    -2.6500  -2.6500  -0.8867  -0.3502  -0.3502  -0.0972  -0.0972  -0.0934
     1.5646   7.6876  11.4572  11.4572  12.3410

          k = 0.0981 0.0981 0.1963 (  3971 PWs)   bands (ev):

   -48.1954 -20.1193 -20.0998 -20.0975 -19.6237 -19.1109 -19.0454  -4.1147
    -2.5702  -2.3766  -1.0615  -0.5344  -0.3789  -0.1367  -0.0941  -0.0566
     2.4007   8.0398  10.5720  11.5087  12.2189

          k = 0.0981 0.0981 0.2944 (  3984 PWs)   bands (ev):

   -48.1953 -20.1278 -20.1000 -20.0969 -19.5269 -19.2007 -19.0443  -4.4152
    -2.4813  -2.1804  -1.1977  -0.6916  -0.3710  -0.2461  -0.0921  -0.0542
     3.3506   8.1820  10.1673  11.5341  11.7518

          k = 0.0981 0.0981-0.3926 (  3974 PWs)   bands (ev):

   -48.1953 -20.1311 -20.0997 -20.0965 -19.4652 -19.2598 -19.0439  -4.5224
    -2.4410  -2.1053  -1.2476  -0.7556  -0.3477  -0.3187  -0.0913  -0.0577
     3.8202   8.0131  10.5229  11.0708  12.3442

          k = 0.0981 0.1963 0.1963 (  3967 PWs)   bands (ev):

   -48.1953 -20.1190 -20.1035 -20.0974 -19.5614 -19.1307 -19.0822  -4.5684
    -2.4237  -2.0144  -1.1791  -0.6510  -0.5371  -0.1096  -0.0923   0.0488
     3.0372   8.3612  10.1325  11.1006  11.9219

          k = 0.0981 0.1963 0.2944 (  3978 PWs)   bands (ev):

   -48.1953 -20.1214 -20.1049 -20.0969 -19.4758 -19.1999 -19.0931  -4.8927
    -2.3253  -1.7020  -1.2948  -0.8036  -0.5565  -0.1884  -0.0920   0.1047
     3.8637   8.4337   9.7439  10.9290  11.4163

          k = 0.0981 0.1963-0.3926 (  3974 PWs)   bands (ev):

   -48.1953 -20.1231 -20.1046 -20.0966 -19.4189 -19.2535 -19.0943  -5.0074
    -2.2823  -1.5786  -1.3405  -0.8787  -0.5382  -0.2478  -0.0903   0.1183
     4.3070   8.1643  10.0186  10.5761  11.2485

          k = 0.0981 0.2944 0.2944 (  3959 PWs)   bands (ev):

   -48.1952 -20.1159 -20.1094 -20.0962 -19.4022 -19.2119 -19.1515  -5.2360
    -2.2233  -1.4035  -1.2835  -0.8552  -0.6868  -0.1820  -0.1559   0.2313
     4.5894   8.7059   8.9549  10.3788  11.3101

          k = 0.0981 0.2944-0.3926 (  3978 PWs)   bands (ev):

   -48.1952 -20.1153 -20.1100 -20.0962 -19.3477 -19.2473 -19.1694  -5.3574
    -2.1797  -1.4484  -1.1083  -0.9152  -0.6950  -0.2272  -0.1629   0.2741
     5.0156   8.3524   9.0153  10.0949  11.2970

          k = 0.0981-0.3926-0.3926 (  3992 PWs)   bands (ev):

   -48.1952 -20.1123 -20.1123 -20.0961 -19.2739 -19.2447 -19.2447  -5.4813
    -2.1362  -1.4932  -0.9206  -0.9206  -0.7515  -0.2218  -0.2218   0.3324
     5.4535   8.4510   8.4510   9.8880  11.3161

          k = 0.1963 0.1963 0.1963 (  3977 PWs)   bands (ev):

   -48.1953 -20.1170 -20.1015 -20.1015 -19.5078 -19.1311 -19.1311  -5.0095
    -1.9366  -1.9366  -1.2304  -0.7887  -0.7887   0.0188   0.0188   0.0811
     3.5577   8.6563  10.1562  10.1562  11.5227

          k = 0.1963 0.1963 0.2944 (  3975 PWs)   bands (ev):

   -48.1952 -20.1163 -20.1042 -20.0992 -19.4330 -19.2013 -19.1315  -5.3350
    -1.8383  -1.5683  -1.3135  -0.9982  -0.7914   0.0103   0.0373   0.1439
     4.2965   8.6274   9.6781  10.1627  10.9041

          k = 0.1963 0.1963-0.3926 (  3960 PWs)   bands (ev):

   -48.1952 -20.1165 -20.1046 -20.0981 -19.3814 -19.2510 -19.1316  -5.4511
    -1.7864  -1.4375  -1.3543  -1.0880  -0.7566  -0.0281   0.0402   0.1667
     4.7220   8.2419  10.0951  10.1602  10.3054

          k = 0.1963 0.2944 0.2944 (  3972 PWs)   bands (ev):

   -48.1952 -20.1116 -20.1057 -20.0989 -19.3714 -19.2140 -19.1772  -5.6676
    -1.6294  -1.3791  -1.2888  -1.0864  -0.9007   0.0636   0.0686   0.2375
     4.9546   8.8371   8.9007   9.9411  10.4691

          k = 0.1963 0.2944-0.3926 (  3974 PWs)   bands (ev):

   -48.1952 -20.1101 -20.1064 -20.0983 -19.3245 -19.2486 -19.1881  -5.7869
    -1.5647  -1.4190  -1.1917  -1.1671  -0.8341   0.0497   0.0741   0.2790
     5.3696   8.3241   8.9779  10.0237  10.1946

          k = 0.1963-0.3926-0.3926 (  3968 PWs)   bands (ev):

   -48.1952 -20.1074 -20.1074 -20.0979 -19.2648 -19.2476 -19.2476  -5.9076
    -1.5017  -1.4587  -1.1764  -1.1764  -0.7491   0.0625   0.0625   0.3350
     5.8032   8.3601   8.3601   9.9065  10.2185

          k = 0.2944 0.2944 0.2944 (  3987 PWs)   bands (ev):

   -48.1952 -20.1073 -20.1018 -20.1018 -19.3271 -19.2162 -19.2162  -5.9999
    -1.3778  -1.3091  -1.3091  -1.0245  -1.0245   0.2006   0.2006   0.2618
     5.5468   8.8323   8.8323   9.0905  10.0981

          k = 0.2944 0.2944-0.3926 (  3982 PWs)   bands (ev):

   -48.1952 -20.1050 -20.1036 -20.1000 -19.2910 -19.2500 -19.2170  -6.1201
    -1.4017  -1.3242  -1.3063  -1.0593  -0.8422   0.2210   0.2328   0.2969
     5.9598   8.2796   8.8001   9.1336   9.9538

          k = 0.2944-0.3926-0.3926 (  3960 PWs)   bands (ev):

   -48.1951 -20.1027 -20.1027 -20.1000 -19.2556 -19.2505 -19.2505  -6.2408
    -1.4238  -1.3488  -1.3488  -0.9559  -0.7467   0.2651   0.2651   0.3376
     6.4077   8.2560   8.2560   8.9818   9.9268

          k =-0.3926-0.3926-0.3926 (  3912 PWs)   bands (ev):

   -48.1950 -20.1004 -20.1004 -20.1004 -19.2517 -19.2517 -19.2517  -6.3620
    -1.4092  -1.4092  -1.4092  -0.7456  -0.7456   0.3388   0.3388   0.3388
     6.9393   8.2094   8.2094   8.2094   9.9361

     the Fermi energy is     7.0804 ev

!    total energy              =    -451.74717415 Ry
     total all-electron energy =     -5122.486153 Ry
     estimated scf accuracy    <          3.3E-16 Ry
     smearing contrib. (-TS)   =      -0.00000776 Ry
     internal energy E=F+TS    =    -451.74716640 Ry

     The total energy is F=E-TS. E is the sum of the following terms:
     one-electron contribution =    -144.20752921 Ry
     hartree contribution      =      91.41041786 Ry
     xc contribution           =     -50.26121360 Ry
     ewald contribution        =    -147.23349180 Ry
     one-center paw contrib.   =    -201.45534964 Ry

     convergence has been achieved in  19 iterations

     Forces acting on atoms (cartesian axes, Ry/au):

     atom    1 type  1   force =     0.00000000    0.00000000    0.00000000
     atom    2 type  2   force =     0.00000000    0.00000000    0.00000000
     atom    3 type  3   force =     0.00000000    0.00000000    0.00000000
     atom    4 type  3   force =     0.00000000    0.00000000    0.00000000
     atom    5 type  3   force =     0.00000000    0.00000000    0.00000000

     Total force =     0.000000     Total SCF correction =     0.000000


     Computing stress (Cartesian axis) and pressure

          total   stress  (Ry/bohr**3)                   (kbar)     P=      124.27
   0.00084479   0.00000000   0.00000000          124.27        0.00        0.00
   0.00000000   0.00084479   0.00000000            0.00      124.27        0.00
   0.00000000   0.00000000   0.00084479            0.00        0.00      124.27

     Energy error            =      9.1E-02 Ry
     Gradient error          =      0.0E+00 Ry/Bohr
     Cell gradient error     =      1.2E+02 kbar

     number of scf cycles    =   4
     number of bfgs steps    =   3

     enthalpy           old  =    -451.6564160218 Ry
     enthalpy           new  =    -451.7471741547 Ry

     CASE: enthalpy          _new < enthalpy          _old

     new trust radius        =       0.1510328152 bohr
     new conv_thr            =            1.0E-14 Ry

     new unit-cell volume =    537.71160 a.u.^3 (    79.68064 Ang^3 )
     density =      3.18049 g/cm^3

CELL_PARAMETERS (angstrom)
   4.303128026   0.000000000   0.000000000
   0.000000000   4.303128026   0.000000000
   0.000000000   0.000000000   4.303128026

ATOMIC_POSITIONS (crystal)
Na               0.0000000000        0.0000000000        0.0000000000
Ge               0.5000000000        0.5000000000        0.5000000000
F                0.5000000000        0.5000000000        0.0000000000
F                0.5000000000        0.0000000000        0.5000000000
F                0.0000000000        0.5000000000        0.5000000000



     Writing config-only to output data dir ./tmp/NaGeF3.save/ :
     XML data file
     NEW-OLD atomic charge density approx. for the potential

     total cpu time spent up to now is      171.5 secs

     Self-consistent Calculation

     iteration #  1     ecut=   100.00 Ry     beta= 0.30
     Davidson diagonalization with overlap
     ethr =  1.00E-06,  avg # of iterations =  8.6

     total cpu time spent up to now is      176.6 secs

     total energy              =    -451.77578982 Ry
     estimated scf accuracy    <       0.00366213 Ry

     iteration #  2     ecut=   100.00 Ry     beta= 0.30
     Davidson diagonalization with overlap
     ethr =  1.08E-05,  avg # of iterations =  2.0

     total cpu time spent up to now is      179.1 secs

     total energy              =    -451.77506939 Ry
     estimated scf accuracy    <       0.00034894 Ry

     iteration #  3     ecut=   100.00 Ry     beta= 0.30
     Davidson diagonalization with overlap
     ethr =  1.03E-06,  avg # of iterations =  3.0

     total cpu time spent up to now is      181.3 secs

     total energy              =    -451.77418083 Ry
     estimated scf accuracy    <       0.00014085 Ry

     iteration #  4     ecut=   100.00 Ry     beta= 0.30
     Davidson diagonalization with overlap
     ethr =  4.14E-07,  avg # of iterations =  3.6

     total cpu time spent up to now is      184.0 secs

     total energy              =    -451.77416501 Ry
     estimated scf accuracy    <       0.00001254 Ry

     iteration #  5     ecut=   100.00 Ry     beta= 0.30
     Davidson diagonalization with overlap
     ethr =  3.69E-08,  avg # of iterations =  5.1

     total cpu time spent up to now is      186.7 secs

     total energy              =    -451.77417129 Ry
     estimated scf accuracy    <       0.00000164 Ry

     iteration #  6     ecut=   100.00 Ry     beta= 0.30
     Davidson diagonalization with overlap
     ethr =  4.84E-09,  avg # of iterations =  3.8

     total cpu time spent up to now is      189.0 secs

     total energy              =    -451.77417197 Ry
     estimated scf accuracy    <       0.00000026 Ry

     iteration #  7     ecut=   100.00 Ry     beta= 0.30
     Davidson diagonalization with overlap
     ethr =  7.61E-10,  avg # of iterations =  4.0

     total cpu time spent up to now is      191.5 secs

     total energy              =    -451.77417197 Ry
     estimated scf accuracy    <       0.00000039 Ry

     iteration #  8     ecut=   100.00 Ry     beta= 0.30
     Davidson diagonalization with overlap
     ethr =  7.61E-10,  avg # of iterations =  3.5

     total cpu time spent up to now is      193.9 secs

     total energy              =    -451.77417202 Ry
     estimated scf accuracy    <       0.00000001 Ry

     iteration #  9     ecut=   100.00 Ry     beta= 0.30
     Davidson diagonalization with overlap
     ethr =  3.65E-11,  avg # of iterations =  2.3

     total cpu time spent up to now is      196.1 secs

     total energy              =    -451.77417203 Ry
     estimated scf accuracy    <          2.5E-09 Ry

     iteration # 10     ecut=   100.00 Ry     beta= 0.30
     Davidson diagonalization with overlap
     ethr =  7.45E-12,  avg # of iterations =  3.9

     total cpu time spent up to now is      198.4 secs

     total energy              =    -451.77417203 Ry
     estimated scf accuracy    <          8.1E-10 Ry

     iteration # 11     ecut=   100.00 Ry     beta= 0.30
     Davidson diagonalization with overlap
     ethr =  2.40E-12,  avg # of iterations =  3.1

     total cpu time spent up to now is      200.4 secs

     total energy              =    -451.77417203 Ry
     estimated scf accuracy    <          5.8E-11 Ry

     iteration # 12     ecut=   100.00 Ry     beta= 0.30
     Davidson diagonalization with overlap
     ethr =  1.71E-13,  avg # of iterations =  3.5

     total cpu time spent up to now is      202.6 secs

     total energy              =    -451.77417203 Ry
     estimated scf accuracy    <          3.3E-13 Ry

     iteration # 13     ecut=   100.00 Ry     beta= 0.30
     Davidson diagonalization with overlap
     ethr =  1.00E-13,  avg # of iterations =  1.0

     total cpu time spent up to now is      204.3 secs

     total energy              =    -451.77417203 Ry
     estimated scf accuracy    <          2.4E-13 Ry

     iteration # 14     ecut=   100.00 Ry     beta= 0.30
     Davidson diagonalization with overlap
     ethr =  1.00E-13,  avg # of iterations =  1.0

     total cpu time spent up to now is      205.9 secs

     total energy              =    -451.77417203 Ry
     estimated scf accuracy    <          1.1E-13 Ry

     iteration # 15     ecut=   100.00 Ry     beta= 0.30
     Davidson diagonalization with overlap
     ethr =  1.00E-13,  avg # of iterations =  1.0

     total cpu time spent up to now is      207.8 secs

     End of self-consistent calculation

          k = 0.0000 0.0000 0.0000 (  3911 PWs)   bands (ev):

   -49.1385 -21.0390 -21.0390 -21.0390 -20.1400 -19.5496 -19.5496  -3.2402
    -3.2402  -3.2402  -1.4771  -0.7426  -0.7426  -0.7426  -0.7302  -0.7302
    -0.7302   6.1963  10.6368  10.6368  10.6368

          k = 0.0000 0.0000 0.0949 (  3939 PWs)   bands (ev):

   -49.1386 -21.0414 -21.0391 -21.0391 -20.1191 -19.5687 -19.5492  -3.5214
    -3.2139  -3.2139  -1.4735  -0.7734  -0.7734  -0.7596  -0.7341  -0.7341
    -0.3056   6.3362  10.1302  10.6109  10.6109

          k = 0.0000 0.0000 0.1898 (  3948 PWs)   bands (ev):

   -49.1386 -21.0464 -21.0390 -21.0390 -20.0615 -19.6219 -19.5481  -3.9946
    -3.1469  -3.1469  -1.5275  -0.8617  -0.8617  -0.7996  -0.7328  -0.7328
     0.6364   6.6558   9.3109  10.5467  10.5467

          k = 0.0000 0.0000 0.2847 (  3976 PWs)   bands (ev):

   -49.1386 -21.0512 -21.0390 -21.0390 -19.9844 -19.6948 -19.5470  -4.3385
    -3.0745  -3.0745  -1.5942  -0.9562  -0.9562  -0.8393  -0.7310  -0.7310
     1.5907   6.7652   9.0226  10.4797  10.8450

          k = 0.0000 0.0000-0.3796 (  3980 PWs)   bands (ev):

   -49.1386 -21.0532 -21.0390 -21.0390 -19.9371 -19.7404 -19.5465  -4.4598
    -3.0425  -3.0425  -1.6222  -0.9973  -0.9973  -0.8555  -0.7302  -0.7302
     2.0305   6.6286   9.4626   9.9636  10.4513

          k = 0.0000 0.0949 0.0949 (  3950 PWs)   bands (ev):

   -49.1386 -21.0422 -21.0402 -21.0391 -20.0989 -19.5768 -19.5589  -3.8650
    -3.1875  -3.0252  -1.4962  -0.8359  -0.7794  -0.7642  -0.7624  -0.6916
     0.0250   6.4707   9.8882  10.3981  10.5821

          k = 0.0000 0.0949 0.1898 (  3971 PWs)   bands (ev):

   -49.1386 -21.0463 -21.0404 -21.0391 -20.0434 -19.6242 -19.5619  -4.3263
    -3.1203  -2.8511  -1.5629  -0.9456  -0.8608  -0.7755  -0.7675  -0.6769
     0.8553   6.7758   9.1690  10.3021  10.5107

          k = 0.0000 0.0949 0.2847 (  3979 PWs)   bands (ev):

   -49.1386 -21.0505 -21.0402 -21.0390 -19.9686 -19.6943 -19.5614  -4.6524
    -3.0475  -2.7326  -1.6323  -1.0569  -0.9548  -0.7729  -0.7656  -0.6924
     1.7597   6.8497   8.8825  10.1790  10.8311

          k = 0.0000 0.0949-0.3796 (  3994 PWs)   bands (ev):

   -49.1386 -21.0523 -21.0402 -21.0390 -19.9222 -19.7389 -19.5610  -4.7676
    -3.0154  -2.6864  -1.6609  -1.1043  -0.9958  -0.7710  -0.7647  -0.7023
     2.1890   6.6826   9.2653   9.7502  10.4721

          k = 0.0000 0.1898 0.1898 (  3974 PWs)   bands (ev):

   -49.1386 -21.0464 -21.0429 -21.0390 -19.9931 -19.6414 -19.5899  -4.8001
    -3.0524  -2.4596  -1.6466  -1.0248  -0.8666  -0.8486  -0.8466  -0.5667
     1.4742   7.0593   8.6476   9.9751  10.4235

          k = 0.0000 0.1898 0.2847 (  3975 PWs)   bands (ev):

   -49.1386 -21.0486 -21.0432 -21.0389 -19.9243 -19.6942 -19.6010  -5.1298
    -2.9786  -2.1926  -1.7263  -1.1261  -0.9512  -0.8775  -0.8527  -0.5192
     2.2528   7.0784   8.3232   9.6100  10.9103

          k = 0.0000 0.1898-0.3796 (  3984 PWs)   bands (ev):

   -49.1386 -21.0500 -21.0429 -21.0389 -19.8797 -19.7352 -19.6025  -5.2455
    -2.9461  -2.0922  -1.7581  -1.1812  -0.9918  -0.8805  -0.8518  -0.5087
     2.6535   6.8275   8.5362   9.2736  10.8032

          k = 0.0000 0.2847 0.2847 (  3986 PWs)   bands (ev):

   -49.1386 -21.0473 -21.0457 -21.0388 -19.8616 -19.7044 -19.6487  -5.4661
    -2.9037  -1.8170  -1.7808  -1.1639  -0.9929  -0.9517  -0.9421  -0.4070
     2.9281   7.3133   7.5559   9.0758  10.2380

          k = 0.0000 0.2847-0.3796 (  3976 PWs)   bands (ev):

   -49.1385 -21.0477 -21.0457 -21.0388 -19.8162 -19.7316 -19.6650  -5.5842
    -2.8706  -1.8528  -1.6061  -1.2046  -1.0391  -0.9878  -0.9452  -0.3699
     3.3055   7.0050   7.5895   8.8230  10.1982

          k = 0.0000-0.3796-0.3796 (  4012 PWs)   bands (ev):

   -49.1386 -21.0470 -21.0470 -21.0389 -19.7507 -19.7301 -19.7301  -5.7033
    -2.8371  -1.8906  -1.3278  -1.2085  -1.2085  -0.9862  -0.9862  -0.3199
     3.6843   7.0956   7.0956   8.6324  10.1570

          k = 0.0949 0.0949 0.0949 (  3935 PWs)   bands (ev):

   -49.1385 -21.0426 -21.0401 -21.0401 -20.0796 -19.5764 -19.5764  -4.1564
    -2.9985  -2.9985  -1.5196  -0.9040  -0.9040  -0.6965  -0.6965  -0.6821
     0.3009   6.6001   9.8974   9.8974  10.6253

          k = 0.0949 0.0949 0.1898 (  3971 PWs)   bands (ev):

   -49.1386 -21.0461 -21.0407 -21.0398 -20.0260 -19.6257 -19.5756  -4.5962
    -2.9303  -2.7648  -1.5857  -1.0593  -0.9311  -0.7304  -0.6908  -0.6513
     1.0511   6.8917   9.1009   9.9080  10.5145

          k = 0.0949 0.0949 0.2847 (  3984 PWs)   bands (ev):

   -49.1386 -21.0498 -21.0407 -21.0396 -19.9537 -19.6939 -19.5746  -4.9116
    -2.8549  -2.6072  -1.6549  -1.1910  -0.9256  -0.8198  -0.6885  -0.6471
     1.9152   6.9279   8.8055   9.9025  10.1721

          k = 0.0949 0.0949-0.3796 (  3974 PWs)   bands (ev):

   -49.1386 -21.0513 -21.0405 -21.0394 -19.9082 -19.7376 -19.5743  -5.0234
    -2.8211  -2.5484  -1.6832  -1.2443  -0.9094  -0.8751  -0.6876  -0.6492
     2.3364   6.7290   9.2128   9.5850   9.8958

          k = 0.0949 0.1898 0.1898 (  3967 PWs)   bands (ev):

   -49.1386 -21.0462 -21.0425 -21.0398 -19.9778 -19.6412 -19.6032  -5.0315
    -2.8052  -2.4348  -1.6523  -1.1629  -1.0662  -0.7046  -0.6876  -0.5625
     1.6278   7.1641   8.6522   9.5359  10.2845

          k = 0.0949 0.1898 0.2847 (  3978 PWs)   bands (ev):

   -49.1386 -21.0481 -21.0429 -21.0396 -19.9118 -19.6941 -19.6114  -5.3469
    -2.7225  -2.1633  -1.7256  -1.2910  -1.0875  -0.7681  -0.6874  -0.5132
     2.3806   7.1382   8.3308   9.3983   9.8795

          k = 0.0949 0.1898-0.3796 (  3974 PWs)   bands (ev):

   -49.1385 -21.0492 -21.0427 -21.0395 -19.8684 -19.7346 -19.6122  -5.4588
    -2.6868  -2.0607  -1.7562  -1.3524  -1.0755  -0.8146  -0.6858  -0.5007
     2.7766   6.8512   8.5628   9.1936   9.6847

          k = 0.0949 0.2847 0.2847 (  3959 PWs)   bands (ev):

   -49.1385 -21.0467 -21.0450 -21.0392 -19.8525 -19.7044 -19.6554  -5.6667
    -2.6374  -1.8077  -1.7756  -1.3384  -1.2069  -0.7613  -0.7400  -0.4053
     3.0367   7.3514   7.5377   9.0061   9.7337

          k = 0.0949 0.2847-0.3796 (  3978 PWs)   bands (ev):

   -49.1385 -21.0471 -21.0452 -21.0392 -19.8093 -19.7315 -19.6696  -5.7805
    -2.6014  -1.8424  -1.6153  -1.3871  -1.2238  -0.7966  -0.7455  -0.3686
     3.4113   6.9955   7.5777   8.8108   9.7007

          k = 0.0949-0.3796-0.3796 (  3992 PWs)   bands (ev):

   -49.1386 -21.0462 -21.0462 -21.0392 -19.7478 -19.7302 -19.7302  -5.8951
    -2.5654  -1.8788  -1.3929  -1.3929  -1.3271  -0.7919  -0.7919  -0.3190
     3.7889   7.0658   7.0658   8.6503   9.7037

          k = 0.1898 0.1898 0.1898 (  3977 PWs)   bands (ev):

   -49.1386 -21.0459 -21.0418 -21.0418 -19.9355 -19.6408 -19.6408  -5.4372
    -2.3679  -2.3679  -1.6838  -1.2806  -1.2806  -0.5929  -0.5929  -0.5330
     2.1039   7.4194   8.6549   8.6549   9.9461

          k = 0.1898 0.1898 0.2847 (  3975 PWs)   bands (ev):

   -49.1385 -21.0466 -21.0427 -21.0409 -19.8767 -19.6948 -19.6404  -5.7423
    -2.2860  -2.0392  -1.7391  -1.4566  -1.2929  -0.5981  -0.5754  -0.4793
     2.7794   7.2920   8.2755   8.6456   9.4352

          k = 0.1898 0.1898-0.3796 (  3960 PWs)   bands (ev):

   -49.1385 -21.0472 -21.0427 -21.0405 -19.8367 -19.7329 -19.6402  -5.8517
    -2.2444  -1.9233  -1.7670  -1.5301  -1.2711  -0.6279  -0.5725  -0.4595
     3.1586   6.9082   8.6037   8.6382   8.9906

          k = 0.1898 0.2847 0.2847 (  3972 PWs)   bands (ev):

   -49.1385 -21.0453 -21.0437 -21.0408 -19.8272 -19.7046 -19.6748  -6.0457
    -2.1040  -1.7877  -1.7621  -1.5366  -1.4084  -0.5511  -0.5466  -0.4000
     3.3802   7.4467   7.4862   8.5169   9.0555

          k = 0.1898 0.2847-0.3796 (  3974 PWs)   bands (ev):

   -49.1385 -21.0453 -21.0439 -21.0406 -19.7900 -19.7313 -19.6831  -6.1552
    -2.0523  -1.8180  -1.6549  -1.6009  -1.3751  -0.5609  -0.5416  -0.3644
     3.7452   6.9642   7.5386   8.6537   8.7837

          k = 0.1898-0.3796-0.3796 (  3968 PWs)   bands (ev):

   -49.1385 -21.0445 -21.0445 -21.0404 -19.7409 -19.7306 -19.7306  -6.2651
    -2.0008  -1.8500  -1.6104  -1.6104  -1.3251  -0.5497  -0.5497  -0.3169
     4.1181   6.9868   6.9868   8.6636   8.6993

          k = 0.2847 0.2847 0.2847 (  3987 PWs)   bands (ev):

   -49.1385 -21.0441 -21.0424 -21.0424 -19.7914 -19.7047 -19.7047  -6.3432
    -1.7852  -1.7452  -1.7452  -1.5485  -1.5485  -0.4330  -0.4330  -0.3792
     3.9268   7.4248   7.4248   7.6245   8.8409

          k = 0.2847 0.2847-0.3796 (  3982 PWs)   bands (ev):

   -49.1385 -21.0436 -21.0430 -21.0417 -19.7626 -19.7311 -19.7048  -6.4515
    -1.8034  -1.7348  -1.7267  -1.6016  -1.4044  -0.4151  -0.4045  -0.3493
     4.2878   6.9203   7.3966   7.6288   8.7639

          k = 0.2847-0.3796-0.3796 (  3960 PWs)   bands (ev):

   -49.1384 -21.0428 -21.0428 -21.0416 -19.7340 -19.7310 -19.7310  -6.5597
    -1.8208  -1.7572  -1.7572  -1.5107  -1.3232  -0.3767  -0.3767  -0.3148
     4.6682   6.8983   6.8983   7.5098   8.7591

          k =-0.3796-0.3796-0.3796 (  3912 PWs)   bands (ev):

   -49.1383 -21.0419 -21.0419 -21.0419 -19.7311 -19.7311 -19.7311  -6.6676
    -1.8087  -1.8087  -1.8087  -1.3222  -1.3222  -0.3137  -0.3137  -0.3137
     5.0898   6.8591   6.8591   6.8591   8.7889

     the Fermi energy is     5.6506 ev

!    total energy              =    -451.77417203 Ry
     total all-electron energy =     -5122.513151 Ry
     estimated scf accuracy    <          6.1E-15 Ry
     smearing contrib. (-TS)   =      -0.00000000 Ry
     internal energy E=F+TS    =    -451.77417203 Ry

     The total energy is F=E-TS. E is the sum of the following terms:
     one-electron contribution =    -152.47740999 Ry
     hartree contribution      =      94.61183187 Ry
     xc contribution           =     -50.11249681 Ry
     ewald contribution        =    -142.35723275 Ry
     one-center paw contrib.   =    -201.43886434 Ry

     convergence has been achieved in  15 iterations

     Forces acting on atoms (cartesian axes, Ry/au):

     atom    1 type  1   force =     0.00000000    0.00000000    0.00000000
     atom    2 type  2   force =     0.00000000    0.00000000    0.00000000
     atom    3 type  3   force =     0.00000000    0.00000000    0.00000000
     atom    4 type  3   force =     0.00000000    0.00000000    0.00000000
     atom    5 type  3   force =     0.00000000    0.00000000    0.00000000

     Total force =     0.000000     Total SCF correction =     0.000000


     Computing stress (Cartesian axis) and pressure

          total   stress  (Ry/bohr**3)                   (kbar)     P=       37.19
   0.00025279   0.00000000   0.00000000           37.19        0.00        0.00
   0.00000000   0.00025279   0.00000000            0.00       37.19        0.00
   0.00000000   0.00000000   0.00025279            0.00        0.00       37.19

     Energy error            =      2.7E-02 Ry
     Gradient error          =      0.0E+00 Ry/Bohr
     Cell gradient error     =      3.7E+01 kbar

     number of scf cycles    =   5
     number of bfgs steps    =   4

     enthalpy           old  =    -451.7471741547 Ry
     enthalpy           new  =    -451.7741720314 Ry

     CASE: enthalpy          _new < enthalpy          _old

     new trust radius        =       0.0723075112 bohr
     new conv_thr            =            1.0E-14 Ry

     new unit-cell volume =    563.25642 a.u.^3 (    83.46599 Ang^3 )
     density =      3.03624 g/cm^3

CELL_PARAMETERS (angstrom)
   4.370218828   0.000000000   0.000000000
   0.000000000   4.370218828   0.000000000
   0.000000000   0.000000000   4.370218828

ATOMIC_POSITIONS (crystal)
Na               0.0000000000        0.0000000000        0.0000000000
Ge               0.5000000000        0.5000000000        0.5000000000
F                0.5000000000        0.5000000000        0.0000000000
F                0.5000000000        0.0000000000        0.5000000000
F                0.0000000000        0.5000000000        0.5000000000



     Writing config-only to output data dir ./tmp/NaGeF3.save/ :
     XML data file
     NEW-OLD atomic charge density approx. for the potential

     total cpu time spent up to now is      210.1 secs

     Self-consistent Calculation

     iteration #  1     ecut=   100.00 Ry     beta= 0.30
     Davidson diagonalization with overlap
     ethr =  1.00E-06,  avg # of iterations =  7.0

     total cpu time spent up to now is      214.2 secs

     total energy              =    -451.77832771 Ry
     estimated scf accuracy    <       0.00094482 Ry

     iteration #  2     ecut=   100.00 Ry     beta= 0.30
     Davidson diagonalization with overlap
     ethr =  2.78E-06,  avg # of iterations =  2.0

     total cpu time spent up to now is      216.2 secs

     total energy              =    -451.77822265 Ry
     estimated scf accuracy    <       0.00008051 Ry

     iteration #  3     ecut=   100.00 Ry     beta= 0.30
     Davidson diagonalization with overlap
     ethr =  2.37E-07,  avg # of iterations =  2.4

     total cpu time spent up to now is      218.1 secs

     total energy              =    -451.77803862 Ry
     estimated scf accuracy    <       0.00003207 Ry

     iteration #  4     ecut=   100.00 Ry     beta= 0.30
     Davidson diagonalization with overlap
     ethr =  9.43E-08,  avg # of iterations =  4.2

     total cpu time spent up to now is      220.3 secs

     total energy              =    -451.77803787 Ry
     estimated scf accuracy    <       0.00000253 Ry

     iteration #  5     ecut=   100.00 Ry     beta= 0.30
     Davidson diagonalization with overlap
     ethr =  7.44E-09,  avg # of iterations =  4.2

     total cpu time spent up to now is      222.6 secs

     total energy              =    -451.77803889 Ry
     estimated scf accuracy    <       0.00000037 Ry

     iteration #  6     ecut=   100.00 Ry     beta= 0.30
     Davidson diagonalization with overlap
     ethr =  1.09E-09,  avg # of iterations =  2.3

     total cpu time spent up to now is      224.5 secs

     total energy              =    -451.77803893 Ry
     estimated scf accuracy    <       0.00000003 Ry

     iteration #  7     ecut=   100.00 Ry     beta= 0.30
     Davidson diagonalization with overlap
     ethr =  7.75E-11,  avg # of iterations =  4.8

     total cpu time spent up to now is      227.1 secs

     total energy              =    -451.77803895 Ry
     estimated scf accuracy    <       0.00000002 Ry

     iteration #  8     ecut=   100.00 Ry     beta= 0.30
     Davidson diagonalization with overlap
     ethr =  5.98E-11,  avg # of iterations =  2.3

     total cpu time spent up to now is      229.2 secs

     total energy              =    -451.77803896 Ry
     estimated scf accuracy    <          4.0E-10 Ry

     iteration #  9     ecut=   100.00 Ry     beta= 0.30
     Davidson diagonalization with overlap
     ethr =  1.19E-12,  avg # of iterations =  4.1

     total cpu time spent up to now is      231.5 secs

     total energy              =    -451.77803896 Ry
     estimated scf accuracy    <          2.9E-11 Ry

     iteration # 10     ecut=   100.00 Ry     beta= 0.30
     Davidson diagonalization with overlap
     ethr =  1.00E-13,  avg # of iterations =  2.4

     total cpu time spent up to now is      233.6 secs

     total energy              =    -451.77803896 Ry
     estimated scf accuracy    <          3.1E-11 Ry

     iteration # 11     ecut=   100.00 Ry     beta= 0.30
     Davidson diagonalization with overlap
     ethr =  1.00E-13,  avg # of iterations =  2.1

     total cpu time spent up to now is      235.5 secs

     total energy              =    -451.77803896 Ry
     estimated scf accuracy    <          2.7E-12 Ry

     iteration # 12     ecut=   100.00 Ry     beta= 0.30
     Davidson diagonalization with overlap
     ethr =  1.00E-13,  avg # of iterations =  1.0

     total cpu time spent up to now is      237.2 secs

     total energy              =    -451.77803896 Ry
     estimated scf accuracy    <          2.2E-13 Ry

     iteration # 13     ecut=   100.00 Ry     beta= 0.30
     Davidson diagonalization with overlap
     ethr =  1.00E-13,  avg # of iterations =  1.0

     total cpu time spent up to now is      238.9 secs

     End of self-consistent calculation

          k = 0.0000 0.0000 0.0000 (  3911 PWs)   bands (ev):

   -49.5484 -21.4492 -21.4492 -21.4492 -20.2937 -19.7740 -19.7740  -3.3707
    -3.3707  -3.3707  -2.0963  -0.9844  -0.9844  -0.9844  -0.9799  -0.9799
    -0.9799   5.7599   9.8936   9.8936   9.8936

          k = 0.0000 0.0000 0.0934 (  3939 PWs)   bands (ev):

   -49.5485 -21.4507 -21.4492 -21.4492 -20.2756 -19.7908 -19.7737  -3.7272
    -3.3462  -3.3462  -1.8806  -1.0150  -1.0150  -0.9998  -0.9810  -0.9810
    -0.6976   5.8906   9.4412   9.8686   9.8686

          k = 0.0000 0.0000 0.1869 (  3948 PWs)   bands (ev):

   -49.5485 -21.4539 -21.4491 -21.4491 -20.2255 -19.8374 -19.7727  -4.2508
    -3.2839  -3.2839  -1.7762  -1.0962  -1.0962  -1.0362  -0.9792  -0.9792
     0.1196   6.1799   8.6809   9.8069   9.8069

          k = 0.0000 0.0000 0.2803 (  3976 PWs)   bands (ev):

   -49.5485 -21.4572 -21.4491 -21.4491 -20.1584 -19.9012 -19.7718  -4.6104
    -3.2167  -3.2167  -1.7941  -1.1826  -1.1826  -1.0722  -0.9772  -0.9772
     1.0152   6.2393   8.4546   9.7429  10.2128

          k = 0.0000 0.0000-0.3738 (  3980 PWs)   bands (ev):

   -49.5485 -21.4585 -21.4491 -21.4491 -20.1174 -19.9408 -19.7714  -4.7351
    -3.1871  -3.1871  -1.8102  -1.2201  -1.2201  -1.0870  -0.9764  -0.9764
     1.4305   6.0871   8.9737   9.2838   9.7159

          k = 0.0000 0.0934 0.0934 (  3950 PWs)   bands (ev):

   -49.5485 -21.4511 -21.4500 -21.4492 -20.2581 -19.7979 -19.7822  -4.0832
    -3.3216  -3.1675  -1.8186  -1.0730  -1.0183  -1.0090  -1.0090  -0.9392
    -0.4318   6.0163   9.2079   9.6807   9.8411

          k = 0.0000 0.0934 0.1869 (  3971 PWs)   bands (ev):

   -49.5485 -21.4539 -21.4501 -21.4492 -20.2096 -19.8395 -19.7848  -4.5631
    -3.2591  -3.0070  -1.7944  -1.1751  -1.0952  -1.0194  -1.0109  -0.9244
     0.3201   6.2926   8.5310   9.5822   9.7732

          k = 0.0000 0.0934 0.2803 (  3979 PWs)   bands (ev):

   -49.5485 -21.4568 -21.4500 -21.4491 -20.1443 -19.9008 -19.7844  -4.8969
    -3.1916  -2.9002  -1.8259  -1.2767  -1.1812  -1.0169  -1.0088  -0.9373
     1.1737   6.3172   8.2976   9.4641   9.7037

          k = 0.0000 0.0934-0.3738 (  3994 PWs)   bands (ev):

   -49.5485 -21.4580 -21.4500 -21.4491 -20.1039 -19.9397 -19.7841  -5.0140
    -3.1620  -2.8587  -1.8445  -1.3197  -1.2186  -1.0151  -1.0079  -0.9457
     1.5797   6.1363   8.6987   9.0967   9.8183

          k = 0.0000 0.1869 0.1869 (  3974 PWs)   bands (ev):

   -49.5485 -21.4540 -21.4519 -21.4491 -20.1653 -19.8547 -19.8093  -5.0258
    -3.1961  -2.6321  -1.8472  -1.2512  -1.0987  -1.0886  -1.0847  -0.8218
     0.9005   6.5530   8.0090   9.2756   9.6918

          k = 0.0000 0.1869 0.2803 (  3975 PWs)   bands (ev):

   -49.5485 -21.4556 -21.4521 -21.4490 -20.1048 -19.9011 -19.8190  -5.3503
    -3.1280  -2.3826  -1.9062  -1.3438  -1.1777  -1.1160  -1.0883  -0.7769
     1.6396   6.5267   7.7132   8.9533   9.6105

          k = 0.0000 0.1869-0.3738 (  3984 PWs)   bands (ev):

   -49.5485 -21.4566 -21.4519 -21.4490 -20.0657 -19.9370 -19.8204  -5.4642
    -3.0980  -2.2909  -1.9314  -1.3930  -1.2147  -1.1190  -1.0872  -0.7667
     2.0186   6.2670   7.9097   8.6728  10.2179

          k = 0.0000 0.2803 0.2803 (  3986 PWs)   bands (ev):

   -49.5485 -21.4548 -21.4539 -21.4490 -20.0491 -19.9104 -19.8608  -5.6742
    -3.0590  -1.9875  -1.9852  -1.3799  -1.2254  -1.1773  -1.1700  -0.6726
     2.2795   6.7351   6.9470   8.4857   9.5196

          k = 0.0000 0.2803-0.3738 (  3976 PWs)   bands (ev):

   -49.5485 -21.4552 -21.4539 -21.4489 -20.0089 -19.9342 -19.8752  -5.7884
    -3.0285  -2.0169  -1.8232  -1.4163  -1.2691  -1.2109  -1.1721  -0.6381
     2.6342   6.4234   6.9741   8.2694   9.4826

          k = 0.0000-0.3738-0.3738 (  4012 PWs)   bands (ev):

   -49.5485 -21.4548 -21.4548 -21.4490 -19.9503 -19.9332 -19.9332  -5.9029
    -2.9979  -2.0511  -1.5663  -1.4204  -1.4204  -1.2093  -1.2093  -0.5917
     2.9876   6.5007   6.5007   8.1006   9.4445

          k = 0.0934 0.0934 0.0934 (  3935 PWs)   bands (ev):

   -49.5485 -21.4513 -21.4499 -21.4499 -20.2411 -19.7976 -19.7976  -4.3749
    -3.1427  -3.1427  -1.7999  -1.1356  -1.1356  -0.9461  -0.9461  -0.9281
    -0.1948   6.1376   9.2110   9.2110   9.8813

          k = 0.0934 0.0934 0.1869 (  3971 PWs)   bands (ev):

   -49.5485 -21.4537 -21.4503 -21.4497 -20.1943 -19.8408 -19.7968  -4.8200
    -3.0792  -2.9254  -1.8069  -1.2789  -1.1619  -0.9778  -0.9398  -0.8995
     0.5003   6.4015   8.4585   9.2092   9.7767

          k = 0.0934 0.0934 0.2803 (  3984 PWs)   bands (ev):

   -49.5485 -21.4563 -21.4503 -21.4496 -20.1309 -19.9006 -19.7960  -5.1378
    -3.0095  -2.7832  -1.8450  -1.4001  -1.1574  -1.0589  -0.9373  -0.8949
     1.3198   6.3890   8.2143   9.1949   9.4790

          k = 0.0934 0.0934-0.3738 (  3974 PWs)   bands (ev):

   -49.5485 -21.4574 -21.4501 -21.4495 -20.0913 -19.9387 -19.7957  -5.2501
    -2.9783  -2.7307  -1.8645  -1.4490  -1.1437  -1.1076  -0.9364  -0.8965
     1.7186   6.1782   8.6303   8.9505   9.1856

          k = 0.0934 0.1869 0.1869 (  3967 PWs)   bands (ev):

   -49.5485 -21.4538 -21.4517 -21.4497 -20.1518 -19.8545 -19.8209  -5.2432
    -2.9631  -2.6089  -1.8505  -1.3768  -1.2873  -0.9529  -0.9360  -0.8176
     1.0442   6.6518   8.0101   8.8572   9.5710

          k = 0.0934 0.1869 0.2803 (  3978 PWs)   bands (ev):

   -49.5485 -21.4553 -21.4519 -21.4496 -20.0936 -19.9010 -19.8281  -5.5522
    -2.8868  -2.3547  -1.9054  -1.4948  -1.3091  -1.0100  -0.9358  -0.7712
     1.7608   6.5803   7.7202   8.7407   9.2060

          k = 0.0934 0.1869-0.3738 (  3974 PWs)   bands (ev):

   -49.5485 -21.4561 -21.4517 -21.4495 -20.0556 -19.9364 -19.8289  -5.6619
    -2.8540  -2.2606  -1.9296  -1.5505  -1.2993  -1.0514  -0.9343  -0.7592
     2.1356   6.2873   7.9294   8.6032   9.0033

          k = 0.0934 0.2803 0.2803 (  3959 PWs)   bands (ev):

   -49.5484 -21.4544 -21.4535 -21.4493 -20.0409 -19.9103 -19.8667  -5.8599
    -2.8086  -1.9809  -1.9767  -1.5403  -1.4228  -1.0032  -0.9836  -0.6711
     2.3837   6.7677   6.9288   8.4214   9.0476

          k = 0.0934 0.2803-0.3738 (  3978 PWs)   bands (ev):

   -49.5485 -21.4548 -21.4535 -21.4493 -20.0027 -19.9341 -19.8792  -5.9698
    -2.7756  -2.0073  -1.8281  -1.5843  -1.4419  -1.0346  -0.9886  -0.6369
     2.7360   6.4130   6.9613   8.2634   9.0075

          k = 0.0934-0.3738-0.3738 (  3992 PWs)   bands (ev):

   -49.5485 -21.4543 -21.4543 -21.4493 -19.9477 -19.9331 -19.9331  -6.0799
    -2.7427  -2.0402  -1.5902  -1.5902  -1.5656  -1.0302  -1.0302  -0.5909
     3.0882   6.4724   6.4724   8.1223   9.0058

          k = 0.1869 0.1869 0.1869 (  3977 PWs)   bands (ev):

   -49.5485 -21.4536 -21.4512 -21.4512 -20.1143 -19.8540 -19.8540  -5.6314
    -2.5467  -2.5467  -1.8731  -1.4861  -1.4861  -0.8480  -0.8480  -0.7895
     1.4964   6.8888   8.0055   8.0055   9.2640

          k = 0.1869 0.1869 0.2803 (  3975 PWs)   bands (ev):

   -49.5485 -21.4543 -21.4518 -21.4506 -20.0624 -19.9016 -19.8536  -5.9260
    -2.4715  -2.2353  -1.9165  -1.6483  -1.5014  -0.8519  -0.8311  -0.7396
     2.1412   6.7158   7.6703   7.9910   8.8057

          k = 0.1869 0.1869-0.3738 (  3960 PWs)   bands (ev):

   -49.5484 -21.4549 -21.4517 -21.4503 -20.0271 -19.9350 -19.8533  -6.0320
    -2.4340  -2.1262  -1.9392  -1.7152  -1.4841  -0.8784  -0.8282  -0.7210
     2.5000   6.3353   7.9579   7.9821   8.4287

          k = 0.1869 0.2803 0.2803 (  3972 PWs)   bands (ev):

   -49.5484 -21.4536 -21.4526 -21.4505 -20.0184 -19.9102 -19.8837  -6.2157
    -2.3011  -1.9624  -1.9583  -1.7243  -1.6162  -0.8076  -0.8034  -0.6661
     2.7139   6.8474   6.8786   7.8904   8.4660

          k = 0.1869 0.2803-0.3738 (  3974 PWs)   bands (ev):

   -49.5484 -21.4537 -21.4527 -21.4504 -19.9854 -19.9337 -19.8910  -6.3207
    -2.2543  -1.9847  -1.8519  -1.7823  -1.5956  -0.8158  -0.7986  -0.6330
     3.0571   6.3806   6.9218   7.9908   8.2532

          k = 0.1869-0.3738-0.3738 (  3968 PWs)   bands (ev):

   -49.5484 -21.4532 -21.4532 -21.4502 -19.9417 -19.9331 -19.9331  -6.4255
    -2.2072  -2.0137  -1.7917  -1.7917  -1.5638  -0.8054  -0.8054  -0.5889
     3.4047   6.3981   6.3981   7.9961   8.1822

          k = 0.2803 0.2803 0.2803 (  3987 PWs)   bands (ev):

   -49.5485 -21.4528 -21.4517 -21.4517 -19.9866 -19.9100 -19.9100  -6.4977
    -1.9554  -1.9333  -1.9333  -1.7598  -1.7598  -0.6974  -0.6974  -0.6467
     3.2365   6.8200   6.8200   6.9950   8.3077

          k = 0.2803 0.2803-0.3738 (  3982 PWs)   bands (ev):

   -49.5484 -21.4526 -21.4521 -21.4513 -19.9611 -19.9333 -19.9099  -6.6008
    -1.9712  -1.9065  -1.9032  -1.8262  -1.6365  -0.6805  -0.6705  -0.6190
     3.5745   6.3370   6.7934   6.9901   8.2524

          k = 0.2803-0.3738-0.3738 (  3960 PWs)   bands (ev):

   -49.5484 -21.4521 -21.4521 -21.4513 -19.9356 -19.9331 -19.9331  -6.7034
    -1.9869  -1.9279  -1.9279  -1.7405  -1.5621  -0.6446  -0.6446  -0.5870
     3.9265   6.3157   6.3157   6.8844   8.2564

          k =-0.3738-0.3738-0.3738 (  3912 PWs)   bands (ev):

   -49.5483 -21.4515 -21.4515 -21.4515 -19.9330 -19.9330 -19.9330  -6.8055
    -1.9757  -1.9757  -1.9757  -1.5612  -1.5612  -0.5861  -0.5861  -0.5861
     4.3079   6.2793   6.2793   6.2793   8.2939

     the Fermi energy is     5.2321 ev

!    total energy              =    -451.77803896 Ry
     total all-electron energy =     -5122.517018 Ry
     estimated scf accuracy    <          7.6E-15 Ry
     smearing contrib. (-TS)   =      -0.00000000 Ry
     internal energy E=F+TS    =    -451.77803896 Ry

     The total energy is F=E-TS. E is the sum of the following terms:
     one-electron contribution =    -156.20133912 Ry
     hartree contribution      =      96.07783284 Ry
     xc contribution           =     -50.05035889 Ry
     ewald contribution        =    -140.17179049 Ry
     one-center paw contrib.   =    -201.43238330 Ry

     convergence has been achieved in  13 iterations

     Forces acting on atoms (cartesian axes, Ry/au):

     atom    1 type  1   force =     0.00000000    0.00000000    0.00000000
     atom    2 type  2   force =     0.00000000    0.00000000    0.00000000
     atom    3 type  3   force =     0.00000000    0.00000000    0.00000000
     atom    4 type  3   force =     0.00000000    0.00000000    0.00000000
     atom    5 type  3   force =     0.00000000    0.00000000    0.00000000

     Total force =     0.000000     Total SCF correction =     0.000000


     Computing stress (Cartesian axis) and pressure

          total   stress  (Ry/bohr**3)                   (kbar)     P=        8.60
   0.00005849   0.00000000   0.00000000            8.60        0.00        0.00
   0.00000000   0.00005849   0.00000000            0.00        8.60        0.00
   0.00000000   0.00000000   0.00005849            0.00        0.00        8.60

     Energy error            =      3.9E-03 Ry
     Gradient error          =      0.0E+00 Ry/Bohr
     Cell gradient error     =      8.6E+00 kbar

     number of scf cycles    =   6
     number of bfgs steps    =   5

     enthalpy           old  =    -451.7741720314 Ry
     enthalpy           new  =    -451.7780389631 Ry

     CASE: enthalpy          _new < enthalpy          _old

     new trust radius        =       0.0228431755 bohr
     new conv_thr            =            1.0E-14 Ry

     new unit-cell volume =    571.42769 a.u.^3 (    84.67685 Ang^3 )
     density =      2.99283 g/cm^3

CELL_PARAMETERS (angstrom)
   4.391250635   0.000000000   0.000000000
   0.000000000   4.391250635   0.000000000
   0.000000000   0.000000000   4.391250635

ATOMIC_POSITIONS (crystal)
Na               0.0000000000        0.0000000000        0.0000000000
Ge               0.5000000000        0.5000000000        0.5000000000
F                0.5000000000        0.5000000000        0.0000000000
F                0.5000000000        0.0000000000        0.5000000000
F                0.0000000000        0.5000000000        0.5000000000



     Writing config-only to output data dir ./tmp/NaGeF3.save/ :
     XML data file
     NEW-OLD atomic charge density approx. for the potential

     total cpu time spent up to now is      241.4 secs

     Self-consistent Calculation

     iteration #  1     ecut=   100.00 Ry     beta= 0.30
     Davidson diagonalization with overlap
     ethr =  1.00E-06,  avg # of iterations =  4.7

     total cpu time spent up to now is      244.5 secs

     total energy              =    -451.77832659 Ry
     estimated scf accuracy    <       0.00009310 Ry

     iteration #  2     ecut=   100.00 Ry     beta= 0.30
     Davidson diagonalization with overlap
     ethr =  2.74E-07,  avg # of iterations =  2.2

     total cpu time spent up to now is      246.5 secs

     total energy              =    -451.77831743 Ry
     estimated scf accuracy    <       0.00000812 Ry

     iteration #  3     ecut=   100.00 Ry     beta= 0.30
     Davidson diagonalization with overlap
     ethr =  2.39E-08,  avg # of iterations =  2.5

     total cpu time spent up to now is      248.5 secs

     total energy              =    -451.77830067 Ry
     estimated scf accuracy    <       0.00000303 Ry

     iteration #  4     ecut=   100.00 Ry     beta= 0.30
     Davidson diagonalization with overlap
     ethr =  8.92E-09,  avg # of iterations =  3.3

     total cpu time spent up to now is      250.8 secs

     total energy              =    -451.77830076 Ry
     estimated scf accuracy    <       0.00000021 Ry

     iteration #  5     ecut=   100.00 Ry     beta= 0.30
     Davidson diagonalization with overlap
     ethr =  6.06E-10,  avg # of iterations =  4.3

     total cpu time spent up to now is      253.6 secs

     total energy              =    -451.77830091 Ry
     estimated scf accuracy    <       0.00000007 Ry

     iteration #  6     ecut=   100.00 Ry     beta= 0.30
     Davidson diagonalization with overlap
     ethr =  1.94E-10,  avg # of iterations =  1.9

     total cpu time spent up to now is      255.5 secs

     total energy              =    -451.77830092 Ry
     estimated scf accuracy    <          5.8E-09 Ry

     iteration #  7     ecut=   100.00 Ry     beta= 0.30
     Davidson diagonalization with overlap
     ethr =  1.72E-11,  avg # of iterations =  3.1

     total cpu time spent up to now is      257.8 secs

     total energy              =    -451.77830092 Ry
     estimated scf accuracy    <          5.0E-10 Ry

     iteration #  8     ecut=   100.00 Ry     beta= 0.30
     Davidson diagonalization with overlap
     ethr =  1.48E-12,  avg # of iterations =  3.4

     total cpu time spent up to now is      260.3 secs

     total energy              =    -451.77830092 Ry
     estimated scf accuracy    <          2.1E-11 Ry

     iteration #  9     ecut=   100.00 Ry     beta= 0.30
     Davidson diagonalization with overlap
     ethr =  1.00E-13,  avg # of iterations =  3.1

     total cpu time spent up to now is      262.8 secs

     total energy              =    -451.77830092 Ry
     estimated scf accuracy    <          2.3E-11 Ry

     iteration # 10     ecut=   100.00 Ry     beta= 0.30
     Davidson diagonalization with overlap
     ethr =  1.00E-13,  avg # of iterations =  2.0

     total cpu time spent up to now is      265.0 secs

     total energy              =    -451.77830092 Ry
     estimated scf accuracy    <          3.9E-12 Ry

     iteration # 11     ecut=   100.00 Ry     beta= 0.30
     Davidson diagonalization with overlap
     ethr =  1.00E-13,  avg # of iterations =  1.0

     total cpu time spent up to now is      266.8 secs

     total energy              =    -451.77830092 Ry
     estimated scf accuracy    <          8.9E-13 Ry

     iteration # 12     ecut=   100.00 Ry     beta= 0.30
     Davidson diagonalization with overlap
     ethr =  1.00E-13,  avg # of iterations =  1.0

     total cpu time spent up to now is      268.7 secs

     total energy              =    -451.77830092 Ry
     estimated scf accuracy    <          1.7E-14 Ry

     iteration # 13     ecut=   100.00 Ry     beta= 0.30
     Davidson diagonalization with overlap
     ethr =  1.00E-13,  avg # of iterations =  1.0

     total cpu time spent up to now is      270.5 secs

     End of self-consistent calculation

          k = 0.0000 0.0000 0.0000 (  3911 PWs)   bands (ev):

   -49.6729 -21.5737 -21.5737 -21.5737 -20.3402 -19.8409 -19.8409  -3.4094
    -3.4094  -3.4094  -2.2826  -1.0565  -1.0565  -1.0565  -1.0543  -1.0543
    -1.0543   5.6288   9.6684   9.6684   9.6684

          k = 0.0000 0.0000 0.0930 (  3939 PWs)   bands (ev):

   -49.6729 -21.5751 -21.5737 -21.5737 -20.3228 -19.8569 -19.8405  -3.7943
    -3.3854  -3.3854  -2.0063  -1.0871  -1.0871  -1.0715  -1.0545  -1.0545
    -0.8057   5.7567   9.2310   9.6437   9.6437

          k = 0.0000 0.0000 0.1860 (  3948 PWs)   bands (ev):

   -49.6729 -21.5779 -21.5737 -21.5737 -20.2748 -19.9017 -19.8397  -4.3317
    -3.3245  -3.3245  -1.8510  -1.1662  -1.1662  -1.1068  -1.0525  -1.0525
    -0.0308   6.0367   8.4890   9.5827   9.5827

          k = 0.0000 0.0000 0.2790 (  3976 PWs)   bands (ev):

   -49.6730 -21.5808 -21.5737 -21.5737 -20.2104 -19.9629 -19.8388  -4.6946
    -3.2589  -3.2589  -1.8535  -1.2501  -1.2501  -1.1418  -1.0506  -1.0506
     0.8450   6.0805   8.2818   9.5198  10.0246

          k = 0.0000 0.0000-0.3720 (  3980 PWs)   bands (ev):

   -49.6730 -21.5820 -21.5736 -21.5736 -20.1712 -20.0008 -19.8384  -4.8199
    -3.2300  -3.2300  -1.8661  -1.2865  -1.2865  -1.1561  -1.0498  -1.0498
     1.2526   5.9237   8.8265   9.0796   9.4932

          k = 0.0000 0.0930 0.0930 (  3950 PWs)   bands (ev):

   -49.6730 -21.5754 -21.5744 -21.5738 -20.3060 -19.8638 -19.8487  -4.1533
    -3.3614  -3.2097  -1.9184  -1.1437  -1.0896  -1.0825  -1.0821  -1.0129
    -0.5607   5.8798   9.0006   9.4626   9.6166

          k = 0.0000 0.0930 0.1860 (  3971 PWs)   bands (ev):

   -49.6730 -21.5779 -21.5746 -21.5737 -20.2595 -19.9037 -19.8512  -4.6376
    -3.3003  -3.0532  -1.8640  -1.2436  -1.1651  -1.0921  -1.0835  -0.9982
     0.1634   6.1470   8.3371   9.3639   9.5498

          k = 0.0000 0.0930 0.2790 (  3979 PWs)   bands (ev):

   -49.6730 -21.5804 -21.5744 -21.5737 -20.1969 -19.9626 -19.8508  -4.9729
    -3.2344  -2.9499  -1.8836  -1.3423  -1.2487  -1.0896  -1.0813  -1.0103
     1.0001   6.1564   8.1200   9.2479   9.4815

          k = 0.0000 0.0930-0.3720 (  3994 PWs)   bands (ev):

   -49.6730 -21.5815 -21.5744 -21.5736 -20.1582 -19.9998 -19.8506  -5.0902
    -3.2055  -2.9097  -1.8992  -1.3839  -1.2850  -1.0879  -1.0804  -1.0184
     1.3988   5.9715   8.5239   8.9001   9.6246

          k = 0.0000 0.1860 0.1860 (  3974 PWs)   bands (ev):

   -49.6730 -21.5779 -21.5762 -21.5736 -20.2169 -19.9184 -19.8747  -5.0960
    -3.2388  -2.6833  -1.9073  -1.3188  -1.1680  -1.1601  -1.1556  -0.8978
     0.7309   6.4003   7.8154   9.0644   9.4701

          k = 0.0000 0.1860 0.2790 (  3975 PWs)   bands (ev):

   -49.6730 -21.5794 -21.5763 -21.5736 -20.1588 -19.9629 -19.8841  -5.4185
    -3.1723  -2.4390  -1.9598  -1.4088  -1.2452  -1.1871  -1.1585  -0.8537
     1.4573   6.3600   7.5286   8.7555   9.3906

          k = 0.0000 0.1860-0.3720 (  3984 PWs)   bands (ev):

   -49.6730 -21.5804 -21.5762 -21.5735 -20.1213 -19.9973 -19.8854  -5.5317
    -3.1431  -2.3500  -1.9830  -1.4562  -1.2812  -1.1901  -1.1574  -0.8436
     1.8295   6.0978   7.7195   8.4919   9.3578

          k = 0.0000 0.2790 0.2790 (  3986 PWs)   bands (ev):

   -49.6730 -21.5788 -21.5780 -21.5735 -20.1052 -19.9719 -19.9241  -5.7383
    -3.1050  -2.0490  -2.0354  -1.4443  -1.2946  -1.2447  -1.2380  -0.7518
     2.0860   6.5602   6.7631   8.3083   9.3018

          k = 0.0000 0.2790-0.3720 (  3976 PWs)   bands (ev):

   -49.6729 -21.5791 -21.5779 -21.5735 -20.0666 -19.9948 -19.9380  -5.8512
    -3.0754  -2.0658  -1.8878  -1.4794  -1.3374  -1.2774  -1.2398  -0.7180
     2.4338   6.2478   6.7884   8.1029   9.2657

          k = 0.0000-0.3720-0.3720 (  4012 PWs)   bands (ev):

   -49.6730 -21.5788 -21.5788 -21.5735 -20.0100 -19.9938 -19.9938  -5.9643
    -3.0455  -2.0990  -1.6372  -1.4835  -1.4835  -1.2759  -1.2759  -0.6727
     2.7796   6.3213   6.3213   7.9406   9.2285

          k = 0.0930 0.0930 0.0930 (  3935 PWs)   bands (ev):

   -49.6729 -21.5756 -21.5744 -21.5744 -20.2897 -19.8635 -19.8635  -4.4444
    -3.1854  -3.1854  -1.8858  -1.2047  -1.2047  -1.0205  -1.0205  -1.0015
    -0.3373   5.9986   9.0021   9.0021   9.6560

          k = 0.0930 0.0930 0.1860 (  3971 PWs)   bands (ev):

   -49.6730 -21.5777 -21.5747 -21.5742 -20.2448 -19.9050 -19.8628  -4.8901
    -3.1234  -2.9731  -1.8733  -1.3444  -1.2307  -1.0515  -1.0140  -0.9736
     0.3383   6.2538   8.2635   8.9971   9.5535

          k = 0.0930 0.0930 0.2790 (  3984 PWs)   bands (ev):

   -49.6730 -21.5801 -21.5747 -21.5741 -20.1840 -19.9623 -19.8620  -5.2081
    -3.0554  -2.8354  -1.9017  -1.4625  -1.2265  -1.1301  -1.0115  -0.9688
     1.1432   6.2262   8.0351   8.9806   9.2684

          k = 0.0930 0.0930-0.3720 (  3974 PWs)   bands (ev):

   -49.6730 -21.5810 -21.5746 -21.5740 -20.1460 -19.9989 -19.8617  -5.3204
    -3.0250  -2.7847  -1.9184  -1.5101  -1.2136  -1.1769  -1.0105  -0.9703
     1.5350   6.0119   8.4516   8.7596   8.9706

          k = 0.0930 0.1860 0.1860 (  3967 PWs)   bands (ev):

   -49.6730 -21.5778 -21.5760 -21.5742 -20.2040 -19.9182 -19.8859  -5.3091
    -3.0099  -2.6606  -1.9098  -1.4406  -1.3532  -1.0268  -1.0100  -0.8936
     0.8712   6.4973   7.8155   8.6517   9.3548

          k = 0.0930 0.1860 0.2790 (  3978 PWs)   bands (ev):

   -49.6730 -21.5791 -21.5762 -21.5741 -20.1480 -19.9628 -19.8928  -5.6157
    -2.9356  -2.4116  -1.9589  -1.5556  -1.3751  -1.0821  -1.0098  -0.8482
     1.5762   6.4116   7.5354   8.5423   9.0015

          k = 0.0930 0.1860-0.3720 (  3974 PWs)   bands (ev):

   -49.6729 -21.5799 -21.5760 -21.5740 -20.1115 -19.9967 -19.8935  -5.7247
    -2.9037  -2.3200  -1.9813  -1.6097  -1.3660  -1.1220  -1.0083  -0.8363
     1.9445   6.1171   7.7372   8.4255   8.7964

          k = 0.0930 0.2790 0.2790 (  3959 PWs)   bands (ev):

   -49.6729 -21.5784 -21.5776 -21.5738 -20.0973 -19.9718 -19.9297  -5.9195
    -2.8595  -2.0421  -2.0271  -1.6005  -1.4870  -1.0753  -1.0562  -0.7503
     2.1887   6.5912   6.7450   8.2455   8.8397

          k = 0.0930 0.2790-0.3720 (  3978 PWs)   bands (ev):

   -49.6729 -21.5788 -21.5776 -21.5738 -20.0606 -19.9946 -19.9418  -6.0281
    -2.8273  -2.0564  -1.8916  -1.6431  -1.5067  -1.1056  -1.0611  -0.7168
     2.5342   6.2372   6.7754   8.0987   8.7975

          k = 0.0930-0.3720-0.3720 (  3992 PWs)   bands (ev):

   -49.6730 -21.5784 -21.5784 -21.5738 -20.0076 -19.9937 -19.9937  -6.1368
    -2.7953  -2.0884  -1.6490  -1.6490  -1.6365  -1.1012  -1.1012  -0.6719
     2.8788   6.2935   6.2935   7.9634   8.7945

          k = 0.1860 0.1860 0.1860 (  3977 PWs)   bands (ev):

   -49.6730 -21.5776 -21.5756 -21.5756 -20.1679 -19.9177 -19.9177  -5.6917
    -2.5998  -2.5998  -1.9295  -1.5473  -1.5473  -0.9240  -0.9240  -0.8660
     1.3155   6.7286   7.8090   7.8090   9.0579

          k = 0.1860 0.1860 0.2790 (  3975 PWs)   bands (ev):

   -49.6729 -21.5783 -21.5761 -21.5750 -20.1180 -19.9633 -19.9172  -5.9828
    -2.5266  -2.2936  -1.9694  -1.7054  -1.5634  -0.9275  -0.9072  -0.8172
     1.9506   6.5416   7.4871   7.7931   8.6161

          k = 0.1860 0.1860-0.3720 (  3960 PWs)   bands (ev):

   -49.6729 -21.5788 -21.5760 -21.5748 -20.0841 -19.9954 -19.9169  -6.0876
    -2.4903  -2.1867  -1.9905  -1.7705  -1.5474  -0.9530  -0.9044  -0.7990
     2.3032   6.1623   7.7624   7.7837   8.2596

          k = 0.1860 0.2790 0.2790 (  3972 PWs)   bands (ev):

   -49.6729 -21.5777 -21.5768 -21.5750 -20.0756 -19.9716 -19.9461  -6.2682
    -2.3597  -2.0224  -2.0092  -1.7802  -1.6776  -0.8841  -0.8799  -0.7455
     2.5145   6.6663   6.6952   7.6996   8.2902

          k = 0.1860 0.2790-0.3720 (  3974 PWs)   bands (ev):

   -49.6729 -21.5778 -21.5769 -21.5748 -20.0439 -19.9942 -19.9531  -6.3718
    -2.3143  -2.0345  -1.9111  -1.8364  -1.6606  -0.8919  -0.8753  -0.7131
     2.8511   6.2044   6.7358   7.7906   8.0933

          k = 0.1860-0.3720-0.3720 (  3968 PWs)   bands (ev):

   -49.6729 -21.5774 -21.5774 -21.5747 -20.0017 -19.9936 -19.9936  -6.4751
    -2.2685  -2.0625  -1.8458  -1.8458  -1.6348  -0.8816  -0.8816  -0.6700
     3.1910   6.2206   6.2206   7.7946   8.0263

          k = 0.2790 0.2790 0.2790 (  3987 PWs)   bands (ev):

   -49.6729 -21.5770 -21.5761 -21.5761 -20.0450 -19.9714 -19.9714  -6.5455
    -2.0061  -1.9903  -1.9903  -1.8216  -1.8216  -0.7762  -0.7762  -0.7265
     3.0293   6.6374   6.6374   6.8052   8.1473

          k = 0.2790 0.2790-0.3720 (  3982 PWs)   bands (ev):

   -49.6729 -21.5769 -21.5764 -21.5757 -20.0204 -19.9937 -19.9713  -6.6469
    -2.0213  -1.9577  -1.9561  -1.8929  -1.7052  -0.7596  -0.7498  -0.6994
     3.3602   6.1610   6.6113   6.7981   8.0980

          k = 0.2790-0.3720-0.3720 (  3960 PWs)   bands (ev):

   -49.6729 -21.5764 -21.5764 -21.5757 -19.9959 -19.9935 -19.9935  -6.7478
    -2.0364  -1.9788  -1.9788  -1.8088  -1.6331  -0.7245  -0.7245  -0.6682
     3.7038   6.1399   6.1399   6.6962   8.1045

          k =-0.3720-0.3720-0.3720 (  3912 PWs)   bands (ev):

   -49.6728 -21.5759 -21.5759 -21.5759 -19.9935 -19.9935 -19.9935  -6.8481
    -2.0255  -2.0255  -2.0255  -1.6323  -1.6323  -0.6673  -0.6673  -0.6673
     4.0738   6.1043   6.1043   6.1043   8.1442

     the Fermi energy is     5.0457 ev

!    total energy              =    -451.77830092 Ry
     total all-electron energy =     -5122.517280 Ry
     estimated scf accuracy    <          2.4E-15 Ry
     smearing contrib. (-TS)   =      -0.00000000 Ry
     internal energy E=F+TS    =    -451.77830092 Ry

     The total energy is F=E-TS. E is the sum of the following terms:
     one-electron contribution =    -157.34758842 Ry
     hartree contribution      =      96.53208519 Ry
     xc contribution           =     -50.03184127 Ry
     ewald contribution        =    -139.50044050 Ry
     one-center paw contrib.   =    -201.43051592 Ry

     convergence has been achieved in  13 iterations

     Forces acting on atoms (cartesian axes, Ry/au):

     atom    1 type  1   force =     0.00000000    0.00000000    0.00000000
     atom    2 type  2   force =     0.00000000    0.00000000    0.00000000
     atom    3 type  3   force =     0.00000000    0.00000000    0.00000000
     atom    4 type  3   force =     0.00000000    0.00000000    0.00000000
     atom    5 type  3   force =     0.00000000    0.00000000    0.00000000

     Total force =     0.000000     Total SCF correction =     0.000000


     Computing stress (Cartesian axis) and pressure

          total   stress  (Ry/bohr**3)                   (kbar)     P=        0.94
   0.00000636   0.00000000   0.00000000            0.94        0.00        0.00
   0.00000000   0.00000636   0.00000000            0.00        0.94        0.00
   0.00000000   0.00000000   0.00000636            0.00        0.00        0.94

     Energy error            =      2.6E-04 Ry
     Gradient error          =      0.0E+00 Ry/Bohr
     Cell gradient error     =      9.4E-01 kbar

     number of scf cycles    =   7
     number of bfgs steps    =   6

     enthalpy           old  =    -451.7780389631 Ry
     enthalpy           new  =    -451.7783009211 Ry

     CASE: enthalpy          _new < enthalpy          _old

     new trust radius        =       0.0028240605 bohr
     new conv_thr            =            1.0E-14 Ry

     new unit-cell volume =    572.44090 a.u.^3 (    84.82699 Ang^3 )
     density =      2.98753 g/cm^3

CELL_PARAMETERS (angstrom)
   4.393844526   0.000000000   0.000000000
   0.000000000   4.393844526   0.000000000
   0.000000000   0.000000000   4.393844526

ATOMIC_POSITIONS (crystal)
Na               0.0000000000        0.0000000000        0.0000000000
Ge               0.5000000000        0.5000000000        0.5000000000
F                0.5000000000        0.5000000000        0.0000000000
F                0.5000000000        0.0000000000        0.5000000000
F                0.0000000000        0.5000000000        0.5000000000



     Writing config-only to output data dir ./tmp/NaGeF3.save/ :
     XML data file
     NEW-OLD atomic charge density approx. for the potential

     total cpu time spent up to now is      272.9 secs

     Self-consistent Calculation

     iteration #  1     ecut=   100.00 Ry     beta= 0.30
     Davidson diagonalization with overlap
     ethr =  1.00E-06,  avg # of iterations =  2.0

     Threshold (ethr) on eigenvalues was too large:
     Diagonalizing with lowered threshold

     Davidson diagonalization with overlap
     ethr =  2.92E-09,  avg # of iterations =  4.4

     total cpu time spent up to now is      277.4 secs

     total energy              =    -451.77830463 Ry
     estimated scf accuracy    <       0.00000149 Ry

     iteration #  2     ecut=   100.00 Ry     beta= 0.30
     Davidson diagonalization with overlap
     ethr =  4.37E-09,  avg # of iterations =  2.0

     total cpu time spent up to now is      279.6 secs

     total energy              =    -451.77830450 Ry
     estimated scf accuracy    <       0.00000012 Ry

     iteration #  3     ecut=   100.00 Ry     beta= 0.30
     Davidson diagonalization with overlap
     ethr =  3.55E-10,  avg # of iterations =  3.1

     total cpu time spent up to now is      281.7 secs

     total energy              =    -451.77830423 Ry
     estimated scf accuracy    <       0.00000005 Ry

     iteration #  4     ecut=   100.00 Ry     beta= 0.30
     Davidson diagonalization with overlap
     ethr =  1.37E-10,  avg # of iterations =  4.1

     total cpu time spent up to now is      284.0 secs

     total energy              =    -451.77830423 Ry
     estimated scf accuracy    <          3.6E-09 Ry

     iteration #  5     ecut=   100.00 Ry     beta= 0.30
     Davidson diagonalization with overlap
     ethr =  1.06E-11,  avg # of iterations =  4.4

     total cpu time spent up to now is      286.5 secs

     total energy              =    -451.77830423 Ry
     estimated scf accuracy    <          6.7E-10 Ry

     iteration #  6     ecut=   100.00 Ry     beta= 0.30
     Davidson diagonalization with overlap
     ethr =  1.96E-12,  avg # of iterations =  2.0

     total cpu time spent up to now is      288.5 secs

     total energy              =    -451.77830423 Ry
     estimated scf accuracy    <          3.5E-11 Ry

     iteration #  7     ecut=   100.00 Ry     beta= 0.30
     Davidson diagonalization with overlap
     ethr =  1.04E-13,  avg # of iterations =  4.2

     total cpu time spent up to now is      291.1 secs

     total energy              =    -451.77830423 Ry
     estimated scf accuracy    <          1.8E-11 Ry

     iteration #  8     ecut=   100.00 Ry     beta= 0.30
     Davidson diagonalization with overlap
     ethr =  1.00E-13,  avg # of iterations =  2.9

     total cpu time spent up to now is      293.3 secs

     total energy              =    -451.77830423 Ry
     estimated scf accuracy    <          6.9E-13 Ry

     iteration #  9     ecut=   100.00 Ry     beta= 0.30
     Davidson diagonalization with overlap
     ethr =  1.00E-13,  avg # of iterations =  1.0

     total cpu time spent up to now is      295.1 secs

     total energy              =    -451.77830423 Ry
     estimated scf accuracy    <          1.4E-13 Ry

     iteration # 10     ecut=   100.00 Ry     beta= 0.30
     Davidson diagonalization with overlap
     ethr =  1.00E-13,  avg # of iterations =  1.0

     total cpu time spent up to now is      296.9 secs

     total energy              =    -451.77830423 Ry
     estimated scf accuracy    <          1.4E-14 Ry

     iteration # 11     ecut=   100.00 Ry     beta= 0.30
     Davidson diagonalization with overlap
     ethr =  1.00E-13,  avg # of iterations =  1.0

     total cpu time spent up to now is      298.6 secs

     total energy              =    -451.77830423 Ry
     estimated scf accuracy    <          1.7E-14 Ry

     iteration # 12     ecut=   100.00 Ry     beta= 0.30
     Davidson diagonalization with overlap
     ethr =  1.00E-13,  avg # of iterations =  1.0

     total cpu time spent up to now is      300.4 secs

     total energy              =    -451.77830423 Ry
     estimated scf accuracy    <          1.6E-13 Ry

     iteration # 13     ecut=   100.00 Ry     beta= 0.30
     Davidson diagonalization with overlap
     ethr =  1.00E-13,  avg # of iterations =  1.0

     total cpu time spent up to now is      302.2 secs

     total energy              =    -451.77830423 Ry
     estimated scf accuracy    <          2.8E-14 Ry

     iteration # 14     ecut=   100.00 Ry     beta= 0.30
     Davidson diagonalization with overlap
     ethr =  1.00E-13,  avg # of iterations =  1.0

     total cpu time spent up to now is      303.9 secs

     total energy              =    -451.77830423 Ry
     estimated scf accuracy    <          2.4E-14 Ry

     iteration # 15     ecut=   100.00 Ry     beta= 0.30
     Davidson diagonalization with overlap
     ethr =  1.00E-13,  avg # of iterations =  1.0

     total cpu time spent up to now is      305.6 secs

     total energy              =    -451.77830423 Ry
     estimated scf accuracy    <          1.9E-14 Ry

     iteration # 16     ecut=   100.00 Ry     beta= 0.30
     Davidson diagonalization with overlap
     ethr =  1.00E-13,  avg # of iterations =  1.0

     total cpu time spent up to now is      307.3 secs

     End of self-consistent calculation

          k = 0.0000 0.0000 0.0000 (  3911 PWs)   bands (ev):

   -49.6881 -21.5889 -21.5889 -21.5889 -20.3459 -19.8490 -19.8490  -3.4141
    -3.4141  -3.4141  -2.3053  -1.0653  -1.0653  -1.0653  -1.0633  -1.0633
    -1.0633   5.6129   9.6408   9.6408   9.6408

          k = 0.0000 0.0000 0.0929 (  3939 PWs)   bands (ev):

   -49.6882 -21.5903 -21.5890 -21.5890 -20.3286 -19.8650 -19.8487  -3.8027
    -3.3902  -3.3902  -2.0217  -1.0959  -1.0959  -1.0802  -1.0634  -1.0634
    -0.8186   5.7404   9.2052   9.6162   9.6162

          k = 0.0000 0.0000 0.1859 (  3948 PWs)   bands (ev):

   -49.6882 -21.5931 -21.5889 -21.5889 -20.2808 -19.9095 -19.8478  -4.3417
    -3.3294  -3.3294  -1.8602  -1.1747  -1.1747  -1.1154  -1.0615  -1.0615
    -0.0490   6.0192   8.4655   9.5553   9.5553

          k = 0.0000 0.0000 0.2788 (  3976 PWs)   bands (ev):

   -49.6882 -21.5959 -21.5889 -21.5889 -20.2168 -19.9704 -19.8469  -4.7049
    -3.2640  -3.2640  -1.8607  -1.2583  -1.2583  -1.1502  -1.0595  -1.0595
     0.8243   6.0611   8.2607   9.4925  10.0016

          k = 0.0000 0.0000-0.3718 (  3980 PWs)   bands (ev):

   -49.6882 -21.5971 -21.5889 -21.5889 -20.1778 -20.0081 -19.8466  -4.8303
    -3.2352  -3.2352  -1.8729  -1.2946  -1.2946  -1.1645  -1.0587  -1.0587
     1.2310   5.9038   8.8085   9.0547   9.4659

          k = 0.0000 0.0929 0.0929 (  3950 PWs)   bands (ev):

   -49.6882 -21.5906 -21.5897 -21.5890 -20.3118 -19.8718 -19.8568  -4.1620
    -3.3662  -3.2148  -1.9307  -1.1523  -1.0983  -1.0914  -1.0909  -1.0219
    -0.5761   5.8632   8.9752   9.4359   9.5891

          k = 0.0000 0.0929 0.1859 (  3971 PWs)   bands (ev):

   -49.6882 -21.5930 -21.5898 -21.5889 -20.2656 -19.9115 -19.8593  -4.6468
    -3.3053  -3.0588  -1.8725  -1.2519  -1.1736  -1.1010  -1.0923  -1.0072
     0.1444   6.1293   8.3134   9.3372   9.5225

          k = 0.0000 0.0929 0.2788 (  3979 PWs)   bands (ev):

   -49.6882 -21.5956 -21.5896 -21.5889 -20.2033 -19.9701 -19.8589  -4.9822
    -3.2396  -2.9559  -1.8906  -1.3503  -1.2569  -1.0984  -1.0901  -1.0192
     0.9790   6.1368   8.0983   9.2215   9.4543

          k = 0.0000 0.0929-0.3718 (  3994 PWs)   bands (ev):

   -49.6882 -21.5966 -21.5896 -21.5889 -20.1648 -20.0071 -19.8587  -5.0995
    -3.2108  -2.9159  -1.9058  -1.3917  -1.2931  -1.0967  -1.0892  -1.0272
     1.3768   5.9513   8.5024   8.8761   9.6010

          k = 0.0000 0.1859 0.1859 (  3974 PWs)   bands (ev):

   -49.6882 -21.5931 -21.5914 -21.5889 -20.2232 -19.9261 -19.8827  -5.1047
    -3.2440  -2.6895  -1.9146  -1.3270  -1.1764  -1.1688  -1.1642  -0.9071
     0.7103   6.3817   7.7917   9.0386   9.4430

          k = 0.0000 0.1859 0.2788 (  3975 PWs)   bands (ev):

   -49.6882 -21.5946 -21.5915 -21.5888 -20.1654 -19.9704 -19.8920  -5.4268
    -3.1777  -2.4459  -1.9663  -1.4167  -1.2535  -1.1957  -1.1670  -0.8631
     1.4351   6.3396   7.5060   8.7313   9.3637

          k = 0.0000 0.1859-0.3718 (  3984 PWs)   bands (ev):

   -49.6882 -21.5955 -21.5914 -21.5888 -20.1281 -20.0046 -19.8933  -5.5400
    -3.1485  -2.3571  -1.9893  -1.4639  -1.2893  -1.1987  -1.1659  -0.8530
     1.8065   6.0771   7.6962   8.4699   9.3310

          k = 0.0000 0.2788 0.2788 (  3986 PWs)   bands (ev):

   -49.6882 -21.5939 -21.5932 -21.5887 -20.1120 -19.9794 -19.9319  -5.7462
    -3.1106  -2.0565  -2.0415  -1.4521  -1.3030  -1.2529  -1.2463  -0.7614
     2.0624   6.5389   6.7407   8.2867   9.2752

          k = 0.0000 0.2788-0.3718 (  3976 PWs)   bands (ev):

   -49.6882 -21.5943 -21.5931 -21.5887 -20.0736 -20.0022 -19.9457  -5.8589
    -3.0811  -2.0718  -1.8957  -1.4870  -1.3458  -1.2855  -1.2480  -0.7278
     2.4094   6.2264   6.7658   8.0826   9.2392

          k = 0.0000-0.3718-0.3718 (  4012 PWs)   bands (ev):

   -49.6882 -21.5939 -21.5939 -21.5887 -20.0173 -20.0012 -20.0012  -5.9718
    -3.0513  -2.1048  -1.6458  -1.4912  -1.4912  -1.2840  -1.2840  -0.6825
     2.7543   6.2994   6.2994   7.9211   9.2021

          k = 0.0929 0.0929 0.0929 (  3935 PWs)   bands (ev):

   -49.6881 -21.5908 -21.5896 -21.5896 -20.2957 -19.8715 -19.8715  -4.4530
    -3.1906  -3.1906  -1.8963  -1.2131  -1.2131  -1.0295  -1.0295  -1.0104
    -0.3545   5.9816   8.9766   8.9766   9.6285

          k = 0.0929 0.0929 0.1859 (  3971 PWs)   bands (ev):

   -49.6882 -21.5929 -21.5899 -21.5895 -20.2509 -19.9128 -19.8708  -4.8988
    -3.1288  -2.9789  -1.8814  -1.3524  -1.2391  -1.0604  -1.0230  -0.9826
     0.3187   6.2358   8.2397   8.9712   9.5262

          k = 0.0929 0.0929 0.2788 (  3984 PWs)   bands (ev):

   -49.6882 -21.5952 -21.5899 -21.5893 -20.1905 -19.9698 -19.8700  -5.2168
    -3.0609  -2.8417  -1.9086  -1.4700  -1.2349  -1.1388  -1.0205  -0.9778
     1.1217   6.2063   8.0132   8.9544   9.2426

          k = 0.0929 0.0929-0.3718 (  3974 PWs)   bands (ev):

   -49.6882 -21.5961 -21.5898 -21.5892 -20.1527 -20.0062 -19.8697  -5.3290
    -3.0306  -2.7912  -1.9250  -1.5175  -1.2221  -1.1853  -1.0195  -0.9793
     1.5127   5.9916   8.4296   8.7363   8.9443

          k = 0.0929 0.1859 0.1859 (  3967 PWs)   bands (ev):

   -49.6882 -21.5930 -21.5912 -21.5894 -20.2103 -19.9259 -19.8938  -5.3172
    -3.0156  -2.6669  -1.9170  -1.4484  -1.3612  -1.0358  -1.0190  -0.9029
     0.8502   6.4785   7.7918   8.6266   9.3284

          k = 0.0929 0.1859 0.2788 (  3978 PWs)   bands (ev):

   -49.6882 -21.5943 -21.5914 -21.5893 -20.1547 -19.9703 -19.9006  -5.6235
    -2.9415  -2.4185  -1.9654  -1.5630  -1.3832  -1.0909  -1.0188  -0.8575
     1.5538   6.3910   7.5128   8.5181   8.9765

          k = 0.0929 0.1859-0.3718 (  3974 PWs)   bands (ev):

   -49.6882 -21.5950 -21.5912 -21.5892 -20.1184 -20.0041 -19.9014  -5.7324
    -2.9097  -2.3272  -1.9876  -1.6168  -1.3741  -1.1306  -1.0173  -0.8457
     1.9213   6.0963   7.7138   8.4038   8.7711

          k = 0.0929 0.2788 0.2788 (  3959 PWs)   bands (ev):

   -49.6881 -21.5936 -21.5928 -21.5891 -20.1042 -19.9793 -19.9374  -5.9268
    -2.8656  -2.0496  -2.0332  -1.6078  -1.4948  -1.0841  -1.0650  -0.7600
     2.1649   6.5697   6.7225   8.2240   8.8143

          k = 0.0929 0.2788-0.3718 (  3978 PWs)   bands (ev):

   -49.6882 -21.5939 -21.5928 -21.5891 -20.0676 -20.0020 -19.9494  -6.0353
    -2.8336  -2.0624  -1.8994  -1.6503  -1.5145  -1.1142  -1.0699  -0.7266
     2.5096   6.2158   6.7527   8.0786   8.7718

          k = 0.0929-0.3718-0.3718 (  3992 PWs)   bands (ev):

   -49.6882 -21.5935 -21.5935 -21.5890 -20.0149 -20.0011 -20.0011  -6.1437
    -2.8017  -2.0942  -1.6562  -1.6562  -1.6451  -1.1099  -1.1099  -0.6818
     2.8533   6.2716   6.2716   7.9440   8.7687

          k = 0.1859 0.1859 0.1859 (  3977 PWs)   bands (ev):

   -49.6882 -21.5928 -21.5908 -21.5908 -20.1744 -19.9254 -19.9254  -5.6991
    -2.6062  -2.6062  -1.9364  -1.5548  -1.5548  -0.9332  -0.9332  -0.8753
     1.2935   6.7091   7.7850   7.7850   9.0328

          k = 0.1859 0.1859 0.2788 (  3975 PWs)   bands (ev):

   -49.6882 -21.5935 -21.5913 -21.5903 -20.1247 -19.9708 -19.9249  -5.9898
    -2.5333  -2.3007  -1.9758  -1.7124  -1.5710  -0.9367  -0.9165  -0.8267
     1.9274   6.5203   7.4647   7.7689   8.5930

          k = 0.1859 0.1859-0.3718 (  3960 PWs)   bands (ev):

   -49.6881 -21.5940 -21.5912 -21.5900 -20.0910 -20.0028 -19.9247  -6.0945
    -2.4971  -2.1940  -1.9967  -1.7772  -1.5551  -0.9621  -0.9137  -0.8085
     2.2792   6.1412   7.7385   7.7595   8.2389

          k = 0.1859 0.2788 0.2788 (  3972 PWs)   bands (ev):

   -49.6881 -21.5928 -21.5920 -21.5902 -20.0826 -19.9791 -19.9537  -6.2747
    -2.3668  -2.0298  -2.0154  -1.7870  -1.6851  -0.8934  -0.8892  -0.7551
     2.4901   6.6441   6.6728   7.6763   8.2688

          k = 0.1859 0.2788-0.3718 (  3974 PWs)   bands (ev):

   -49.6881 -21.5930 -21.5921 -21.5900 -20.0510 -20.0015 -19.9607  -6.3780
    -2.3216  -2.0405  -1.9183  -1.8430  -1.6685  -0.9011  -0.8846  -0.7228
     2.8259   6.1829   6.7131   7.7662   8.0738

          k = 0.1859-0.3718-0.3718 (  3968 PWs)   bands (ev):

   -49.6881 -21.5925 -21.5925 -21.5899 -20.0091 -20.0010 -20.0010  -6.4811
    -2.2760  -2.0685  -1.8524  -1.8524  -1.6434  -0.8909  -0.8909  -0.6799
     3.1650   6.1989   6.1989   7.7700   8.0072

          k = 0.2788 0.2788 0.2788 (  3987 PWs)   bands (ev):

   -49.6882 -21.5922 -21.5913 -21.5913 -20.0521 -19.9789 -19.9789  -6.5513
    -2.0123  -1.9973  -1.9973  -1.8291  -1.8291  -0.7858  -0.7858  -0.7362
     3.0040   6.6151   6.6151   6.7820   8.1277

          k = 0.2788 0.2788-0.3718 (  3982 PWs)   bands (ev):

   -49.6881 -21.5921 -21.5916 -21.5909 -20.0277 -20.0011 -19.9787  -6.6526
    -2.0274  -1.9640  -1.9625  -1.9010  -1.7136  -0.7693  -0.7595  -0.7092
     3.3341   6.1395   6.5891   6.7747   8.0792

          k = 0.2788-0.3718-0.3718 (  3960 PWs)   bands (ev):

   -49.6881 -21.5916 -21.5916 -21.5909 -20.0033 -20.0009 -20.0009  -6.7533
    -2.0424  -1.9850  -1.9850  -1.8171  -1.6417  -0.7342  -0.7342  -0.6781
     3.6767   6.1184   6.1184   6.6733   8.0860

          k =-0.3718-0.3718-0.3718 (  3912 PWs)   bands (ev):

   -49.6880 -21.5911 -21.5911 -21.5911 -20.0008 -20.0008 -20.0008  -6.8534
    -2.0316  -2.0316  -2.0316  -1.6409  -1.6409  -0.6771  -0.6771  -0.6771
     4.0452   6.0830   6.0830   6.0830   8.1259

     the Fermi energy is     5.0236 ev

!    total energy              =    -451.77830423 Ry
     total all-electron energy =     -5122.517283 Ry
     estimated scf accuracy    <          6.7E-15 Ry
     smearing contrib. (-TS)   =      -0.00000000 Ry
     internal energy E=F+TS    =    -451.77830423 Ry

     The total energy is F=E-TS. E is the sum of the following terms:
     one-electron contribution =    -157.48827244 Ry
     hartree contribution      =      96.58793441 Ry
     xc contribution           =     -50.02958822 Ry
     ewald contribution        =    -139.41808692 Ry
     one-center paw contrib.   =    -201.43029104 Ry

     convergence has been achieved in  16 iterations

     Forces acting on atoms (cartesian axes, Ry/au):

     atom    1 type  1   force =     0.00000000    0.00000000    0.00000000
     atom    2 type  2   force =     0.00000000    0.00000000    0.00000000
     atom    3 type  3   force =     0.00000000    0.00000000    0.00000000
     atom    4 type  3   force =     0.00000000    0.00000000    0.00000000
     atom    5 type  3   force =     0.00000000    0.00000000    0.00000000

     Total force =     0.000000     Total SCF correction =     0.000000


     Computing stress (Cartesian axis) and pressure

          total   stress  (Ry/bohr**3)                   (kbar)     P=        0.03
   0.00000018   0.00000000   0.00000000            0.03        0.00        0.00
   0.00000000   0.00000018   0.00000000            0.00        0.03        0.00
   0.00000000   0.00000000   0.00000018            0.00        0.00        0.03

     Energy error            =      3.3E-06 Ry
     Gradient error          =      0.0E+00 Ry/Bohr
     Cell gradient error     =      2.7E-02 kbar

     number of scf cycles    =   8
     number of bfgs steps    =   7

     enthalpy           old  =    -451.7783009211 Ry
     enthalpy           new  =    -451.7783042279 Ry

     CASE: enthalpy          _new < enthalpy          _old

     small trust_radius: resetting bfgs history

     new trust radius        =       0.0000217779 bohr
     new conv_thr            =            1.0E-14 Ry

     new unit-cell volume =    572.44872 a.u.^3 (    84.82815 Ang^3 )
     density =      2.98749 g/cm^3

CELL_PARAMETERS (angstrom)
   4.393864523   0.000000000   0.000000000
   0.000000000   4.393864523   0.000000000
   0.000000000   0.000000000   4.393864523

ATOMIC_POSITIONS (crystal)
Na               0.0000000000        0.0000000000        0.0000000000
Ge               0.5000000000        0.5000000000        0.5000000000
F                0.5000000000        0.5000000000        0.0000000000
F                0.5000000000        0.0000000000        0.5000000000
F                0.0000000000        0.5000000000        0.5000000000



     Writing config-only to output data dir ./tmp/NaGeF3.save/ :
     XML data file
     NEW-OLD atomic charge density approx. for the potential

     total cpu time spent up to now is      309.8 secs

     Self-consistent Calculation

     iteration #  1     ecut=   100.00 Ry     beta= 0.30
     Davidson diagonalization with overlap
     ethr =  1.00E-06,  avg # of iterations =  2.0

     Threshold (ethr) on eigenvalues was too large:
     Diagonalizing with lowered threshold

     Davidson diagonalization with overlap
     ethr =  9.09E-14,  avg # of iterations =  5.6

     total cpu time spent up to now is      314.7 secs

     total energy              =    -451.77830423 Ry
     estimated scf accuracy    <          9.1E-11 Ry

     iteration #  2     ecut=   100.00 Ry     beta= 0.30
     Davidson diagonalization with overlap
     ethr =  2.67E-13,  avg # of iterations =  2.0

     total cpu time spent up to now is      316.6 secs

     total energy              =    -451.77830423 Ry
     estimated scf accuracy    <          7.2E-12 Ry

     iteration #  3     ecut=   100.00 Ry     beta= 0.30
     Davidson diagonalization with overlap
     ethr =  1.00E-13,  avg # of iterations =  1.4

     total cpu time spent up to now is      318.4 secs

     total energy              =    -451.77830423 Ry
     estimated scf accuracy    <          2.9E-12 Ry

     iteration #  4     ecut=   100.00 Ry     beta= 0.30
     Davidson diagonalization with overlap
     ethr =  1.00E-13,  avg # of iterations =  2.0

     total cpu time spent up to now is      320.2 secs

     total energy              =    -451.77830423 Ry
     estimated scf accuracy    <          1.8E-13 Ry

     iteration #  5     ecut=   100.00 Ry     beta= 0.30
     Davidson diagonalization with overlap
     ethr =  1.00E-13,  avg # of iterations =  1.0

     total cpu time spent up to now is      321.9 secs

     total energy              =    -451.77830423 Ry
     estimated scf accuracy    <          6.5E-14 Ry

     iteration #  6     ecut=   100.00 Ry     beta= 0.30
     Davidson diagonalization with overlap
     ethr =  1.00E-13,  avg # of iterations =  1.0

     total cpu time spent up to now is      323.7 secs

     End of self-consistent calculation

          k = 0.0000 0.0000 0.0000 (  3911 PWs)   bands (ev):

   -49.6882 -21.5891 -21.5891 -21.5891 -20.3459 -19.8491 -19.8491  -3.4141
    -3.4141  -3.4141  -2.3055  -1.0653  -1.0653  -1.0653  -1.0634  -1.0634
    -1.0634   5.6127   9.6406   9.6406   9.6406

          k = 0.0000 0.0000 0.0929 (  3939 PWs)   bands (ev):

   -49.6883 -21.5904 -21.5891 -21.5891 -20.3286 -19.8651 -19.8487  -3.8028
    -3.3902  -3.3902  -2.0218  -1.0959  -1.0959  -1.0803  -1.0635  -1.0635
    -0.8187   5.7403   9.2050   9.6160   9.6160

          k = 0.0000 0.0000 0.1859 (  3948 PWs)   bands (ev):

   -49.6883 -21.5932 -21.5890 -21.5890 -20.2808 -19.9096 -19.8479  -4.3417
    -3.3295  -3.3295  -1.8602  -1.1747  -1.1747  -1.1155  -1.0615  -1.0615
    -0.0491   6.0190   8.4654   9.5551   9.5551

          k = 0.0000 0.0000 0.2788 (  3976 PWs)   bands (ev):

   -49.6883 -21.5961 -21.5890 -21.5890 -20.2168 -19.9704 -19.8470  -4.7050
    -3.2641  -3.2641  -1.8608  -1.2584  -1.2584  -1.1503  -1.0596  -1.0596
     0.8241   6.0610   8.2605   9.4923  10.0012

          k = 0.0000 0.0000-0.3717 (  3980 PWs)   bands (ev):

   -49.6883 -21.5972 -21.5890 -21.5890 -20.1778 -20.0081 -19.8466  -4.8304
    -3.2353  -3.2353  -1.8729  -1.2947  -1.2947  -1.1646  -1.0588  -1.0588
     1.2308   5.9036   8.8084   9.0546   9.4657

          k = 0.0000 0.0929 0.0929 (  3950 PWs)   bands (ev):

   -49.6883 -21.5907 -21.5898 -21.5891 -20.3119 -19.8719 -19.8569  -4.1621
    -3.3663  -3.2149  -1.9307  -1.1524  -1.0983  -1.0915  -1.0910  -1.0220
    -0.5762   5.8630   8.9750   9.4357   9.5889

          k = 0.0000 0.0929 0.1859 (  3971 PWs)   bands (ev):

   -49.6883 -21.5931 -21.5899 -21.5891 -20.2656 -19.9116 -19.8594  -4.6469
    -3.3053  -3.0588  -1.8725  -1.2520  -1.1737  -1.1010  -1.0924  -1.0072
     0.1443   6.1292   8.3132   9.3370   9.5223

          k = 0.0000 0.0929 0.2788 (  3979 PWs)   bands (ev):

   -49.6883 -21.5957 -21.5898 -21.5890 -20.2033 -19.9701 -19.8590  -4.9823
    -3.2397  -2.9560  -1.8907  -1.3504  -1.2570  -1.0985  -1.0902  -1.0193
     0.9788   6.1366   8.0981   9.2213   9.4541

          k = 0.0000 0.0929-0.3717 (  3994 PWs)   bands (ev):

   -49.6884 -21.5968 -21.5897 -21.5890 -20.1649 -20.0071 -19.8588  -5.0996
    -3.2109  -2.9160  -1.9059  -1.3918  -1.2932  -1.0968  -1.0893  -1.0273
     1.3766   5.9512   8.5022   8.8759   9.6009

          k = 0.0000 0.1859 0.1859 (  3974 PWs)   bands (ev):

   -49.6883 -21.5932 -21.5915 -21.5890 -20.2233 -19.9262 -19.8828  -5.1047
    -3.2440  -2.6896  -1.9146  -1.3270  -1.1765  -1.1689  -1.1643  -0.9071
     0.7101   6.3815   7.7916   9.0384   9.4428

          k = 0.0000 0.1859 0.2788 (  3975 PWs)   bands (ev):

   -49.6883 -21.5947 -21.5917 -21.5889 -20.1654 -19.9705 -19.8920  -5.4269
    -3.1777  -2.4459  -1.9664  -1.4167  -1.2535  -1.1958  -1.1671  -0.8631
     1.4349   6.3395   7.5058   8.7312   9.3635

          k = 0.0000 0.1859-0.3717 (  3984 PWs)   bands (ev):

   -49.6883 -21.5956 -21.5915 -21.5889 -20.1281 -20.0047 -19.8934  -5.5401
    -3.1486  -2.3572  -1.9894  -1.4639  -1.2894  -1.1988  -1.1660  -0.8530
     1.8063   6.0769   7.6961   8.4697   9.3308

          k = 0.0000 0.2788 0.2788 (  3986 PWs)   bands (ev):

   -49.6883 -21.5941 -21.5933 -21.5889 -20.1121 -19.9795 -19.9319  -5.7462
    -3.1107  -2.0565  -2.0416  -1.4522  -1.3030  -1.2529  -1.2464  -0.7615
     2.0622   6.5387   6.7405   8.2865   9.2750

          k = 0.0000 0.2788-0.3717 (  3976 PWs)   bands (ev):

   -49.6883 -21.5944 -21.5932 -21.5888 -20.0736 -20.0022 -19.9457  -5.8590
    -3.0811  -2.0718  -1.8958  -1.4871  -1.3458  -1.2856  -1.2481  -0.7279
     2.4092   6.2262   6.7656   8.0825   9.2390

          k = 0.0000-0.3717-0.3717 (  4012 PWs)   bands (ev):

   -49.6884 -21.5941 -21.5941 -21.5889 -20.0173 -20.0012 -20.0012  -5.9719
    -3.0514  -2.1049  -1.6459  -1.4912  -1.4912  -1.2840  -1.2840  -0.6826
     2.7541   6.2992   6.2992   7.9209   9.2019

          k = 0.0929 0.0929 0.0929 (  3935 PWs)   bands (ev):

   -49.6883 -21.5909 -21.5897 -21.5897 -20.2957 -19.8716 -19.8716  -4.4531
    -3.1906  -3.1906  -1.8964  -1.2132  -1.2132  -1.0296  -1.0296  -1.0105
    -0.3546   5.9815   8.9764   8.9764   9.6283

          k = 0.0929 0.0929 0.1859 (  3971 PWs)   bands (ev):

   -49.6883 -21.5930 -21.5901 -21.5896 -20.2510 -19.9129 -19.8708  -4.8989
    -3.1288  -2.9790  -1.8815  -1.3524  -1.2391  -1.0605  -1.0231  -0.9826
     0.3185   6.2357   8.2395   8.9710   9.5260

          k = 0.0929 0.0929 0.2788 (  3984 PWs)   bands (ev):

   -49.6883 -21.5953 -21.5900 -21.5894 -20.1905 -19.9699 -19.8701  -5.2168
    -3.0610  -2.8418  -1.9086  -1.4701  -1.2350  -1.1389  -1.0206  -0.9779
     1.1216   6.2061   8.0131   8.9542   9.2424

          k = 0.0929 0.0929-0.3717 (  3974 PWs)   bands (ev):

   -49.6883 -21.5962 -21.5899 -21.5893 -20.1527 -20.0062 -19.8698  -5.3291
    -3.0307  -2.7913  -1.9251  -1.5176  -1.2221  -1.1854  -1.0196  -0.9793
     1.5125   5.9915   8.4295   8.7361   8.9441

          k = 0.0929 0.1859 0.1859 (  3967 PWs)   bands (ev):

   -49.6883 -21.5931 -21.5913 -21.5895 -20.2104 -19.9260 -19.8939  -5.3173
    -3.0156  -2.6669  -1.9171  -1.4485  -1.3613  -1.0359  -1.0191  -0.9030
     0.8500   6.4783   7.7916   8.6264   9.3282

          k = 0.0929 0.1859 0.2788 (  3978 PWs)   bands (ev):

   -49.6883 -21.5944 -21.5915 -21.5894 -20.1547 -19.9704 -19.9007  -5.6236
    -2.9416  -2.4186  -1.9655  -1.5631  -1.3832  -1.0909  -1.0189  -0.8576
     1.5536   6.3908   7.5126   8.5179   8.9763

          k = 0.0929 0.1859-0.3717 (  3974 PWs)   bands (ev):

   -49.6883 -21.5951 -21.5913 -21.5893 -20.1184 -20.0041 -19.9014  -5.7324
    -2.9097  -2.3273  -1.9876  -1.6169  -1.3742  -1.1307  -1.0174  -0.8458
     1.9211   6.0962   7.7136   8.4036   8.7710

          k = 0.0929 0.2788 0.2788 (  3959 PWs)   bands (ev):

   -49.6883 -21.5937 -21.5929 -21.5892 -20.1043 -19.9793 -19.9375  -5.9269
    -2.8657  -2.0496  -2.0333  -1.6079  -1.4949  -1.0841  -1.0651  -0.7601
     2.1647   6.5695   6.7223   8.2238   8.8141

          k = 0.0929 0.2788-0.3717 (  3978 PWs)   bands (ev):

   -49.6883 -21.5941 -21.5929 -21.5892 -20.0677 -20.0020 -19.9495  -6.0353
    -2.8337  -2.0625  -1.8994  -1.6503  -1.5146  -1.1143  -1.0700  -0.7266
     2.5094   6.2156   6.7525   8.0785   8.7716

          k = 0.0929-0.3717-0.3717 (  3992 PWs)   bands (ev):

   -49.6883 -21.5936 -21.5936 -21.5891 -20.0149 -20.0012 -20.0012  -6.1438
    -2.8017  -2.0943  -1.6562  -1.6562  -1.6452  -1.1099  -1.1099  -0.6819
     2.8531   6.2715   6.2715   7.9438   8.7685

          k = 0.1859 0.1859 0.1859 (  3977 PWs)   bands (ev):

   -49.6883 -21.5929 -21.5909 -21.5909 -20.1745 -19.9255 -19.9255  -5.6991
    -2.6063  -2.6063  -1.9365  -1.5548  -1.5548  -0.9333  -0.9333  -0.8753
     1.2934   6.7089   7.7848   7.7848   9.0326

          k = 0.1859 0.1859 0.2788 (  3975 PWs)   bands (ev):

   -49.6883 -21.5936 -21.5914 -21.5904 -20.1248 -19.9709 -19.9250  -5.9899
    -2.5334  -2.3008  -1.9759  -1.7124  -1.5710  -0.9368  -0.9166  -0.8267
     1.9272   6.5201   7.4646   7.7687   8.5928

          k = 0.1859 0.1859-0.3717 (  3960 PWs)   bands (ev):

   -49.6882 -21.5941 -21.5913 -21.5901 -20.0911 -20.0029 -19.9247  -6.0945
    -2.4972  -2.1941  -1.9968  -1.7773  -1.5552  -0.9622  -0.9137  -0.8086
     2.2790   6.1411   7.7383   7.7593   8.2388

          k = 0.1859 0.2788 0.2788 (  3972 PWs)   bands (ev):

   -49.6883 -21.5930 -21.5922 -21.5903 -20.0826 -19.9791 -19.9538  -6.2747
    -2.3669  -2.0298  -2.0154  -1.7871  -1.6851  -0.8935  -0.8893  -0.7552
     2.4900   6.6440   6.6726   7.6761   8.2686

          k = 0.1859 0.2788-0.3717 (  3974 PWs)   bands (ev):

   -49.6883 -21.5931 -21.5922 -21.5902 -20.0511 -20.0016 -19.9608  -6.3781
    -2.3217  -2.0406  -1.9184  -1.8431  -1.6686  -0.9012  -0.8846  -0.7229
     2.8258   6.1828   6.7129   7.7660   8.0736

          k = 0.1859-0.3717-0.3717 (  3968 PWs)   bands (ev):

   -49.6882 -21.5927 -21.5927 -21.5900 -20.0091 -20.0011 -20.0011  -6.4812
    -2.2760  -2.0685  -1.8524  -1.8524  -1.6435  -0.8910  -0.8910  -0.6800
     3.1648   6.1987   6.1987   7.7698   8.0071

          k = 0.2788 0.2788 0.2788 (  3987 PWs)   bands (ev):

   -49.6883 -21.5923 -21.5914 -21.5914 -20.0522 -19.9789 -19.9789  -6.5514
    -2.0123  -1.9974  -1.9974  -1.8291  -1.8291  -0.7859  -0.7859  -0.7363
     3.0038   6.6150   6.6150   6.7818   8.1276

          k = 0.2788 0.2788-0.3717 (  3982 PWs)   bands (ev):

   -49.6883 -21.5922 -21.5917 -21.5910 -20.0277 -20.0012 -19.9788  -6.6526
    -2.0274  -1.9640  -1.9626  -1.9011  -1.7136  -0.7694  -0.7596  -0.7093
     3.3339   6.1394   6.5889   6.7745   8.0790

          k = 0.2788-0.3717-0.3717 (  3960 PWs)   bands (ev):

   -49.6882 -21.5917 -21.5917 -21.5910 -20.0033 -20.0010 -20.0010  -6.7533
    -2.0425  -1.9851  -1.9851  -1.8172  -1.6418  -0.7343  -0.7343  -0.6781
     3.6764   6.1182   6.1182   6.6731   8.0858

          k =-0.3717-0.3717-0.3717 (  3912 PWs)   bands (ev):

   -49.6881 -21.5912 -21.5912 -21.5912 -20.0009 -20.0009 -20.0009  -6.8534
    -2.0316  -2.0316  -2.0316  -1.6410  -1.6410  -0.6772  -0.6772  -0.6772
     4.0450   6.0828   6.0828   6.0828   8.1257

     the Fermi energy is     5.0232 ev

!    total energy              =    -451.77830423 Ry
     total all-electron energy =     -5122.517283 Ry
     estimated scf accuracy    <          2.7E-15 Ry
     smearing contrib. (-TS)   =      -0.00000000 Ry
     internal energy E=F+TS    =    -451.77830423 Ry

     The total energy is F=E-TS. E is the sum of the following terms:
     one-electron contribution =    -157.48935641 Ry
     hartree contribution      =      96.58836468 Ry
     xc contribution           =     -50.02957087 Ry
     ewald contribution        =    -139.41745241 Ry
     one-center paw contrib.   =    -201.43028922 Ry

     convergence has been achieved in   6 iterations

     Forces acting on atoms (cartesian axes, Ry/au):

     atom    1 type  1   force =     0.00000000    0.00000000    0.00000000
     atom    2 type  2   force =     0.00000000    0.00000000    0.00000000
     atom    3 type  3   force =     0.00000000    0.00000000    0.00000000
     atom    4 type  3   force =     0.00000000    0.00000000    0.00000000
     atom    5 type  3   force =     0.00000000    0.00000000    0.00000000

     Total force =     0.000000     Total SCF correction =     0.000000


     Computing stress (Cartesian axis) and pressure

          total   stress  (Ry/bohr**3)                   (kbar)     P=        0.02
   0.00000014   0.00000000   0.00000000            0.02        0.00        0.00
   0.00000000   0.00000014   0.00000000            0.00        0.02        0.00
   0.00000000   0.00000000   0.00000014            0.00        0.00        0.02

     Energy error            =      1.2E-09 Ry
     Gradient error          =      0.0E+00 Ry/Bohr
     Cell gradient error     =      2.0E-02 kbar

     bfgs converged in   9 scf cycles and   8 bfgs steps
     (criteria: energy <  1.0E-07 Ry, force <  1.0E-05 Ry/Bohr, cell <  1.0E-01 kbar)

     End of BFGS Geometry Optimization

     Final enthalpy           =    -451.7783042291 Ry

     File ./tmp/NaGeF3.bfgs deleted, as requested
Begin final coordinates
     new unit-cell volume =    572.44872 a.u.^3 (    84.82815 Ang^3 )
     density =      2.98749 g/cm^3

CELL_PARAMETERS (angstrom)
   4.393864523   0.000000000   0.000000000
   0.000000000   4.393864523   0.000000000
   0.000000000   0.000000000   4.393864523

ATOMIC_POSITIONS (crystal)
Na               0.0000000000        0.0000000000        0.0000000000
Ge               0.5000000000        0.5000000000        0.5000000000
F                0.5000000000        0.5000000000        0.0000000000
F                0.5000000000        0.0000000000        0.5000000000
F                0.0000000000        0.5000000000        0.5000000000
End final coordinates



     Writing config-only to output data dir ./tmp/NaGeF3.save/ :
     XML data file

     Final scf calculation at the relaxed structure.
     The G-vectors are recalculated for the final unit cell
     Results may differ from those at the preceding step.

     Parallelization info
     --------------------
     sticks:   dense  smooth     PW     G-vecs:    dense   smooth      PW
     Min        1099     551    155                54745    19341    2937
     Max        1100     553    156                54747    19342    2940
     Sum        4397    2209    621               218983    77365   11753

     Using Slab Decomposition



     bravais-lattice index     =            0
     lattice parameter (alat)  =       6.1734  a.u.
     unit-cell volume          =     572.4487 (a.u.)^3
     number of atoms/cell      =            5
     number of atomic types    =            3
     number of electrons       =        34.00
     number of Kohn-Sham states=           21
     kinetic-energy cutoff     =     100.0000  Ry
     charge density cutoff     =     800.0000  Ry
     scf convergence threshold =      1.0E-14
     mixing beta               =       0.3000
     number of iterations used =            8  plain     mixing
     press convergence thresh. =      1.0E-01
     Exchange-correlation= PBE
                           (   1   4   3   4   0   0   0)

     celldm(1)=   6.173420  celldm(2)=   0.000000  celldm(3)=   0.000000
     celldm(4)=   0.000000  celldm(5)=   0.000000  celldm(6)=   0.000000

     crystal axes: (cart. coord. in units of alat)
               a(1) = (   1.344992   0.000000   0.000000 )  
               a(2) = (   0.000000   1.344992   0.000000 )  
               a(3) = (   0.000000   0.000000   1.344992 )  

     reciprocal axes: (cart. coord. in units 2 pi/alat)
               b(1) = (  0.743499  0.000000  0.000000 )  
               b(2) = (  0.000000  0.743499  0.000000 )  
               b(3) = (  0.000000  0.000000  0.743499 )  


     PseudoPot. # 1 for Na read from file:
     /home/administrator/Downloads/BURAI/BURAI1.3/pseudopot/Na.pbe-spn-kjpaw_psl.1.0.0.UPF
     MD5 check sum: abc0658962c54638d3013c5a8f1b04c6
     Pseudo is Projector augmented-wave + core cor, Zval =  9.0
     Generated using "atomic" code by A. Dal Corso  v.5.1.2
     Shape of augmentation charge: PSQ
     Using radial grid of 1121 points,  4 beta functions with: 
                l(1) =   0
                l(2) =   0
                l(3) =   1
                l(4) =   1
     Q(r) pseudized with 0 coefficients 


     PseudoPot. # 2 for Ge read from file:
     /home/administrator/Downloads/BURAI/BURAI1.3/pseudopot/Ge.pbe-n-kjpaw_psl.1.0.0.UPF
     MD5 check sum: 4aa708d04ebeac8ef886ea6b7189f44d
     Pseudo is Projector augmented-wave + core cor, Zval =  4.0
     Generated using "atomic" code by A. Dal Corso  v.5.1.2
     Shape of augmentation charge: PSQ
     Using radial grid of 1207 points,  4 beta functions with: 
                l(1) =   0
                l(2) =   0
                l(3) =   1
                l(4) =   1
     Q(r) pseudized with 0 coefficients 


     PseudoPot. # 3 for F  read from file:
     /home/administrator/Downloads/BURAI/BURAI1.3/pseudopot/F.pbe-n-kjpaw_psl.1.0.0.UPF
     MD5 check sum: de2194216b7114fcf395f1df79715f8b
     Pseudo is Projector augmented-wave + core cor, Zval =  7.0
     Generated using "atomic" code by A. Dal Corso  v.5.1.2
     Shape of augmentation charge: PSQ
     Using radial grid of 1105 points,  4 beta functions with: 
                l(1) =   0
                l(2) =   0
                l(3) =   1
                l(4) =   1
     Q(r) pseudized with 0 coefficients 


     atomic species   valence    mass     pseudopotential
     Na                9.00    22.98980     Na( 1.00)
     Ge                4.00    72.63000     Ge( 1.00)
     F                 7.00    18.99840     F ( 1.00)

     48 Sym. Ops., with inversion, found



   Cartesian axes

     site n.     atom                  positions (alat units)
         1        Na     tau(   1) = (   0.0000000   0.0000000   0.0000000  )
         2        Ge     tau(   2) = (   0.6724960   0.6724960   0.6724960  )
         3        F      tau(   3) = (   0.6724960   0.6724960   0.0000000  )
         4        F      tau(   4) = (   0.6724960   0.0000000   0.6724960  )
         5        F      tau(   5) = (   0.0000000   0.6724960   0.6724960  )

     number of k points=    35  Gaussian smearing, width (Ry)=  0.0100
                       cart. coord. in units 2pi/alat
        k(    1) = (   0.0000000   0.0000000   0.0000000), wk =   0.0039062
        k(    2) = (   0.0000000   0.0000000   0.0929374), wk =   0.0234375
        k(    3) = (   0.0000000   0.0000000   0.1858747), wk =   0.0234375
        k(    4) = (   0.0000000   0.0000000   0.2788121), wk =   0.0234375
        k(    5) = (   0.0000000   0.0000000  -0.3717494), wk =   0.0117188
        k(    6) = (   0.0000000   0.0929374   0.0929374), wk =   0.0468750
        k(    7) = (   0.0000000   0.0929374   0.1858747), wk =   0.0937500
        k(    8) = (   0.0000000   0.0929374   0.2788121), wk =   0.0937500
        k(    9) = (   0.0000000   0.0929374  -0.3717494), wk =   0.0468750
        k(   10) = (   0.0000000   0.1858747   0.1858747), wk =   0.0468750
        k(   11) = (   0.0000000   0.1858747   0.2788121), wk =   0.0937500
        k(   12) = (   0.0000000   0.1858747  -0.3717494), wk =   0.0468750
        k(   13) = (   0.0000000   0.2788121   0.2788121), wk =   0.0468750
        k(   14) = (   0.0000000   0.2788121  -0.3717494), wk =   0.0468750
        k(   15) = (   0.0000000  -0.3717494  -0.3717494), wk =   0.0117188
        k(   16) = (   0.0929374   0.0929374   0.0929374), wk =   0.0312500
        k(   17) = (   0.0929374   0.0929374   0.1858747), wk =   0.0937500
        k(   18) = (   0.0929374   0.0929374   0.2788121), wk =   0.0937500
        k(   19) = (   0.0929374   0.0929374  -0.3717494), wk =   0.0468750
        k(   20) = (   0.0929374   0.1858747   0.1858747), wk =   0.0937500
        k(   21) = (   0.0929374   0.1858747   0.2788121), wk =   0.1875000
        k(   22) = (   0.0929374   0.1858747  -0.3717494), wk =   0.0937500
        k(   23) = (   0.0929374   0.2788121   0.2788121), wk =   0.0937500
        k(   24) = (   0.0929374   0.2788121  -0.3717494), wk =   0.0937500
        k(   25) = (   0.0929374  -0.3717494  -0.3717494), wk =   0.0234375
        k(   26) = (   0.1858747   0.1858747   0.1858747), wk =   0.0312500
        k(   27) = (   0.1858747   0.1858747   0.2788121), wk =   0.0937500
        k(   28) = (   0.1858747   0.1858747  -0.3717494), wk =   0.0468750
        k(   29) = (   0.1858747   0.2788121   0.2788121), wk =   0.0937500
        k(   30) = (   0.1858747   0.2788121  -0.3717494), wk =   0.0937500
        k(   31) = (   0.1858747  -0.3717494  -0.3717494), wk =   0.0234375
        k(   32) = (   0.2788121   0.2788121   0.2788121), wk =   0.0312500
        k(   33) = (   0.2788121   0.2788121  -0.3717494), wk =   0.0468750
        k(   34) = (   0.2788121  -0.3717494  -0.3717494), wk =   0.0234375
        k(   35) = (  -0.3717494  -0.3717494  -0.3717494), wk =   0.0039062

     Dense  grid:   218983 G-vectors     FFT dimensions: (  75,  75,  75)

     Smooth grid:    77365 G-vectors     FFT dimensions: (  54,  54,  54)

     Estimated max dynamical RAM per process >      75.06 MB

     Estimated total dynamical RAM >     547.04 MB

     Initial potential from superposition of free atoms

     starting charge      33.9929, renormalised to      34.0000
     Starting wfcs are   21 randomized atomic wfcs
     Checking if some PAW data can be deallocated... 

     total cpu time spent up to now is      328.0 secs

     Self-consistent Calculation

     iteration #  1     ecut=   100.00 Ry     beta= 0.30
     Davidson diagonalization with overlap
     c_bands:  1 eigenvalues not converged
     ethr =  1.00E-06,  avg # of iterations = 11.5

     total cpu time spent up to now is      343.4 secs

     total energy              =    -451.70898423 Ry
     estimated scf accuracy    <       0.61057402 Ry

     iteration #  2     ecut=   100.00 Ry     beta= 0.30
     Davidson diagonalization with overlap
     ethr =  1.80E-03,  avg # of iterations =  2.0

     total cpu time spent up to now is      348.4 secs

     total energy              =    -451.78893127 Ry
     estimated scf accuracy    <       0.03602294 Ry

     iteration #  3     ecut=   100.00 Ry     beta= 0.30
     Davidson diagonalization with overlap
     ethr =  1.06E-04,  avg # of iterations =  1.3

     total cpu time spent up to now is      352.6 secs

     total energy              =    -451.78840268 Ry
     estimated scf accuracy    <       0.01300830 Ry

     iteration #  4     ecut=   100.00 Ry     beta= 0.30
     Davidson diagonalization with overlap
     ethr =  3.83E-05,  avg # of iterations =  2.8

     total cpu time spent up to now is      357.5 secs

     total energy              =    -451.78995805 Ry
     estimated scf accuracy    <       0.00008568 Ry

     iteration #  5     ecut=   100.00 Ry     beta= 0.30
     Davidson diagonalization with overlap
     ethr =  2.52E-07,  avg # of iterations =  4.6

     total cpu time spent up to now is      364.3 secs

     total energy              =    -451.79023911 Ry
     estimated scf accuracy    <       0.00007100 Ry

     iteration #  6     ecut=   100.00 Ry     beta= 0.30
     Davidson diagonalization with overlap
     ethr =  2.09E-07,  avg # of iterations =  3.9

     total cpu time spent up to now is      370.6 secs

     total energy              =    -451.79024605 Ry
     estimated scf accuracy    <       0.00012091 Ry

     iteration #  7     ecut=   100.00 Ry     beta= 0.30
     Davidson diagonalization with overlap
     ethr =  2.09E-07,  avg # of iterations =  2.0

     total cpu time spent up to now is      375.9 secs

     total energy              =    -451.79027171 Ry
     estimated scf accuracy    <       0.00000327 Ry

     iteration #  8     ecut=   100.00 Ry     beta= 0.30
     Davidson diagonalization with overlap
     ethr =  9.63E-09,  avg # of iterations =  4.0

     total cpu time spent up to now is      382.3 secs

     total energy              =    -451.79027276 Ry
     estimated scf accuracy    <       0.00000651 Ry

     iteration #  9     ecut=   100.00 Ry     beta= 0.30
     Davidson diagonalization with overlap
     ethr =  9.63E-09,  avg # of iterations =  2.0

     total cpu time spent up to now is      387.1 secs

     total energy              =    -451.79027329 Ry
     estimated scf accuracy    <       0.00000034 Ry

     iteration # 10     ecut=   100.00 Ry     beta= 0.30
     Davidson diagonalization with overlap
     ethr =  1.01E-09,  avg # of iterations =  4.0

     total cpu time spent up to now is      393.1 secs

     total energy              =    -451.79027346 Ry
     estimated scf accuracy    <       0.00000022 Ry

     iteration # 11     ecut=   100.00 Ry     beta= 0.30
     Davidson diagonalization with overlap
     ethr =  6.60E-10,  avg # of iterations =  2.0

     total cpu time spent up to now is      397.7 secs

     total energy              =    -451.79027345 Ry
     estimated scf accuracy    <       0.00000005 Ry

     iteration # 12     ecut=   100.00 Ry     beta= 0.30
     Davidson diagonalization with overlap
     ethr =  1.53E-10,  avg # of iterations =  4.0

     total cpu time spent up to now is      403.1 secs

     total energy              =    -451.79027347 Ry
     estimated scf accuracy    <       0.00000006 Ry

     iteration # 13     ecut=   100.00 Ry     beta= 0.30
     Davidson diagonalization with overlap
     ethr =  1.53E-10,  avg # of iterations =  4.0

     total cpu time spent up to now is      408.3 secs

     total energy              =    -451.79027350 Ry
     estimated scf accuracy    <          7.7E-09 Ry

     iteration # 14     ecut=   100.00 Ry     beta= 0.30
     Davidson diagonalization with overlap
     ethr =  2.27E-11,  avg # of iterations =  4.0

     total cpu time spent up to now is      413.3 secs

     total energy              =    -451.79027350 Ry
     estimated scf accuracy    <          6.3E-10 Ry

     iteration # 15     ecut=   100.00 Ry     beta= 0.30
     Davidson diagonalization with overlap
     ethr =  1.84E-12,  avg # of iterations =  4.0

     total cpu time spent up to now is      418.4 secs

     total energy              =    -451.79027350 Ry
     estimated scf accuracy    <          1.3E-10 Ry

     iteration # 16     ecut=   100.00 Ry     beta= 0.30
     Davidson diagonalization with overlap
     ethr =  3.70E-13,  avg # of iterations =  4.0

     total cpu time spent up to now is      424.0 secs

     total energy              =    -451.79027350 Ry
     estimated scf accuracy    <          5.6E-12 Ry

     iteration # 17     ecut=   100.00 Ry     beta= 0.30
     Davidson diagonalization with overlap
     ethr =  1.00E-13,  avg # of iterations =  1.0

     total cpu time spent up to now is      428.4 secs

     total energy              =    -451.79027350 Ry
     estimated scf accuracy    <          2.7E-12 Ry

     iteration # 18     ecut=   100.00 Ry     beta= 0.30
     Davidson diagonalization with overlap
     ethr =  1.00E-13,  avg # of iterations =  1.0

     total cpu time spent up to now is      432.6 secs

     total energy              =    -451.79027350 Ry
     estimated scf accuracy    <          1.1E-12 Ry

     iteration # 19     ecut=   100.00 Ry     beta= 0.30
     Davidson diagonalization with overlap
     ethr =  1.00E-13,  avg # of iterations =  1.0

     total cpu time spent up to now is      437.1 secs

     total energy              =    -451.79027350 Ry
     estimated scf accuracy    <          8.9E-14 Ry

     iteration # 20     ecut=   100.00 Ry     beta= 0.30
     Davidson diagonalization with overlap
     ethr =  1.00E-13,  avg # of iterations =  1.0

     total cpu time spent up to now is      441.6 secs

     End of self-consistent calculation

          k = 0.0000 0.0000 0.0000 (  9771 PWs)   bands (ev):

   -49.7049 -21.6064 -21.6064 -21.6064 -20.3442 -19.8473 -19.8473  -3.4152
    -3.4152  -3.4152  -2.3054  -1.0671  -1.0671  -1.0671  -1.0655  -1.0655
    -1.0655   5.6095   9.6373   9.6373   9.6373

          k = 0.0000 0.0000 0.0929 (  9695 PWs)   bands (ev):

   -49.7048 -21.6075 -21.6063 -21.6063 -20.3269 -19.8633 -19.8469  -3.8034
    -3.3912  -3.3912  -2.0223  -1.0978  -1.0978  -1.0818  -1.0653  -1.0653
    -0.8205   5.7370   9.2016   9.6131   9.6131

          k = 0.0000 0.0000 0.1859 (  9654 PWs)   bands (ev):

   -49.7048 -21.6103 -21.6062 -21.6062 -20.2791 -19.9078 -19.8461  -4.3421
    -3.3305  -3.3305  -1.8612  -1.1765  -1.1765  -1.1171  -1.0633  -1.0633
    -0.0505   6.0156   8.4610   9.5531   9.5531

          k = 0.0000 0.0000 0.2788 (  9662 PWs)   bands (ev):

   -49.7048 -21.6130 -21.6061 -21.6061 -20.2151 -19.9686 -19.8452  -4.7053
    -3.2650  -3.2650  -1.8618  -1.2600  -1.2600  -1.1519  -1.0613  -1.0613
     0.8226   6.0584   8.2541   9.4910   9.4910

          k = 0.0000 0.0000-0.3717 (  9658 PWs)   bands (ev):

   -49.7048 -21.6141 -21.6061 -21.6061 -20.1760 -20.0063 -19.8448  -4.8307
    -3.2363  -3.2363  -1.8739  -1.2963  -1.2963  -1.1662  -1.0605  -1.0605
     1.2292   5.9016   8.7952   9.4648   9.4648

          k = 0.0000 0.0929 0.0929 (  9671 PWs)   bands (ev):

   -49.7048 -21.6078 -21.6070 -21.6063 -20.3101 -19.8701 -19.8551  -4.1626
    -3.3672  -3.2159  -1.9315  -1.1539  -1.1000  -1.0934  -1.0930  -1.0238
    -0.5777   5.8596   8.9715   9.4330   9.5864

          k = 0.0000 0.0929 0.1859 (  9644 PWs)   bands (ev):

   -49.7048 -21.6101 -21.6071 -21.6062 -20.2638 -19.9097 -19.8576  -4.6472
    -3.3063  -3.0599  -1.8735  -1.2535  -1.1754  -1.1028  -1.0941  -1.0090
     0.1430   6.1257   8.3094   9.3352   9.5205

          k = 0.0000 0.0929 0.2788 (  9657 PWs)   bands (ev):

   -49.7048 -21.6126 -21.6069 -21.6061 -20.2015 -19.9683 -19.8572  -4.9825
    -3.2406  -2.9570  -1.8917  -1.3519  -1.2585  -1.1003  -1.0919  -1.0209
     0.9773   6.1340   8.0926   9.2198   9.4530

          k = 0.0000 0.0929-0.3717 (  9688 PWs)   bands (ev):

   -49.7048 -21.6137 -21.6068 -21.6061 -20.1631 -20.0053 -19.8569  -5.0998
    -3.2118  -2.9171  -1.9069  -1.3933  -1.2947  -1.0985  -1.0909  -1.0289
     1.3751   5.9491   8.4943   8.8727   9.4247

          k = 0.0000 0.1859 0.1859 (  9685 PWs)   bands (ev):

   -49.7048 -21.6102 -21.6086 -21.6061 -20.2215 -19.9244 -19.8809  -5.1050
    -3.2450  -2.6908  -1.9157  -1.3284  -1.1781  -1.1708  -1.1660  -0.9089
     0.7088   6.3778   7.7885   9.0369   9.4415

          k = 0.0000 0.1859 0.2788 (  9667 PWs)   bands (ev):

   -49.7048 -21.6117 -21.6087 -21.6060 -20.1636 -19.9686 -19.8902  -5.4271
    -3.1787  -2.4472  -1.9674  -1.4183  -1.2550  -1.1976  -1.1687  -0.8649
     1.4335   6.3366   7.5021   8.7287   9.3625

          k = 0.0000 0.1859-0.3717 (  9686 PWs)   bands (ev):

   -49.7048 -21.6125 -21.6085 -21.6060 -20.1263 -20.0029 -19.8915  -5.5403
    -3.1496  -2.3585  -1.9904  -1.4654  -1.2909  -1.2006  -1.1676  -0.8547
     1.8047   6.0749   7.6922   8.4656   9.3299

          k = 0.0000 0.2788 0.2788 (  9650 PWs)   bands (ev):

   -49.7048 -21.6111 -21.6103 -21.6059 -20.1103 -19.9776 -19.9301  -5.7464
    -3.1117  -2.0580  -2.0425  -1.4537  -1.3048  -1.2543  -1.2479  -0.7634
     2.0607   6.5360   6.7383   8.2825   9.2742

          k = 0.0000 0.2788-0.3717 (  9642 PWs)   bands (ev):

   -49.7048 -21.6114 -21.6103 -21.6059 -20.0718 -20.0004 -19.9439  -5.8591
    -3.0822  -2.0728  -1.8974  -1.4886  -1.3475  -1.2870  -1.2496  -0.7298
     2.4075   6.2243   6.7633   8.0777   9.2382

          k = 0.0000-0.3717-0.3717 (  9684 PWs)   bands (ev):

   -49.7048 -21.6110 -21.6110 -21.6058 -20.0155 -19.9994 -19.9994  -5.9719
    -3.0524  -2.1057  -1.6479  -1.4926  -1.4926  -1.2854  -1.2854  -0.6846
     2.7524   6.2975   6.2975   7.9159   9.2011

          k = 0.0929 0.0929 0.0929 (  9678 PWs)   bands (ev):

   -49.7048 -21.6081 -21.6069 -21.6069 -20.2940 -19.8698 -19.8698  -4.4535
    -3.1917  -3.1917  -1.8973  -1.2149  -1.2149  -1.0315  -1.0315  -1.0122
    -0.3560   5.9778   8.9733   8.9733   9.6263

          k = 0.0929 0.0929 0.1859 (  9674 PWs)   bands (ev):

   -49.7048 -21.6100 -21.6072 -21.6067 -20.2492 -19.9111 -19.8690  -4.8992
    -3.1299  -2.9800  -1.8825  -1.3540  -1.2408  -1.0623  -1.0249  -0.9843
     0.3173   6.2320   8.2361   8.9689   9.5246

          k = 0.0929 0.0929 0.2788 (  9660 PWs)   bands (ev):

   -49.7048 -21.6123 -21.6071 -21.6065 -20.1888 -19.9681 -19.8683  -5.2171
    -3.0620  -2.8428  -1.9096  -1.4716  -1.2366  -1.1406  -1.0223  -0.9795
     1.1201   6.2035   8.0081   8.9531   9.2399

          k = 0.0929 0.0929-0.3717 (  9666 PWs)   bands (ev):

   -49.7048 -21.6132 -21.6070 -21.6064 -20.1510 -20.0044 -19.8679  -5.3293
    -3.0317  -2.7925  -1.9261  -1.5190  -1.2238  -1.1870  -1.0213  -0.9810
     1.5109   5.9895   8.4219   8.7326   8.9434

          k = 0.0929 0.1859 0.1859 (  9649 PWs)   bands (ev):

   -49.7048 -21.6101 -21.6084 -21.6067 -20.2086 -19.9242 -19.8921  -5.3175
    -3.0167  -2.6681  -1.9181  -1.4500  -1.3629  -1.0377  -1.0209  -0.9048
     0.8488   6.4745   7.7890   8.6246   9.3265

          k = 0.0929 0.1859 0.2788 (  9668 PWs)   bands (ev):

   -49.7048 -21.6114 -21.6086 -21.6065 -20.1529 -19.9686 -19.8989  -5.6237
    -2.9427  -2.4199  -1.9665  -1.5646  -1.3848  -1.0926  -1.0206  -0.8594
     1.5522   6.3882   7.5094   8.5162   8.9735

          k = 0.0929 0.1859-0.3717 (  9654 PWs)   bands (ev):

   -49.7048 -21.6121 -21.6084 -21.6064 -20.1166 -20.0023 -19.8996  -5.7326
    -2.9109  -2.3287  -1.9887  -1.6184  -1.3758  -1.1323  -1.0191  -0.8475
     1.9195   6.0943   7.7102   8.3995   8.7692

          k = 0.0929 0.2788 0.2788 (  9678 PWs)   bands (ev):

   -49.7048 -21.6107 -21.6100 -21.6064 -20.1025 -19.9775 -19.9357  -5.9270
    -2.8669  -2.0512  -2.0343  -1.6094  -1.4965  -1.0859  -1.0668  -0.7620
     2.1632   6.5669   6.7206   8.2200   8.8124

          k = 0.0929 0.2788-0.3717 (  9656 PWs)   bands (ev):

   -49.7048 -21.6111 -21.6100 -21.6063 -20.0658 -20.0002 -19.9477  -6.0354
    -2.8349  -2.0635  -1.9011  -1.6517  -1.5162  -1.1159  -1.0716  -0.7286
     2.5078   6.2140   6.7507   8.0736   8.7706

          k = 0.0929-0.3717-0.3717 (  9652 PWs)   bands (ev):

   -49.7048 -21.6106 -21.6106 -21.6062 -20.0131 -19.9994 -19.9994  -6.1438
    -2.8029  -2.0952  -1.6575  -1.6575  -1.6472  -1.1115  -1.1115  -0.6838
     2.8514   6.2701   6.2701   7.9387   8.7679

          k = 0.1859 0.1859 0.1859 (  9651 PWs)   bands (ev):

   -49.7048 -21.6100 -21.6080 -21.6080 -20.1727 -19.9237 -19.9237  -5.6993
    -2.6076  -2.6076  -1.9375  -1.5563  -1.5563  -0.9351  -0.9351  -0.8771
     1.2922   6.7048   7.7833   7.7833   9.0304

          k = 0.1859 0.1859 0.2788 (  9674 PWs)   bands (ev):

   -49.7048 -21.6106 -21.6084 -21.6075 -20.1230 -19.9691 -19.9232  -5.9900
    -2.5347  -2.3022  -1.9770  -1.7139  -1.5726  -0.9386  -0.9184  -0.8285
     1.9259   6.5178   7.4616   7.7681   8.5894

          k = 0.1859 0.1859-0.3717 (  9666 PWs)   bands (ev):

   -49.7048 -21.6111 -21.6084 -21.6073 -20.0893 -20.0011 -19.9230  -6.0946
    -2.4986  -2.1956  -1.9978  -1.7788  -1.5569  -0.9639  -0.9155  -0.8104
     2.2775   6.1396   7.7350   7.7591   8.2343

          k = 0.1859 0.2788 0.2788 (  9676 PWs)   bands (ev):

   -49.7048 -21.6100 -21.6092 -21.6074 -20.0808 -19.9773 -19.9520  -6.2748
    -2.3683  -2.0313  -2.0165  -1.7885  -1.6868  -0.8953  -0.8911  -0.7570
     2.4885   6.6422   6.6717   7.6747   8.2646

          k = 0.1859 0.2788-0.3717 (  9672 PWs)   bands (ev):

   -49.7048 -21.6101 -21.6093 -21.6073 -20.0493 -19.9998 -19.9589  -6.3781
    -2.3232  -2.0416  -1.9199  -1.8444  -1.6703  -0.9030  -0.8864  -0.7248
     2.8242   6.1819   6.7121   7.7652   8.0685

          k = 0.1859-0.3717-0.3717 (  9680 PWs)   bands (ev):

   -49.7047 -21.6097 -21.6097 -21.6071 -20.0073 -19.9993 -19.9993  -6.4812
    -2.2776  -2.0697  -1.8538  -1.8538  -1.6455  -0.8927  -0.8927  -0.6819
     3.1630   6.1982   6.1982   7.7695   8.0016

          k = 0.2788 0.2788 0.2788 (  9682 PWs)   bands (ev):

   -49.7047 -21.6093 -21.6084 -21.6084 -20.0504 -19.9771 -19.9771  -6.5514
    -2.0134  -1.9988  -1.9988  -1.8307  -1.8307  -0.7877  -0.7877  -0.7381
     3.0023   6.6149   6.6149   6.7804   8.1228

          k = 0.2788 0.2788-0.3717 (  9682 PWs)   bands (ev):

   -49.7047 -21.6092 -21.6087 -21.6081 -20.0259 -19.9993 -19.9770  -6.6526
    -2.0285  -1.9654  -1.9639  -1.9028  -1.7155  -0.7712  -0.7614  -0.7112
     3.3323   6.1393   6.5892   6.7739   8.0737

          k = 0.2788-0.3717-0.3717 (  9676 PWs)   bands (ev):

   -49.7047 -21.6088 -21.6088 -21.6081 -20.0015 -19.9992 -19.9992  -6.7533
    -2.0438  -1.9865  -1.9865  -1.8190  -1.6438  -0.7362  -0.7362  -0.6801
     3.6746   6.1185   6.1185   6.6732   8.0802

          k =-0.3717-0.3717-0.3717 (  9568 PWs)   bands (ev):

   -49.7047 -21.6085 -21.6085 -21.6085 -19.9991 -19.9991 -19.9991  -6.8534
    -2.0330  -2.0330  -2.0330  -1.6431  -1.6431  -0.6793  -0.6793  -0.6793
     4.0428   6.0834   6.0834   6.0834   8.1196

     the Fermi energy is     4.6946 ev

!    total energy              =    -451.79027350 Ry
     total all-electron energy =     -5122.529252 Ry
     estimated scf accuracy    <          7.7E-15 Ry
     smearing contrib. (-TS)   =      -0.00000000 Ry
     internal energy E=F+TS    =    -451.79027350 Ry

     The total energy is F=E-TS. E is the sum of the following terms:
     one-electron contribution =    -157.50121687 Ry
     hartree contribution      =      96.59596673 Ry
     xc contribution           =     -50.03181363 Ry
     ewald contribution        =    -139.41745241 Ry
     one-center paw contrib.   =    -201.43575732 Ry

     convergence has been achieved in  20 iterations

     Forces acting on atoms (cartesian axes, Ry/au):

     atom    1 type  1   force =     0.00000000    0.00000000    0.00000000
     atom    2 type  2   force =     0.00000000    0.00000000    0.00000000
     atom    3 type  3   force =     0.00000000    0.00000000    0.00000000
     atom    4 type  3   force =     0.00000000    0.00000000    0.00000000
     atom    5 type  3   force =     0.00000000    0.00000000    0.00000000

     Total force =     0.000000     Total SCF correction =     0.000000


     Computing stress (Cartesian axis) and pressure

          total   stress  (Ry/bohr**3)                   (kbar)     P=        4.42
   0.00003002   0.00000000   0.00000000            4.42        0.00        0.00
   0.00000000   0.00003002   0.00000000            0.00        4.42        0.00
   0.00000000   0.00000000   0.00003002            0.00        0.00        4.42


     Writing all to output data dir ./tmp/NaGeF3.save/ :
     XML data file, charge density, pseudopotentials, collected wavefunctions

     init_run     :      4.86s CPU      4.13s WALL (       2 calls)
     electrons    :    564.93s CPU    416.04s WALL (      10 calls)
     update_pot   :      0.81s CPU      0.82s WALL (       8 calls)
     forces       :      4.85s CPU      3.53s WALL (      10 calls)
     stress       :     26.49s CPU     20.30s WALL (      10 calls)

     Called by init_run:
     wfcinit      :      2.82s CPU      2.06s WALL (       2 calls)
     potinit      :      0.65s CPU      0.68s WALL (       2 calls)
     hinit0       :      1.07s CPU      1.08s WALL (       2 calls)

     Called by electrons:
     c_bands      :    444.56s CPU    324.19s WALL (     152 calls)
     sum_band     :     86.45s CPU     64.21s WALL (     152 calls)
     v_of_rho     :     14.84s CPU     11.46s WALL (     160 calls)
     newd         :      7.41s CPU      6.32s WALL (     160 calls)
     PAW_pot      :     11.01s CPU      9.33s WALL (     168 calls)
     mix_rho      :      1.76s CPU      1.32s WALL (     152 calls)

     Called by c_bands:
     init_us_2    :      9.78s CPU      7.04s WALL (    6012 calls)
     cegterg      :    407.64s CPU    297.22s WALL (    2736 calls)

     Called by *egterg:
     cdiaghg      :     28.23s CPU     20.00s WALL (   11508 calls)
     h_psi        :    320.76s CPU    241.61s WALL (   11724 calls)
     s_psi        :      7.74s CPU      4.55s WALL (   11724 calls)
     g_psi        :      3.06s CPU      2.09s WALL (    8952 calls)

     Called by h_psi:
     h_psi:calbec :     12.00s CPU      7.95s WALL (   11724 calls)
     vloc_psi     :    297.69s CPU    226.93s WALL (   11724 calls)
     add_vuspsi   :      9.11s CPU      5.33s WALL (   11724 calls)

     General routines
     calbec       :     18.91s CPU     12.44s WALL (   15504 calls)
     fft          :      7.25s CPU      6.26s WALL (    2320 calls)
     ffts         :      0.61s CPU      0.58s WALL (     312 calls)
     fftw         :    298.75s CPU    229.47s WALL (  368214 calls)
     interpolate  :      0.78s CPU      0.83s WALL (     160 calls)

     Parallel routines

     PWSCF        :  10m 4.28s CPU   7m26.84s WALL


   This run was terminated on:  15:20:57  10May2025            

=------------------------------------------------------------------------------=
   JOB DONE.
=------------------------------------------------------------------------------=
