
     Program PWSCF v.7.3.1 starts on 10May2025 at 15:24: 8 

     This program is part of the open-source Quantum ESPRESSO suite
     for quantum simulation of materials; please cite
         "P. Giannozzi et al., J. Phys.:Condens. Matter 21 395502 (2009);
         "P. Giannozzi et al., J. Phys.:Condens. Matter 29 465901 (2017);
         "P. Giannozzi et al., J. Chem. Phys. 152 154105 (2020);
          URL http://www.quantum-espresso.org", 
     in publications or presentations arising from this work. More details at
     http://www.quantum-espresso.org/quote

     Parallel version (MPI), running on     8 processors

     MPI processes distributed on     1 nodes
     42192 MiB available memory on the printing compute node when the environment starts

     Waiting for input...
     Reading input from standard input

     Current dimensions of program PWSCF are:
     Max number of different atomic species (ntypx) = 10
     Max number of k-points (npk) = 120000
     Max angular momentum in pseudopotentials (lmaxx) =  4
     file Na.pbe-spn-kjpaw_psl.1.0.0.UPF: wavefunction(s)  2P renormalized
     file F.pbe-n-kjpaw_psl.1.0.0.UPF: wavefunction(s)  2S 2P renormalized

     IMPORTANT: XC functional enforced from input :
     Exchange-correlation= PBE
                           (   1   4   3   4   0   0   0)
     Any further DFT definition will be discarded
     Please, verify this is what you really want

     Message from routine setup:
     using ibrav=0 with symmetry is DISCOURAGED, use correct ibrav instead

     K-points division:     npool     =       2
     R & G space division:  proc/nbgrp/npool/nimage =       4
     Subspace diagonalization in iterative solution of the eigenvalue problem:
     a serial algorithm will be used


     Parallelization info
     --------------------
     sticks:   dense  smooth     PW     G-vecs:    dense   smooth      PW
     Min        1099     551    155                54745    19341    2937
     Max        1100     553    156                54747    19342    2940
     Sum        4397    2209    621               218983    77365   11753

     Using Slab Decomposition



     bravais-lattice index     =            0
     lattice parameter (alat)  =       8.3032  a.u.
     unit-cell volume          =     572.4487 (a.u.)^3
     number of atoms/cell      =            5
     number of atomic types    =            3
     number of electrons       =        34.00
     number of Kohn-Sham states=           21
     kinetic-energy cutoff     =     100.0000  Ry
     charge density cutoff     =     800.0000  Ry
     scf convergence threshold =      1.0E-12
     mixing beta               =       0.3000
     number of iterations used =            8  plain     mixing
     Exchange-correlation= PBE
                           (   1   4   3   4   0   0   0)

     celldm(1)=   8.303201  celldm(2)=   0.000000  celldm(3)=   0.000000
     celldm(4)=   0.000000  celldm(5)=   0.000000  celldm(6)=   0.000000

     crystal axes: (cart. coord. in units of alat)
               a(1) = (   1.000000   0.000000   0.000000 )  
               a(2) = (   0.000000   1.000000   0.000000 )  
               a(3) = (   0.000000   0.000000   1.000000 )  

     reciprocal axes: (cart. coord. in units 2 pi/alat)
               b(1) = (  1.000000  0.000000  0.000000 )  
               b(2) = (  0.000000  1.000000  0.000000 )  
               b(3) = (  0.000000  0.000000  1.000000 )  


     PseudoPot. # 1 for Na read from file:
     /home/administrator/Downloads/BURAI/BURAI1.3/pseudopot/Na.pbe-spn-kjpaw_psl.1.0.0.UPF
     MD5 check sum: abc0658962c54638d3013c5a8f1b04c6
     Pseudo is Projector augmented-wave + core cor, Zval =  9.0
     Generated using "atomic" code by A. Dal Corso  v.5.1.2
     Shape of augmentation charge: PSQ
     Using radial grid of 1121 points,  4 beta functions with: 
                l(1) =   0
                l(2) =   0
                l(3) =   1
                l(4) =   1
     Q(r) pseudized with 0 coefficients 


     PseudoPot. # 2 for Ge read from file:
     /home/administrator/Downloads/BURAI/BURAI1.3/pseudopot/Ge.pbe-n-kjpaw_psl.1.0.0.UPF
     MD5 check sum: 4aa708d04ebeac8ef886ea6b7189f44d
     Pseudo is Projector augmented-wave + core cor, Zval =  4.0
     Generated using "atomic" code by A. Dal Corso  v.5.1.2
     Shape of augmentation charge: PSQ
     Using radial grid of 1207 points,  4 beta functions with: 
                l(1) =   0
                l(2) =   0
                l(3) =   1
                l(4) =   1
     Q(r) pseudized with 0 coefficients 


     PseudoPot. # 3 for F  read from file:
     /home/administrator/Downloads/BURAI/BURAI1.3/pseudopot/F.pbe-n-kjpaw_psl.1.0.0.UPF
     MD5 check sum: de2194216b7114fcf395f1df79715f8b
     Pseudo is Projector augmented-wave + core cor, Zval =  7.0
     Generated using "atomic" code by A. Dal Corso  v.5.1.2
     Shape of augmentation charge: PSQ
     Using radial grid of 1105 points,  4 beta functions with: 
                l(1) =   0
                l(2) =   0
                l(3) =   1
                l(4) =   1
     Q(r) pseudized with 0 coefficients 


     atomic species   valence    mass     pseudopotential
     Na                9.00    22.98980     Na( 1.00)
     Ge                4.00    72.63000     Ge( 1.00)
     F                 7.00    18.99840     F ( 1.00)

     48 Sym. Ops., with inversion, found



   Cartesian axes

     site n.     atom                  positions (alat units)
         1        Na     tau(   1) = (   0.0000000   0.0000000   0.0000000  )
         2        Ge     tau(   2) = (   0.5000000   0.5000000   0.5000000  )
         3        F      tau(   3) = (   0.5000000   0.5000000   0.0000000  )
         4        F      tau(   4) = (   0.5000000   0.0000000   0.5000000  )
         5        F      tau(   5) = (   0.0000000   0.5000000   0.5000000  )

     number of k points=    35  Gaussian smearing, width (Ry)=  0.0100
                       cart. coord. in units 2pi/alat
        k(    1) = (   0.0000000   0.0000000   0.0000000), wk =   0.0039062
        k(    2) = (   0.0000000   0.0000000   0.1250000), wk =   0.0234375
        k(    3) = (   0.0000000   0.0000000   0.2500000), wk =   0.0234375
        k(    4) = (   0.0000000   0.0000000   0.3750000), wk =   0.0234375
        k(    5) = (   0.0000000   0.0000000  -0.5000000), wk =   0.0117188
        k(    6) = (   0.0000000   0.1250000   0.1250000), wk =   0.0468750
        k(    7) = (   0.0000000   0.1250000   0.2500000), wk =   0.0937500
        k(    8) = (   0.0000000   0.1250000   0.3750000), wk =   0.0937500
        k(    9) = (   0.0000000   0.1250000  -0.5000000), wk =   0.0468750
        k(   10) = (   0.0000000   0.2500000   0.2500000), wk =   0.0468750
        k(   11) = (   0.0000000   0.2500000   0.3750000), wk =   0.0937500
        k(   12) = (   0.0000000   0.2500000  -0.5000000), wk =   0.0468750
        k(   13) = (   0.0000000   0.3750000   0.3750000), wk =   0.0468750
        k(   14) = (   0.0000000   0.3750000  -0.5000000), wk =   0.0468750
        k(   15) = (   0.0000000  -0.5000000  -0.5000000), wk =   0.0117188
        k(   16) = (   0.1250000   0.1250000   0.1250000), wk =   0.0312500
        k(   17) = (   0.1250000   0.1250000   0.2500000), wk =   0.0937500
        k(   18) = (   0.1250000   0.1250000   0.3750000), wk =   0.0937500
        k(   19) = (   0.1250000   0.1250000  -0.5000000), wk =   0.0468750
        k(   20) = (   0.1250000   0.2500000   0.2500000), wk =   0.0937500
        k(   21) = (   0.1250000   0.2500000   0.3750000), wk =   0.1875000
        k(   22) = (   0.1250000   0.2500000  -0.5000000), wk =   0.0937500
        k(   23) = (   0.1250000   0.3750000   0.3750000), wk =   0.0937500
        k(   24) = (   0.1250000   0.3750000  -0.5000000), wk =   0.0937500
        k(   25) = (   0.1250000  -0.5000000  -0.5000000), wk =   0.0234375
        k(   26) = (   0.2500000   0.2500000   0.2500000), wk =   0.0312500
        k(   27) = (   0.2500000   0.2500000   0.3750000), wk =   0.0937500
        k(   28) = (   0.2500000   0.2500000  -0.5000000), wk =   0.0468750
        k(   29) = (   0.2500000   0.3750000   0.3750000), wk =   0.0937500
        k(   30) = (   0.2500000   0.3750000  -0.5000000), wk =   0.0937500
        k(   31) = (   0.2500000  -0.5000000  -0.5000000), wk =   0.0234375
        k(   32) = (   0.3750000   0.3750000   0.3750000), wk =   0.0312500
        k(   33) = (   0.3750000   0.3750000  -0.5000000), wk =   0.0468750
        k(   34) = (   0.3750000  -0.5000000  -0.5000000), wk =   0.0234375
        k(   35) = (  -0.5000000  -0.5000000  -0.5000000), wk =   0.0039062

     Dense  grid:   218983 G-vectors     FFT dimensions: (  75,  75,  75)

     Smooth grid:    77365 G-vectors     FFT dimensions: (  54,  54,  54)

     Estimated max dynamical RAM per process >      70.93 MB

     Estimated total dynamical RAM >     513.99 MB

     Initial potential from superposition of free atoms

     starting charge      33.9929, renormalised to      34.0000
     Starting wfcs are   21 randomized atomic wfcs
     Checking if some PAW data can be deallocated... 

     total cpu time spent up to now is        2.9 secs

     Self-consistent Calculation

     iteration #  1     ecut=   100.00 Ry     beta= 0.30
     Davidson diagonalization with overlap
     ethr =  1.00E-02,  avg # of iterations =  2.0

     total cpu time spent up to now is        7.6 secs

     total energy              =    -451.67837113 Ry
     estimated scf accuracy    <       0.65502921 Ry

     iteration #  2     ecut=   100.00 Ry     beta= 0.30
     Davidson diagonalization with overlap
     ethr =  1.93E-03,  avg # of iterations =  2.0

     total cpu time spent up to now is       12.6 secs

     total energy              =    -451.78952327 Ry
     estimated scf accuracy    <       0.03219915 Ry

     iteration #  3     ecut=   100.00 Ry     beta= 0.30
     Davidson diagonalization with overlap
     ethr =  9.47E-05,  avg # of iterations =  2.8

     total cpu time spent up to now is       17.5 secs

     total energy              =    -451.78890445 Ry
     estimated scf accuracy    <       0.01317777 Ry

     iteration #  4     ecut=   100.00 Ry     beta= 0.30
     Davidson diagonalization with overlap
     ethr =  3.88E-05,  avg # of iterations =  2.2

     total cpu time spent up to now is       22.4 secs

     total energy              =    -451.79007987 Ry
     estimated scf accuracy    <       0.00019481 Ry

     iteration #  5     ecut=   100.00 Ry     beta= 0.30
     Davidson diagonalization with overlap
     ethr =  5.73E-07,  avg # of iterations =  5.2

     total cpu time spent up to now is       29.2 secs

     total energy              =    -451.79025375 Ry
     estimated scf accuracy    <       0.00005221 Ry

     iteration #  6     ecut=   100.00 Ry     beta= 0.30
     Davidson diagonalization with overlap
     ethr =  1.54E-07,  avg # of iterations =  2.2

     total cpu time spent up to now is       34.6 secs

     total energy              =    -451.79027154 Ry
     estimated scf accuracy    <       0.00001686 Ry

     iteration #  7     ecut=   100.00 Ry     beta= 0.30
     Davidson diagonalization with overlap
     ethr =  4.96E-08,  avg # of iterations =  1.7

     total cpu time spent up to now is       39.1 secs

     total energy              =    -451.79027241 Ry
     estimated scf accuracy    <       0.00000252 Ry

     iteration #  8     ecut=   100.00 Ry     beta= 0.30
     Davidson diagonalization with overlap
     ethr =  7.40E-09,  avg # of iterations =  4.0

     total cpu time spent up to now is       45.3 secs

     total energy              =    -451.79027303 Ry
     estimated scf accuracy    <       0.00000207 Ry

     iteration #  9     ecut=   100.00 Ry     beta= 0.30
     Davidson diagonalization with overlap
     ethr =  6.08E-09,  avg # of iterations =  4.1

     total cpu time spent up to now is       50.6 secs

     total energy              =    -451.79027344 Ry
     estimated scf accuracy    <       0.00000004 Ry

     iteration # 10     ecut=   100.00 Ry     beta= 0.30
     Davidson diagonalization with overlap
     ethr =  1.08E-10,  avg # of iterations =  4.1

     total cpu time spent up to now is       56.3 secs

     total energy              =    -451.79027347 Ry
     estimated scf accuracy    <       0.00000002 Ry

     iteration # 11     ecut=   100.00 Ry     beta= 0.30
     Davidson diagonalization with overlap
     ethr =  5.75E-11,  avg # of iterations =  4.0

     total cpu time spent up to now is       61.7 secs

     total energy              =    -451.79027349 Ry
     estimated scf accuracy    <          1.2E-09 Ry

     iteration # 12     ecut=   100.00 Ry     beta= 0.30
     Davidson diagonalization with overlap
     ethr =  3.55E-12,  avg # of iterations =  2.0

     total cpu time spent up to now is       67.0 secs

     total energy              =    -451.79027349 Ry
     estimated scf accuracy    <          5.0E-10 Ry

     iteration # 13     ecut=   100.00 Ry     beta= 0.30
     Davidson diagonalization with overlap
     ethr =  1.47E-12,  avg # of iterations =  2.0

     total cpu time spent up to now is       71.6 secs

     total energy              =    -451.79027350 Ry
     estimated scf accuracy    <          4.2E-11 Ry

     iteration # 14     ecut=   100.00 Ry     beta= 0.30
     Davidson diagonalization with overlap
     ethr =  1.23E-13,  avg # of iterations =  4.0

     total cpu time spent up to now is       77.0 secs

     total energy              =    -451.79027350 Ry
     estimated scf accuracy    <          2.4E-12 Ry

     iteration # 15     ecut=   100.00 Ry     beta= 0.30
     Davidson diagonalization with overlap
     ethr =  1.00E-13,  avg # of iterations =  1.0

     total cpu time spent up to now is       81.3 secs

     End of self-consistent calculation

          k = 0.0000 0.0000 0.0000 (  9771 PWs)   bands (ev):

   -49.7049 -21.6064 -21.6064 -21.6064 -20.3442 -19.8473 -19.8473  -3.4152
    -3.4152  -3.4152  -2.3054  -1.0671  -1.0671  -1.0671  -1.0655  -1.0655
    -1.0655   5.6095   9.6373   9.6373   9.6373

          k = 0.0000 0.0000 0.1250 (  9695 PWs)   bands (ev):

   -49.7048 -21.6075 -21.6064 -21.6064 -20.3269 -19.8632 -19.8469  -3.8034
    -3.3912  -3.3912  -2.0223  -1.0978  -1.0978  -1.0818  -1.0653  -1.0653
    -0.8205   5.7370   9.2016   9.6131   9.6131

          k = 0.0000 0.0000 0.2500 (  9654 PWs)   bands (ev):

   -49.7048 -21.6103 -21.6063 -21.6063 -20.2791 -19.9078 -19.8461  -4.3421
    -3.3305  -3.3305  -1.8612  -1.1765  -1.1765  -1.1171  -1.0633  -1.0633
    -0.0505   6.0156   8.4610   9.5531   9.5531

          k = 0.0000 0.0000 0.3750 (  9662 PWs)   bands (ev):

   -49.7048 -21.6130 -21.6061 -21.6061 -20.2151 -19.9686 -19.8452  -4.7053
    -3.2650  -3.2650  -1.8618  -1.2600  -1.2600  -1.1519  -1.0613  -1.0613
     0.8226   6.0584   8.2541   9.4910   9.4910

          k = 0.0000 0.0000-0.5000 (  9658 PWs)   bands (ev):

   -49.7048 -21.6141 -21.6061 -21.6061 -20.1760 -20.0063 -19.8448  -4.8307
    -3.2363  -3.2363  -1.8739  -1.2963  -1.2963  -1.1662  -1.0605  -1.0605
     1.2292   5.9016   8.7952   9.0516   9.4648

          k = 0.0000 0.1250 0.1250 (  9671 PWs)   bands (ev):

   -49.7048 -21.6078 -21.6070 -21.6063 -20.3101 -19.8701 -19.8551  -4.1626
    -3.3672  -3.2159  -1.9315  -1.1539  -1.1000  -1.0934  -1.0930  -1.0238
    -0.5777   5.8596   8.9715   9.4330   9.5864

          k = 0.0000 0.1250 0.2500 (  9644 PWs)   bands (ev):

   -49.7048 -21.6101 -21.6071 -21.6062 -20.2638 -19.9097 -19.8576  -4.6472
    -3.3063  -3.0599  -1.8735  -1.2535  -1.1754  -1.1028  -1.0941  -1.0090
     0.1430   6.1257   8.3094   9.3352   9.5205

          k = 0.0000 0.1250 0.3750 (  9657 PWs)   bands (ev):

   -49.7048 -21.6126 -21.6069 -21.6061 -20.2015 -19.9683 -19.8572  -4.9825
    -3.2406  -2.9570  -1.8917  -1.3519  -1.2585  -1.1003  -1.0919  -1.0209
     0.9773   6.1340   8.0926   9.2198   9.4530

          k = 0.0000 0.1250-0.5000 (  9688 PWs)   bands (ev):

   -49.7048 -21.6137 -21.6068 -21.6061 -20.1631 -20.0053 -19.8569  -5.0998
    -3.2118  -2.9171  -1.9069  -1.3933  -1.2947  -1.0985  -1.0909  -1.0289
     1.3751   5.9491   8.4943   8.8727   9.4247

          k = 0.0000 0.2500 0.2500 (  9685 PWs)   bands (ev):

   -49.7048 -21.6102 -21.6086 -21.6061 -20.2215 -19.9244 -19.8809  -5.1050
    -3.2450  -2.6908  -1.9157  -1.3284  -1.1781  -1.1708  -1.1660  -0.9089
     0.7088   6.3778   7.7885   9.0369   9.4415

          k = 0.0000 0.2500 0.3750 (  9667 PWs)   bands (ev):

   -49.7048 -21.6117 -21.6087 -21.6060 -20.1636 -19.9686 -19.8902  -5.4271
    -3.1787  -2.4472  -1.9674  -1.4183  -1.2550  -1.1976  -1.1687  -0.8649
     1.4335   6.3366   7.5021   8.7287   9.3625

          k = 0.0000 0.2500-0.5000 (  9686 PWs)   bands (ev):

   -49.7048 -21.6126 -21.6085 -21.6060 -20.1263 -20.0029 -19.8915  -5.5403
    -3.1496  -2.3585  -1.9904  -1.4654  -1.2909  -1.2006  -1.1676  -0.8547
     1.8047   6.0749   7.6922   8.4656   9.3299

          k = 0.0000 0.3750 0.3750 (  9650 PWs)   bands (ev):

   -49.7048 -21.6111 -21.6103 -21.6059 -20.1103 -19.9776 -19.9301  -5.7464
    -3.1117  -2.0580  -2.0425  -1.4537  -1.3048  -1.2543  -1.2479  -0.7634
     2.0607   6.5360   6.7383   8.2825   9.2742

          k = 0.0000 0.3750-0.5000 (  9642 PWs)   bands (ev):

   -49.7048 -21.6114 -21.6103 -21.6059 -20.0718 -20.0004 -19.9439  -5.8591
    -3.0822  -2.0728  -1.8974  -1.4886  -1.3475  -1.2870  -1.2496  -0.7298
     2.4075   6.2243   6.7633   8.0777   9.2382

          k = 0.0000-0.5000-0.5000 (  9684 PWs)   bands (ev):

   -49.7048 -21.6110 -21.6110 -21.6058 -20.0155 -19.9994 -19.9994  -5.9719
    -3.0524  -2.1057  -1.6479  -1.4926  -1.4926  -1.2854  -1.2854  -0.6846
     2.7524   6.2975   6.2975   7.9159   9.2011

          k = 0.1250 0.1250 0.1250 (  9678 PWs)   bands (ev):

   -49.7048 -21.6081 -21.6070 -21.6070 -20.2940 -19.8698 -19.8698  -4.4535
    -3.1917  -3.1917  -1.8973  -1.2149  -1.2149  -1.0315  -1.0315  -1.0122
    -0.3560   5.9778   8.9733   8.9733   9.6263

          k = 0.1250 0.1250 0.2500 (  9674 PWs)   bands (ev):

   -49.7048 -21.6100 -21.6072 -21.6067 -20.2492 -19.9111 -19.8690  -4.8992
    -3.1299  -2.9800  -1.8825  -1.3540  -1.2408  -1.0623  -1.0249  -0.9843
     0.3173   6.2320   8.2361   8.9689   9.5246

          k = 0.1250 0.1250 0.3750 (  9660 PWs)   bands (ev):

   -49.7048 -21.6123 -21.6071 -21.6065 -20.1887 -19.9681 -19.8683  -5.2171
    -3.0620  -2.8428  -1.9096  -1.4716  -1.2366  -1.1406  -1.0223  -0.9795
     1.1201   6.2035   8.0081   8.9531   9.2399

          k = 0.1250 0.1250-0.5000 (  9666 PWs)   bands (ev):

   -49.7048 -21.6132 -21.6070 -21.6065 -20.1510 -20.0044 -19.8679  -5.3293
    -3.0317  -2.7925  -1.9261  -1.5190  -1.2238  -1.1870  -1.0213  -0.9810
     1.5109   5.9895   8.4219   8.7326   8.9434

          k = 0.1250 0.2500 0.2500 (  9649 PWs)   bands (ev):

   -49.7048 -21.6101 -21.6084 -21.6067 -20.2086 -19.9242 -19.8921  -5.3175
    -3.0167  -2.6681  -1.9181  -1.4500  -1.3629  -1.0377  -1.0209  -0.9048
     0.8488   6.4745   7.7890   8.6246   9.3265

          k = 0.1250 0.2500 0.3750 (  9668 PWs)   bands (ev):

   -49.7048 -21.6114 -21.6086 -21.6065 -20.1529 -19.9686 -19.8989  -5.6237
    -2.9427  -2.4199  -1.9665  -1.5646  -1.3848  -1.0926  -1.0206  -0.8594
     1.5522   6.3882   7.5094   8.5162   8.9735

          k = 0.1250 0.2500-0.5000 (  9654 PWs)   bands (ev):

   -49.7048 -21.6121 -21.6084 -21.6064 -20.1166 -20.0023 -19.8996  -5.7326
    -2.9109  -2.3287  -1.9887  -1.6184  -1.3758  -1.1322  -1.0191  -0.8475
     1.9195   6.0943   7.7102   8.3995   8.7692

          k = 0.1250 0.3750 0.3750 (  9678 PWs)   bands (ev):

   -49.7048 -21.6107 -21.6100 -21.6064 -20.1025 -19.9775 -19.9357  -5.9270
    -2.8669  -2.0512  -2.0343  -1.6094  -1.4965  -1.0859  -1.0668  -0.7620
     2.1632   6.5669   6.7206   8.2200   8.8124

          k = 0.1250 0.3750-0.5000 (  9656 PWs)   bands (ev):

   -49.7048 -21.6111 -21.6100 -21.6063 -20.0658 -20.0002 -19.9477  -6.0354
    -2.8349  -2.0635  -1.9011  -1.6517  -1.5162  -1.1159  -1.0716  -0.7286
     2.5078   6.2140   6.7507   8.0736   8.7706

          k = 0.1250-0.5000-0.5000 (  9652 PWs)   bands (ev):

   -49.7048 -21.6106 -21.6106 -21.6062 -20.0131 -19.9993 -19.9993  -6.1438
    -2.8029  -2.0952  -1.6575  -1.6575  -1.6472  -1.1115  -1.1115  -0.6838
     2.8514   6.2701   6.2701   7.9387   8.7679

          k = 0.2500 0.2500 0.2500 (  9651 PWs)   bands (ev):

   -49.7048 -21.6100 -21.6080 -21.6080 -20.1727 -19.9237 -19.9237  -5.6993
    -2.6075  -2.6075  -1.9375  -1.5563  -1.5563  -0.9351  -0.9351  -0.8771
     1.2922   6.7048   7.7833   7.7833   9.0304

          k = 0.2500 0.2500 0.3750 (  9674 PWs)   bands (ev):

   -49.7048 -21.6106 -21.6084 -21.6075 -20.1230 -19.9691 -19.9232  -5.9899
    -2.5347  -2.3022  -1.9770  -1.7139  -1.5726  -0.9386  -0.9184  -0.8285
     1.9259   6.5178   7.4616   7.7681   8.5894

          k = 0.2500 0.2500-0.5000 (  9666 PWs)   bands (ev):

   -49.7048 -21.6111 -21.6084 -21.6073 -20.0893 -20.0011 -19.9230  -6.0946
    -2.4986  -2.1956  -1.9978  -1.7788  -1.5568  -0.9639  -0.9155  -0.8104
     2.2775   6.1396   7.7350   7.7591   8.2343

          k = 0.2500 0.3750 0.3750 (  9676 PWs)   bands (ev):

   -49.7048 -21.6100 -21.6092 -21.6074 -20.0808 -19.9773 -19.9520  -6.2748
    -2.3683  -2.0313  -2.0165  -1.7885  -1.6868  -0.8953  -0.8911  -0.7570
     2.4885   6.6422   6.6717   7.6747   8.2646

          k = 0.2500 0.3750-0.5000 (  9672 PWs)   bands (ev):

   -49.7048 -21.6101 -21.6093 -21.6073 -20.0493 -19.9998 -19.9589  -6.3781
    -2.3232  -2.0416  -1.9199  -1.8444  -1.6703  -0.9030  -0.8864  -0.7248
     2.8242   6.1820   6.7121   7.7652   8.0685

          k = 0.2500-0.5000-0.5000 (  9680 PWs)   bands (ev):

   -49.7048 -21.6097 -21.6097 -21.6071 -20.0073 -19.9993 -19.9993  -6.4812
    -2.2775  -2.0697  -1.8538  -1.8538  -1.6455  -0.8927  -0.8927  -0.6819
     3.1630   6.1982   6.1982   7.7695   8.0016

          k = 0.3750 0.3750 0.3750 (  9682 PWs)   bands (ev):

   -49.7047 -21.6093 -21.6084 -21.6084 -20.0504 -19.9771 -19.9771  -6.5514
    -2.0134  -1.9988  -1.9988  -1.8307  -1.8307  -0.7877  -0.7877  -0.7381
     3.0023   6.6149   6.6149   6.7804   8.1228

          k = 0.3750 0.3750-0.5000 (  9682 PWs)   bands (ev):

   -49.7047 -21.6092 -21.6087 -21.6081 -20.0259 -19.9993 -19.9770  -6.6526
    -2.0285  -1.9654  -1.9639  -1.9028  -1.7155  -0.7712  -0.7614  -0.7112
     3.3323   6.1393   6.5892   6.7739   8.0737

          k = 0.3750-0.5000-0.5000 (  9676 PWs)   bands (ev):

   -49.7047 -21.6088 -21.6088 -21.6081 -20.0015 -19.9992 -19.9992  -6.7533
    -2.0438  -1.9865  -1.9865  -1.8190  -1.6438  -0.7362  -0.7362  -0.6801
     3.6746   6.1185   6.1185   6.6732   8.0802

          k =-0.5000-0.5000-0.5000 (  9568 PWs)   bands (ev):

   -49.7047 -21.6085 -21.6085 -21.6085 -19.9991 -19.9991 -19.9991  -6.8534
    -2.0330  -2.0330  -2.0330  -1.6431  -1.6431  -0.6793  -0.6793  -0.6793
     4.0428   6.0834   6.0834   6.0834   8.1196

     the Fermi energy is     4.6946 ev

!    total energy              =    -451.79027350 Ry
     total all-electron energy =     -5122.529252 Ry
     estimated scf accuracy    <          5.4E-13 Ry
     smearing contrib. (-TS)   =      -0.00000000 Ry
     internal energy E=F+TS    =    -451.79027350 Ry

     The total energy is F=E-TS. E is the sum of the following terms:
     one-electron contribution =    -157.50121645 Ry
     hartree contribution      =      96.59596610 Ry
     xc contribution           =     -50.03181345 Ry
     ewald contribution        =    -139.41745240 Ry
     one-center paw contrib.   =    -201.43575729 Ry

     convergence has been achieved in  15 iterations

     Writing all to output data dir ./tmp/NaGeF3.save/ :
     XML data file, charge density, pseudopotentials, collected wavefunctions

     init_run     :      3.08s CPU      2.53s WALL (       1 calls)
     electrons    :    108.06s CPU     78.49s WALL (       1 calls)

     Called by init_run:
     wfcinit      :      2.11s CPU      1.54s WALL (       1 calls)
     potinit      :      0.33s CPU      0.35s WALL (       1 calls)
     hinit0       :      0.42s CPU      0.42s WALL (       1 calls)

     Called by electrons:
     c_bands      :     85.09s CPU     61.36s WALL (      15 calls)
     sum_band     :     18.00s CPU     12.95s WALL (      15 calls)
     v_of_rho     :      2.15s CPU      1.87s WALL (      16 calls)
     newd         :      1.79s CPU      1.38s WALL (      16 calls)
     PAW_pot      :      0.65s CPU      0.66s WALL (      16 calls)
     mix_rho      :      0.38s CPU      0.30s WALL (      15 calls)

     Called by c_bands:
     init_us_2    :      1.81s CPU      1.27s WALL (     558 calls)
     cegterg      :     78.87s CPU     56.88s WALL (     270 calls)

     Called by *egterg:
     cdiaghg      :      2.44s CPU      1.74s WALL (    1058 calls)
     h_psi        :     67.53s CPU     50.13s WALL (    1076 calls)
     s_psi        :      1.43s CPU      0.79s WALL (    1076 calls)
     g_psi        :      0.50s CPU      0.34s WALL (     788 calls)

     Called by h_psi:
     h_psi:calbec :      2.05s CPU      1.28s WALL (    1076 calls)
     vloc_psi     :     63.51s CPU     47.72s WALL (    1076 calls)
     add_vuspsi   :      1.60s CPU      0.88s WALL (    1076 calls)

     General routines
     calbec       :      2.71s CPU      1.66s WALL (    1346 calls)
     fft          :      1.28s CPU      1.17s WALL (     206 calls)
     ffts         :      0.19s CPU      0.19s WALL (      31 calls)
     fftw         :     64.58s CPU     48.24s WALL (   34684 calls)
     interpolate  :      0.24s CPU      0.25s WALL (      16 calls)

     Parallel routines

     PWSCF        :   1m51.58s CPU   1m21.52s WALL


   This run was terminated on:  15:25:30  10May2025            

=------------------------------------------------------------------------------=
   JOB DONE.
=------------------------------------------------------------------------------=
