
     Program PWSCF v.7.3.1 starts on  9Apr2025 at  8:56:42 

     This program is part of the open-source Quantum ESPRESSO suite
     for quantum simulation of materials; please cite
         "P. Giannozzi et al., J. Phys.:Condens. Matter 21 395502 (2009);
         "P. Giannozzi et al., J. Phys.:Condens. Matter 29 465901 (2017);
         "P. Giannozzi et al., J. Chem. Phys. 152 154105 (2020);
          URL http://www.quantum-espresso.org", 
     in publications or presentations arising from this work. More details at
     http://www.quantum-espresso.org/quote

     Parallel version (MPI), running on     8 processors

     MPI processes distributed on     1 nodes
     59453 MiB available memory on the printing compute node when the environment starts

     Waiting for input...
     Reading input from standard input

     Current dimensions of program PWSCF are:
     Max number of different atomic species (ntypx) = 10
     Max number of k-points (npk) =  40000
     Max angular momentum in pseudopotentials (lmaxx) =  4
     file Ca.pbe-spn-kjpaw_psl.1.0.0.UPF: wavefunction(s)  3S renormalized
     file Ce.pbe-spdn-kjpaw_psl.1.0.0.UPF: wavefunction(s)  5D renormalized
     file S.pbe-n-kjpaw_psl.1.0.0.UPF: wavefunction(s)  3S 3P renormalized

     IMPORTANT: XC functional enforced from input :
     Exchange-correlation= PBE
                           (   1   4   3   4   0   0   0)
     Any further DFT definition will be discarded
     Please, verify this is what you really want

     Message from routine setup:
     using ibrav=0 with symmetry is DISCOURAGED, use correct ibrav instead

     R & G space division:  proc/nbgrp/npool/nimage =       8
     Subspace diagonalization in iterative solution of the eigenvalue problem:
     a serial algorithm will be used


     Parallelization info
     --------------------
     sticks:   dense  smooth     PW     G-vecs:    dense   smooth      PW
     Min         583     292     83                29967    10602    1599
     Max         584     293     84                29970    10605    1602
     Sum        4669    2337    665               239745    84823   12797

     Using Slab Decomposition



     bravais-lattice index     =            0
     lattice parameter (alat)  =       9.5697  a.u.
     unit-cell volume          =     876.3868 (a.u.)^3
     number of atoms/cell      =            5
     number of atomic types    =            3
     number of electrons       =        39.00
     number of Kohn-Sham states=           24
     kinetic-energy cutoff     =      80.0000  Ry
     charge density cutoff     =     640.0000  Ry
     scf convergence threshold =      1.0E-10
     mixing beta               =       0.3000
     number of iterations used =            8  plain     mixing
     Exchange-correlation= PBE
                           (   1   4   3   4   0   0   0)

     celldm(1)=   9.569706  celldm(2)=   0.000000  celldm(3)=   0.000000
     celldm(4)=   0.000000  celldm(5)=   0.000000  celldm(6)=   0.000000

     crystal axes: (cart. coord. in units of alat)
               a(1) = (   1.000000   0.000000   0.000000 )  
               a(2) = (   0.000000   1.000000   0.000000 )  
               a(3) = (   0.000000   0.000000   1.000000 )  

     reciprocal axes: (cart. coord. in units 2 pi/alat)
               b(1) = (  1.000000  0.000000  0.000000 )  
               b(2) = (  0.000000  1.000000  0.000000 )  
               b(3) = (  0.000000  0.000000  1.000000 )  


     PseudoPot. # 1 for Ca read from file:
     /home/administrator/Downloads/BURAI/BURAI1.3/pseudopot/Ca.pbe-spn-kjpaw_psl.1.0.0.UPF
     MD5 check sum: b518bfa21c8e9f1b10ff1c7131b15729
     Pseudo is Projector augmented-wave + core cor, Zval = 10.0
     Generated using "atomic" code by A. Dal Corso  v.5.1.2
     Shape of augmentation charge: PSQ
     Using radial grid of 1169 points,  6 beta functions with: 
                l(1) =   0
                l(2) =   0
                l(3) =   1
                l(4) =   1
                l(5) =   2
                l(6) =   2
     Q(r) pseudized with 0 coefficients 


     PseudoPot. # 2 for Ce read from file:
     /home/administrator/Downloads/BURAI/BURAI1.3/pseudopot/Ce.pbe-spdn-kjpaw_psl.1.0.0.UPF
     MD5 check sum: 812d43270a30c3f31dcbe73ad7930501
     Pseudo is Projector augmented-wave + core cor, Zval = 11.0
     Generated using "atomic" code by A. Dal Corso  v.5.1.2
     Shape of augmentation charge: PSQ
     Using radial grid of 1255 points,  6 beta functions with: 
                l(1) =   0
                l(2) =   0
                l(3) =   1
                l(4) =   1
                l(5) =   2
                l(6) =   2
     Q(r) pseudized with 0 coefficients 


     PseudoPot. # 3 for S  read from file:
     /home/administrator/Downloads/BURAI/BURAI1.3/pseudopot/S.pbe-n-kjpaw_psl.1.0.0.UPF
     MD5 check sum: cb96b46a5ee63c4f5db34501b74ad364
     Pseudo is Projector augmented-wave + core cor, Zval =  6.0
     Generated using "atomic" code by A. Dal Corso  v.5.1.2
     Shape of augmentation charge: PSQ
     Using radial grid of 1151 points,  6 beta functions with: 
                l(1) =   0
                l(2) =   0
                l(3) =   1
                l(4) =   1
                l(5) =   2
                l(6) =   2
     Q(r) pseudized with 0 coefficients 


     atomic species   valence    mass     pseudopotential
     Ca               10.00    40.07800     Ca( 1.00)
     Ce               11.00   140.11600     Ce( 1.00)
     S                 6.00    32.06000     S ( 1.00)

     48 Sym. Ops., with inversion, found


                                    s                        frac. trans.

      isym =  1     identity                                     

 cryst.   s( 1) = (     1          0          0      )
                  (     0          1          0      )
                  (     0          0          1      )

 cart.    s( 1) = (  1.0000000  0.0000000  0.0000000 )
                  (  0.0000000  1.0000000  0.0000000 )
                  (  0.0000000  0.0000000  1.0000000 )


      isym =  2     180 deg rotation - cart. axis [0,0,1]        

 cryst.   s( 2) = (    -1          0          0      )
                  (     0         -1          0      )
                  (     0          0          1      )

 cart.    s( 2) = ( -1.0000000  0.0000000  0.0000000 )
                  (  0.0000000 -1.0000000  0.0000000 )
                  (  0.0000000  0.0000000  1.0000000 )


      isym =  3     180 deg rotation - cart. axis [0,1,0]        

 cryst.   s( 3) = (    -1          0          0      )
                  (     0          1          0      )
                  (     0          0         -1      )

 cart.    s( 3) = ( -1.0000000  0.0000000  0.0000000 )
                  (  0.0000000  1.0000000  0.0000000 )
                  (  0.0000000  0.0000000 -1.0000000 )


      isym =  4     180 deg rotation - cart. axis [1,0,0]        

 cryst.   s( 4) = (     1          0          0      )
                  (     0         -1          0      )
                  (     0          0         -1      )

 cart.    s( 4) = (  1.0000000  0.0000000  0.0000000 )
                  (  0.0000000 -1.0000000  0.0000000 )
                  (  0.0000000  0.0000000 -1.0000000 )


      isym =  5     180 deg rotation - cart. axis [1,1,0]        

 cryst.   s( 5) = (     0          1          0      )
                  (     1          0          0      )
                  (     0          0         -1      )

 cart.    s( 5) = (  0.0000000  1.0000000  0.0000000 )
                  (  1.0000000  0.0000000  0.0000000 )
                  (  0.0000000  0.0000000 -1.0000000 )


      isym =  6     180 deg rotation - cart. axis [1,-1,0]       

 cryst.   s( 6) = (     0         -1          0      )
                  (    -1          0          0      )
                  (     0          0         -1      )

 cart.    s( 6) = (  0.0000000 -1.0000000  0.0000000 )
                  ( -1.0000000  0.0000000  0.0000000 )
                  (  0.0000000  0.0000000 -1.0000000 )


      isym =  7      90 deg rotation - cart. axis [0,0,-1]       

 cryst.   s( 7) = (     0         -1          0      )
                  (     1          0          0      )
                  (     0          0          1      )

 cart.    s( 7) = (  0.0000000  1.0000000  0.0000000 )
                  ( -1.0000000  0.0000000  0.0000000 )
                  (  0.0000000  0.0000000  1.0000000 )


      isym =  8      90 deg rotation - cart. axis [0,0,1]        

 cryst.   s( 8) = (     0          1          0      )
                  (    -1          0          0      )
                  (     0          0          1      )

 cart.    s( 8) = (  0.0000000 -1.0000000  0.0000000 )
                  (  1.0000000  0.0000000  0.0000000 )
                  (  0.0000000  0.0000000  1.0000000 )


      isym =  9     180 deg rotation - cart. axis [1,0,1]        

 cryst.   s( 9) = (     0          0          1      )
                  (     0         -1          0      )
                  (     1          0          0      )

 cart.    s( 9) = (  0.0000000  0.0000000  1.0000000 )
                  (  0.0000000 -1.0000000  0.0000000 )
                  (  1.0000000  0.0000000  0.0000000 )


      isym = 10     180 deg rotation - cart. axis [-1,0,1]       

 cryst.   s(10) = (     0          0         -1      )
                  (     0         -1          0      )
                  (    -1          0          0      )

 cart.    s(10) = (  0.0000000  0.0000000 -1.0000000 )
                  (  0.0000000 -1.0000000  0.0000000 )
                  ( -1.0000000  0.0000000  0.0000000 )


      isym = 11      90 deg rotation - cart. axis [0,1,0]        

 cryst.   s(11) = (     0          0         -1      )
                  (     0          1          0      )
                  (     1          0          0      )

 cart.    s(11) = (  0.0000000  0.0000000  1.0000000 )
                  (  0.0000000  1.0000000  0.0000000 )
                  ( -1.0000000  0.0000000  0.0000000 )


      isym = 12      90 deg rotation - cart. axis [0,-1,0]       

 cryst.   s(12) = (     0          0          1      )
                  (     0          1          0      )
                  (    -1          0          0      )

 cart.    s(12) = (  0.0000000  0.0000000 -1.0000000 )
                  (  0.0000000  1.0000000  0.0000000 )
                  (  1.0000000  0.0000000  0.0000000 )


      isym = 13     180 deg rotation - cart. axis [0,1,1]        

 cryst.   s(13) = (    -1          0          0      )
                  (     0          0          1      )
                  (     0          1          0      )

 cart.    s(13) = ( -1.0000000  0.0000000  0.0000000 )
                  (  0.0000000  0.0000000  1.0000000 )
                  (  0.0000000  1.0000000  0.0000000 )


      isym = 14     180 deg rotation - cart. axis [0,1,-1]       

 cryst.   s(14) = (    -1          0          0      )
                  (     0          0         -1      )
                  (     0         -1          0      )

 cart.    s(14) = ( -1.0000000  0.0000000  0.0000000 )
                  (  0.0000000  0.0000000 -1.0000000 )
                  (  0.0000000 -1.0000000  0.0000000 )


      isym = 15      90 deg rotation - cart. axis [-1,0,0]       

 cryst.   s(15) = (     1          0          0      )
                  (     0          0         -1      )
                  (     0          1          0      )

 cart.    s(15) = (  1.0000000  0.0000000  0.0000000 )
                  (  0.0000000  0.0000000  1.0000000 )
                  (  0.0000000 -1.0000000  0.0000000 )


      isym = 16      90 deg rotation - cart. axis [1,0,0]        

 cryst.   s(16) = (     1          0          0      )
                  (     0          0          1      )
                  (     0         -1          0      )

 cart.    s(16) = (  1.0000000  0.0000000  0.0000000 )
                  (  0.0000000  0.0000000 -1.0000000 )
                  (  0.0000000  1.0000000  0.0000000 )


      isym = 17     120 deg rotation - cart. axis [-1,-1,-1]     

 cryst.   s(17) = (     0          0          1      )
                  (     1          0          0      )
                  (     0          1          0      )

 cart.    s(17) = (  0.0000000  1.0000000  0.0000000 )
                  (  0.0000000  0.0000000  1.0000000 )
                  (  1.0000000  0.0000000  0.0000000 )


      isym = 18     120 deg rotation - cart. axis [-1,1,1]       

 cryst.   s(18) = (     0          0         -1      )
                  (    -1          0          0      )
                  (     0          1          0      )

 cart.    s(18) = (  0.0000000 -1.0000000  0.0000000 )
                  (  0.0000000  0.0000000  1.0000000 )
                  ( -1.0000000  0.0000000  0.0000000 )


      isym = 19     120 deg rotation - cart. axis [1,1,-1]       

 cryst.   s(19) = (     0          0         -1      )
                  (     1          0          0      )
                  (     0         -1          0      )

 cart.    s(19) = (  0.0000000  1.0000000  0.0000000 )
                  (  0.0000000  0.0000000 -1.0000000 )
                  ( -1.0000000  0.0000000  0.0000000 )


      isym = 20     120 deg rotation - cart. axis [1,-1,1]       

 cryst.   s(20) = (     0          0          1      )
                  (    -1          0          0      )
                  (     0         -1          0      )

 cart.    s(20) = (  0.0000000 -1.0000000  0.0000000 )
                  (  0.0000000  0.0000000 -1.0000000 )
                  (  1.0000000  0.0000000  0.0000000 )


      isym = 21     120 deg rotation - cart. axis [1,1,1]        

 cryst.   s(21) = (     0          1          0      )
                  (     0          0          1      )
                  (     1          0          0      )

 cart.    s(21) = (  0.0000000  0.0000000  1.0000000 )
                  (  1.0000000  0.0000000  0.0000000 )
                  (  0.0000000  1.0000000  0.0000000 )


      isym = 22     120 deg rotation - cart. axis [-1,1,-1]      

 cryst.   s(22) = (     0         -1          0      )
                  (     0          0         -1      )
                  (     1          0          0      )

 cart.    s(22) = (  0.0000000  0.0000000  1.0000000 )
                  ( -1.0000000  0.0000000  0.0000000 )
                  (  0.0000000 -1.0000000  0.0000000 )


      isym = 23     120 deg rotation - cart. axis [1,-1,-1]      

 cryst.   s(23) = (     0         -1          0      )
                  (     0          0          1      )
                  (    -1          0          0      )

 cart.    s(23) = (  0.0000000  0.0000000 -1.0000000 )
                  ( -1.0000000  0.0000000  0.0000000 )
                  (  0.0000000  1.0000000  0.0000000 )


      isym = 24     120 deg rotation - cart. axis [-1,-1,1]      

 cryst.   s(24) = (     0          1          0      )
                  (     0          0         -1      )
                  (    -1          0          0      )

 cart.    s(24) = (  0.0000000  0.0000000 -1.0000000 )
                  (  1.0000000  0.0000000  0.0000000 )
                  (  0.0000000 -1.0000000  0.0000000 )


      isym = 25     inversion                                    

 cryst.   s(25) = (    -1          0          0      )
                  (     0         -1          0      )
                  (     0          0         -1      )

 cart.    s(25) = ( -1.0000000  0.0000000  0.0000000 )
                  (  0.0000000 -1.0000000  0.0000000 )
                  (  0.0000000  0.0000000 -1.0000000 )


      isym = 26     inv. 180 deg rotation - cart. axis [0,0,1]   

 cryst.   s(26) = (     1          0          0      )
                  (     0          1          0      )
                  (     0          0         -1      )

 cart.    s(26) = (  1.0000000  0.0000000  0.0000000 )
                  (  0.0000000  1.0000000  0.0000000 )
                  (  0.0000000  0.0000000 -1.0000000 )


      isym = 27     inv. 180 deg rotation - cart. axis [0,1,0]   

 cryst.   s(27) = (     1          0          0      )
                  (     0         -1          0      )
                  (     0          0          1      )

 cart.    s(27) = (  1.0000000  0.0000000  0.0000000 )
                  (  0.0000000 -1.0000000  0.0000000 )
                  (  0.0000000  0.0000000  1.0000000 )


      isym = 28     inv. 180 deg rotation - cart. axis [1,0,0]   

 cryst.   s(28) = (    -1          0          0      )
                  (     0          1          0      )
                  (     0          0          1      )

 cart.    s(28) = ( -1.0000000  0.0000000  0.0000000 )
                  (  0.0000000  1.0000000  0.0000000 )
                  (  0.0000000  0.0000000  1.0000000 )


      isym = 29     inv. 180 deg rotation - cart. axis [1,1,0]   

 cryst.   s(29) = (     0         -1          0      )
                  (    -1          0          0      )
                  (     0          0          1      )

 cart.    s(29) = (  0.0000000 -1.0000000  0.0000000 )
                  ( -1.0000000  0.0000000  0.0000000 )
                  (  0.0000000  0.0000000  1.0000000 )


      isym = 30     inv. 180 deg rotation - cart. axis [1,-1,0]  

 cryst.   s(30) = (     0          1          0      )
                  (     1          0          0      )
                  (     0          0          1      )

 cart.    s(30) = (  0.0000000  1.0000000  0.0000000 )
                  (  1.0000000  0.0000000  0.0000000 )
                  (  0.0000000  0.0000000  1.0000000 )


      isym = 31     inv.  90 deg rotation - cart. axis [0,0,-1]  

 cryst.   s(31) = (     0          1          0      )
                  (    -1          0          0      )
                  (     0          0         -1      )

 cart.    s(31) = (  0.0000000 -1.0000000  0.0000000 )
                  (  1.0000000  0.0000000  0.0000000 )
                  (  0.0000000  0.0000000 -1.0000000 )


      isym = 32     inv.  90 deg rotation - cart. axis [0,0,1]   

 cryst.   s(32) = (     0         -1          0      )
                  (     1          0          0      )
                  (     0          0         -1      )

 cart.    s(32) = (  0.0000000  1.0000000  0.0000000 )
                  ( -1.0000000  0.0000000  0.0000000 )
                  (  0.0000000  0.0000000 -1.0000000 )


      isym = 33     inv. 180 deg rotation - cart. axis [1,0,1]   

 cryst.   s(33) = (     0          0         -1      )
                  (     0          1          0      )
                  (    -1          0          0      )

 cart.    s(33) = (  0.0000000  0.0000000 -1.0000000 )
                  (  0.0000000  1.0000000  0.0000000 )
                  ( -1.0000000  0.0000000  0.0000000 )


      isym = 34     inv. 180 deg rotation - cart. axis [-1,0,1]  

 cryst.   s(34) = (     0          0          1      )
                  (     0          1          0      )
                  (     1          0          0      )

 cart.    s(34) = (  0.0000000  0.0000000  1.0000000 )
                  (  0.0000000  1.0000000  0.0000000 )
                  (  1.0000000  0.0000000  0.0000000 )


      isym = 35     inv.  90 deg rotation - cart. axis [0,1,0]   

 cryst.   s(35) = (     0          0          1      )
                  (     0         -1          0      )
                  (    -1          0          0      )

 cart.    s(35) = (  0.0000000  0.0000000 -1.0000000 )
                  (  0.0000000 -1.0000000  0.0000000 )
                  (  1.0000000  0.0000000  0.0000000 )


      isym = 36     inv.  90 deg rotation - cart. axis [0,-1,0]  

 cryst.   s(36) = (     0          0         -1      )
                  (     0         -1          0      )
                  (     1          0          0      )

 cart.    s(36) = (  0.0000000  0.0000000  1.0000000 )
                  (  0.0000000 -1.0000000  0.0000000 )
                  ( -1.0000000  0.0000000  0.0000000 )


      isym = 37     inv. 180 deg rotation - cart. axis [0,1,1]   

 cryst.   s(37) = (     1          0          0      )
                  (     0          0         -1      )
                  (     0         -1          0      )

 cart.    s(37) = (  1.0000000  0.0000000  0.0000000 )
                  (  0.0000000  0.0000000 -1.0000000 )
                  (  0.0000000 -1.0000000  0.0000000 )


      isym = 38     inv. 180 deg rotation - cart. axis [0,1,-1]  

 cryst.   s(38) = (     1          0          0      )
                  (     0          0          1      )
                  (     0          1          0      )

 cart.    s(38) = (  1.0000000  0.0000000  0.0000000 )
                  (  0.0000000  0.0000000  1.0000000 )
                  (  0.0000000  1.0000000  0.0000000 )


      isym = 39     inv.  90 deg rotation - cart. axis [-1,0,0]  

 cryst.   s(39) = (    -1          0          0      )
                  (     0          0          1      )
                  (     0         -1          0      )

 cart.    s(39) = ( -1.0000000  0.0000000  0.0000000 )
                  (  0.0000000  0.0000000 -1.0000000 )
                  (  0.0000000  1.0000000  0.0000000 )


      isym = 40     inv.  90 deg rotation - cart. axis [1,0,0]   

 cryst.   s(40) = (    -1          0          0      )
                  (     0          0         -1      )
                  (     0          1          0      )

 cart.    s(40) = ( -1.0000000  0.0000000  0.0000000 )
                  (  0.0000000  0.0000000  1.0000000 )
                  (  0.0000000 -1.0000000  0.0000000 )


      isym = 41     inv. 120 deg rotation - cart. axis [-1,-1,-1]

 cryst.   s(41) = (     0          0         -1      )
                  (    -1          0          0      )
                  (     0         -1          0      )

 cart.    s(41) = (  0.0000000 -1.0000000  0.0000000 )
                  (  0.0000000  0.0000000 -1.0000000 )
                  ( -1.0000000  0.0000000  0.0000000 )


      isym = 42     inv. 120 deg rotation - cart. axis [-1,1,1]  

 cryst.   s(42) = (     0          0          1      )
                  (     1          0          0      )
                  (     0         -1          0      )

 cart.    s(42) = (  0.0000000  1.0000000  0.0000000 )
                  (  0.0000000  0.0000000 -1.0000000 )
                  (  1.0000000  0.0000000  0.0000000 )


      isym = 43     inv. 120 deg rotation - cart. axis [1,1,-1]  

 cryst.   s(43) = (     0          0          1      )
                  (    -1          0          0      )
                  (     0          1          0      )

 cart.    s(43) = (  0.0000000 -1.0000000  0.0000000 )
                  (  0.0000000  0.0000000  1.0000000 )
                  (  1.0000000  0.0000000  0.0000000 )


      isym = 44     inv. 120 deg rotation - cart. axis [1,-1,1]  

 cryst.   s(44) = (     0          0         -1      )
                  (     1          0          0      )
                  (     0          1          0      )

 cart.    s(44) = (  0.0000000  1.0000000  0.0000000 )
                  (  0.0000000  0.0000000  1.0000000 )
                  ( -1.0000000  0.0000000  0.0000000 )


      isym = 45     inv. 120 deg rotation - cart. axis [1,1,1]   

 cryst.   s(45) = (     0         -1          0      )
                  (     0          0         -1      )
                  (    -1          0          0      )

 cart.    s(45) = (  0.0000000  0.0000000 -1.0000000 )
                  ( -1.0000000  0.0000000  0.0000000 )
                  (  0.0000000 -1.0000000  0.0000000 )


      isym = 46     inv. 120 deg rotation - cart. axis [-1,1,-1] 

 cryst.   s(46) = (     0          1          0      )
                  (     0          0          1      )
                  (    -1          0          0      )

 cart.    s(46) = (  0.0000000  0.0000000 -1.0000000 )
                  (  1.0000000  0.0000000  0.0000000 )
                  (  0.0000000  1.0000000  0.0000000 )


      isym = 47     inv. 120 deg rotation - cart. axis [1,-1,-1] 

 cryst.   s(47) = (     0          1          0      )
                  (     0          0         -1      )
                  (     1          0          0      )

 cart.    s(47) = (  0.0000000  0.0000000  1.0000000 )
                  (  1.0000000  0.0000000  0.0000000 )
                  (  0.0000000 -1.0000000  0.0000000 )


      isym = 48     inv. 120 deg rotation - cart. axis [-1,-1,1] 

 cryst.   s(48) = (     0         -1          0      )
                  (     0          0          1      )
                  (     1          0          0      )

 cart.    s(48) = (  0.0000000  0.0000000  1.0000000 )
                  ( -1.0000000  0.0000000  0.0000000 )
                  (  0.0000000  1.0000000  0.0000000 )


   Cartesian axes

     site n.     atom                  positions (alat units)
         1        Ca     tau(   1) = (   0.0000000   0.0000000   0.0000000  )
         2        Ce     tau(   2) = (   0.5000000   0.5000000   0.5000000  )
         3        S      tau(   3) = (   0.5000000   0.0000000   0.0000000  )
         4        S      tau(   4) = (   0.0000000   0.5000000   0.0000000  )
         5        S      tau(   5) = (   0.0000000   0.0000000   0.5000000  )

   Crystallographic axes

     site n.     atom                  positions (cryst. coord.)
         1        Ca     tau(   1) = (  0.0000000  0.0000000  0.0000000  )
         2        Ce     tau(   2) = (  0.5000000  0.5000000  0.5000000  )
         3        S      tau(   3) = (  0.5000000  0.0000000  0.0000000  )
         4        S      tau(   4) = (  0.0000000  0.5000000  0.0000000  )
         5        S      tau(   5) = (  0.0000000  0.0000000  0.5000000  )

     number of k points=    20  Methfessel-Paxton smearing, width (Ry)=  0.0100
                       cart. coord. in units 2pi/alat
        k(    1) = (   0.0000000   0.0000000   0.0000000), wk =   0.0092593
        k(    2) = (   0.0000000   0.0000000   0.1666667), wk =   0.0555556
        k(    3) = (   0.0000000   0.0000000   0.3333333), wk =   0.0555556
        k(    4) = (   0.0000000   0.0000000  -0.5000000), wk =   0.0277778
        k(    5) = (   0.0000000   0.1666667   0.1666667), wk =   0.1111111
        k(    6) = (   0.0000000   0.1666667   0.3333333), wk =   0.2222222
        k(    7) = (   0.0000000   0.1666667  -0.5000000), wk =   0.1111111
        k(    8) = (   0.0000000   0.3333333   0.3333333), wk =   0.1111111
        k(    9) = (   0.0000000   0.3333333  -0.5000000), wk =   0.1111111
        k(   10) = (   0.0000000  -0.5000000  -0.5000000), wk =   0.0277778
        k(   11) = (   0.1666667   0.1666667   0.1666667), wk =   0.0740741
        k(   12) = (   0.1666667   0.1666667   0.3333333), wk =   0.2222222
        k(   13) = (   0.1666667   0.1666667  -0.5000000), wk =   0.1111111
        k(   14) = (   0.1666667   0.3333333   0.3333333), wk =   0.2222222
        k(   15) = (   0.1666667   0.3333333  -0.5000000), wk =   0.2222222
        k(   16) = (   0.1666667  -0.5000000  -0.5000000), wk =   0.0555556
        k(   17) = (   0.3333333   0.3333333   0.3333333), wk =   0.0740741
        k(   18) = (   0.3333333   0.3333333  -0.5000000), wk =   0.1111111
        k(   19) = (   0.3333333  -0.5000000  -0.5000000), wk =   0.0555556
        k(   20) = (  -0.5000000  -0.5000000  -0.5000000), wk =   0.0092593

                       cryst. coord.
        k(    1) = (   0.0000000   0.0000000   0.0000000), wk =   0.0092593
        k(    2) = (   0.0000000   0.0000000   0.1666667), wk =   0.0555556
        k(    3) = (   0.0000000   0.0000000   0.3333333), wk =   0.0555556
        k(    4) = (   0.0000000   0.0000000  -0.5000000), wk =   0.0277778
        k(    5) = (   0.0000000   0.1666667   0.1666667), wk =   0.1111111
        k(    6) = (   0.0000000   0.1666667   0.3333333), wk =   0.2222222
        k(    7) = (   0.0000000   0.1666667  -0.5000000), wk =   0.1111111
        k(    8) = (   0.0000000   0.3333333   0.3333333), wk =   0.1111111
        k(    9) = (   0.0000000   0.3333333  -0.5000000), wk =   0.1111111
        k(   10) = (   0.0000000  -0.5000000  -0.5000000), wk =   0.0277778
        k(   11) = (   0.1666667   0.1666667   0.1666667), wk =   0.0740741
        k(   12) = (   0.1666667   0.1666667   0.3333333), wk =   0.2222222
        k(   13) = (   0.1666667   0.1666667  -0.5000000), wk =   0.1111111
        k(   14) = (   0.1666667   0.3333333   0.3333333), wk =   0.2222222
        k(   15) = (   0.1666667   0.3333333  -0.5000000), wk =   0.2222222
        k(   16) = (   0.1666667  -0.5000000  -0.5000000), wk =   0.0555556
        k(   17) = (   0.3333333   0.3333333   0.3333333), wk =   0.0740741
        k(   18) = (   0.3333333   0.3333333  -0.5000000), wk =   0.1111111
        k(   19) = (   0.3333333  -0.5000000  -0.5000000), wk =   0.0555556
        k(   20) = (  -0.5000000  -0.5000000  -0.5000000), wk =   0.0092593

     Dense  grid:   239745 G-vectors     FFT dimensions: (  80,  80,  80)

     Smooth grid:    84823 G-vectors     FFT dimensions: (  60,  60,  60)

     Dynamical RAM for                 wfc:       0.48 MB

     Dynamical RAM for     wfc (w. buffer):      10.17 MB

     Dynamical RAM for           str. fact:       1.37 MB

     Dynamical RAM for           local pot:       0.00 MB

     Dynamical RAM for          nlocal pot:       1.82 MB

     Dynamical RAM for                qrad:       6.09 MB

     Dynamical RAM for          rho,v,vnew:       2.84 MB

     Dynamical RAM for               rhoin:       0.95 MB

     Dynamical RAM for            rho*nmix:       7.32 MB

     Dynamical RAM for           G-vectors:       1.80 MB

     Dynamical RAM for          h,s,v(r/c):       0.11 MB

     Dynamical RAM for          <psi|beta>:       0.03 MB

     Dynamical RAM for                 psi:       0.97 MB

     Dynamical RAM for                hpsi:       0.97 MB

     Dynamical RAM for                spsi:       0.97 MB

     Dynamical RAM for      wfcinit/wfcrot:       1.36 MB

     Dynamical RAM for           addusdens:      86.43 MB

     Dynamical RAM for          addusforce:      88.50 MB

     Dynamical RAM for         addusstress:      91.92 MB

     Estimated static dynamical RAM per process >      29.30 MB

     Estimated max dynamical RAM per process >     128.53 MB

     Estimated total dynamical RAM >       1.00 GB

     Initial potential from superposition of free atoms

     starting charge      38.9685, renormalised to      39.0000
     Starting wfcs are   33 randomized atomic wfcs
     Checking if some PAW data can be deallocated... 
       PAW data deallocated on    6 nodes for type:  1
       PAW data deallocated on    6 nodes for type:  2
       PAW data deallocated on    4 nodes for type:  3

     total cpu time spent up to now is        3.2 secs

     Self-consistent Calculation

     iteration #  1     ecut=    80.00 Ry     beta= 0.30
     Davidson diagonalization with overlap

---- Real-time Memory Report at c_bands before calling an iterative solver
           138 MiB given to the printing process from OS
             0 MiB allocation reported by mallinfo(arena+hblkhd)
         58391 MiB available memory on the node where the printing process lives
------------------
     ethr =  1.00E-02,  avg # of iterations =  2.1

     total cpu time spent up to now is        6.6 secs

     total energy              =    -804.39243549 Ry
     estimated scf accuracy    <       0.52234885 Ry

     iteration #  2     ecut=    80.00 Ry     beta= 0.30
     Davidson diagonalization with overlap

---- Real-time Memory Report at c_bands before calling an iterative solver
           155 MiB given to the printing process from OS
             0 MiB allocation reported by mallinfo(arena+hblkhd)
         57955 MiB available memory on the node where the printing process lives
------------------
     ethr =  1.34E-03,  avg # of iterations =  4.3

     total cpu time spent up to now is       10.4 secs

     total energy              =    -804.47695678 Ry
     estimated scf accuracy    <       0.06423265 Ry

     iteration #  3     ecut=    80.00 Ry     beta= 0.30
     Davidson diagonalization with overlap

---- Real-time Memory Report at c_bands before calling an iterative solver
           155 MiB given to the printing process from OS
             0 MiB allocation reported by mallinfo(arena+hblkhd)
         57919 MiB available memory on the node where the printing process lives
------------------
     ethr =  1.65E-04,  avg # of iterations =  5.3

     total cpu time spent up to now is       14.7 secs

     total energy              =    -804.51528357 Ry
     estimated scf accuracy    <       0.02303023 Ry

     iteration #  4     ecut=    80.00 Ry     beta= 0.30
     Davidson diagonalization with overlap

---- Real-time Memory Report at c_bands before calling an iterative solver
           156 MiB given to the printing process from OS
             0 MiB allocation reported by mallinfo(arena+hblkhd)
         58098 MiB available memory on the node where the printing process lives
------------------
     ethr =  5.91E-05,  avg # of iterations =  5.0

     total cpu time spent up to now is       19.1 secs

     total energy              =    -804.52505344 Ry
     estimated scf accuracy    <       0.02911047 Ry

     iteration #  5     ecut=    80.00 Ry     beta= 0.30
     Davidson diagonalization with overlap

---- Real-time Memory Report at c_bands before calling an iterative solver
           156 MiB given to the printing process from OS
             0 MiB allocation reported by mallinfo(arena+hblkhd)
         58179 MiB available memory on the node where the printing process lives
------------------
     ethr =  5.91E-05,  avg # of iterations =  1.6

     total cpu time spent up to now is       22.4 secs

     total energy              =    -804.52529497 Ry
     estimated scf accuracy    <       0.00979316 Ry

     iteration #  6     ecut=    80.00 Ry     beta= 0.30
     Davidson diagonalization with overlap

---- Real-time Memory Report at c_bands before calling an iterative solver
           156 MiB given to the printing process from OS
             0 MiB allocation reported by mallinfo(arena+hblkhd)
         57985 MiB available memory on the node where the printing process lives
------------------
     ethr =  2.51E-05,  avg # of iterations =  2.0

     total cpu time spent up to now is       25.9 secs

     total energy              =    -804.52323885 Ry
     estimated scf accuracy    <       0.00446521 Ry

     iteration #  7     ecut=    80.00 Ry     beta= 0.30
     Davidson diagonalization with overlap

---- Real-time Memory Report at c_bands before calling an iterative solver
           157 MiB given to the printing process from OS
             0 MiB allocation reported by mallinfo(arena+hblkhd)
         58120 MiB available memory on the node where the printing process lives
------------------
     ethr =  1.14E-05,  avg # of iterations =  6.0

     total cpu time spent up to now is       30.1 secs

     total energy              =    -804.52529297 Ry
     estimated scf accuracy    <       0.00178632 Ry

     iteration #  8     ecut=    80.00 Ry     beta= 0.30
     Davidson diagonalization with overlap

---- Real-time Memory Report at c_bands before calling an iterative solver
           157 MiB given to the printing process from OS
             0 MiB allocation reported by mallinfo(arena+hblkhd)
         58080 MiB available memory on the node where the printing process lives
------------------
     ethr =  4.58E-06,  avg # of iterations =  3.2

     total cpu time spent up to now is       33.5 secs

     total energy              =    -804.52533911 Ry
     estimated scf accuracy    <       0.00022773 Ry

     iteration #  9     ecut=    80.00 Ry     beta= 0.30
     Davidson diagonalization with overlap

---- Real-time Memory Report at c_bands before calling an iterative solver
           157 MiB given to the printing process from OS
             0 MiB allocation reported by mallinfo(arena+hblkhd)
         58064 MiB available memory on the node where the printing process lives
------------------
     ethr =  5.84E-07,  avg # of iterations =  6.2

     total cpu time spent up to now is       37.8 secs

     total energy              =    -804.52548543 Ry
     estimated scf accuracy    <       0.00014411 Ry

     iteration # 10     ecut=    80.00 Ry     beta= 0.30
     Davidson diagonalization with overlap

---- Real-time Memory Report at c_bands before calling an iterative solver
           158 MiB given to the printing process from OS
             0 MiB allocation reported by mallinfo(arena+hblkhd)
         58162 MiB available memory on the node where the printing process lives
------------------
     ethr =  3.70E-07,  avg # of iterations =  1.4

     total cpu time spent up to now is       41.3 secs

     total energy              =    -804.52547920 Ry
     estimated scf accuracy    <       0.00003961 Ry

     iteration # 11     ecut=    80.00 Ry     beta= 0.30
     Davidson diagonalization with overlap

---- Real-time Memory Report at c_bands before calling an iterative solver
           158 MiB given to the printing process from OS
             0 MiB allocation reported by mallinfo(arena+hblkhd)
         57986 MiB available memory on the node where the printing process lives
------------------
     ethr =  1.02E-07,  avg # of iterations =  4.5

     total cpu time spent up to now is       45.0 secs

     total energy              =    -804.52548808 Ry
     estimated scf accuracy    <       0.00000183 Ry

     iteration # 12     ecut=    80.00 Ry     beta= 0.30
     Davidson diagonalization with overlap

---- Real-time Memory Report at c_bands before calling an iterative solver
           158 MiB given to the printing process from OS
             0 MiB allocation reported by mallinfo(arena+hblkhd)
         58063 MiB available memory on the node where the printing process lives
------------------
     ethr =  4.68E-09,  avg # of iterations =  6.5

     total cpu time spent up to now is       49.5 secs

     total energy              =    -804.52549082 Ry
     estimated scf accuracy    <       0.00000019 Ry

     iteration # 13     ecut=    80.00 Ry     beta= 0.30
     Davidson diagonalization with overlap

---- Real-time Memory Report at c_bands before calling an iterative solver
           158 MiB given to the printing process from OS
             0 MiB allocation reported by mallinfo(arena+hblkhd)
         58056 MiB available memory on the node where the printing process lives
------------------
     ethr =  4.80E-10,  avg # of iterations =  4.5

     total cpu time spent up to now is       53.3 secs

     total energy              =    -804.52549088 Ry
     estimated scf accuracy    <       0.00000025 Ry

     iteration # 14     ecut=    80.00 Ry     beta= 0.30
     Davidson diagonalization with overlap

---- Real-time Memory Report at c_bands before calling an iterative solver
           158 MiB given to the printing process from OS
             0 MiB allocation reported by mallinfo(arena+hblkhd)
         58016 MiB available memory on the node where the printing process lives
------------------
     ethr =  4.80E-10,  avg # of iterations =  5.0

     total cpu time spent up to now is       57.5 secs

     total energy              =    -804.52549078 Ry
     estimated scf accuracy    <       0.00000042 Ry

     iteration # 15     ecut=    80.00 Ry     beta= 0.30
     Davidson diagonalization with overlap

---- Real-time Memory Report at c_bands before calling an iterative solver
           158 MiB given to the printing process from OS
             0 MiB allocation reported by mallinfo(arena+hblkhd)
         58038 MiB available memory on the node where the printing process lives
------------------
     ethr =  4.80E-10,  avg # of iterations =  4.8

     total cpu time spent up to now is       61.4 secs

     total energy              =    -804.52549085 Ry
     estimated scf accuracy    <       0.00000003 Ry

     iteration # 16     ecut=    80.00 Ry     beta= 0.30
     Davidson diagonalization with overlap

---- Real-time Memory Report at c_bands before calling an iterative solver
           158 MiB given to the printing process from OS
             0 MiB allocation reported by mallinfo(arena+hblkhd)
         58005 MiB available memory on the node where the printing process lives
------------------
     ethr =  7.39E-11,  avg # of iterations =  6.7

     total cpu time spent up to now is       66.0 secs

     total energy              =    -804.52549085 Ry
     estimated scf accuracy    <       0.00000004 Ry

     iteration # 17     ecut=    80.00 Ry     beta= 0.30
     Davidson diagonalization with overlap

---- Real-time Memory Report at c_bands before calling an iterative solver
           158 MiB given to the printing process from OS
             0 MiB allocation reported by mallinfo(arena+hblkhd)
         58109 MiB available memory on the node where the printing process lives
------------------
     ethr =  7.39E-11,  avg # of iterations =  3.1

     total cpu time spent up to now is       69.6 secs

     total energy              =    -804.52549086 Ry
     estimated scf accuracy    <          6.6E-10 Ry

     iteration # 18     ecut=    80.00 Ry     beta= 0.30
     Davidson diagonalization with overlap

---- Real-time Memory Report at c_bands before calling an iterative solver
           158 MiB given to the printing process from OS
             0 MiB allocation reported by mallinfo(arena+hblkhd)
         58045 MiB available memory on the node where the printing process lives
------------------
     ethr =  1.70E-12,  avg # of iterations =  8.2

     total cpu time spent up to now is       74.6 secs

     total energy              =    -804.52549086 Ry
     estimated scf accuracy    <          1.5E-09 Ry

     iteration # 19     ecut=    80.00 Ry     beta= 0.30
     Davidson diagonalization with overlap

---- Real-time Memory Report at c_bands before calling an iterative solver
           158 MiB given to the printing process from OS
             0 MiB allocation reported by mallinfo(arena+hblkhd)
         58134 MiB available memory on the node where the printing process lives
------------------
     ethr =  1.70E-12,  avg # of iterations =  1.8

     total cpu time spent up to now is       77.9 secs

     total energy              =    -804.52549086 Ry
     estimated scf accuracy    <          7.0E-10 Ry

     iteration # 20     ecut=    80.00 Ry     beta= 0.30
     Davidson diagonalization with overlap

---- Real-time Memory Report at c_bands before calling an iterative solver
           158 MiB given to the printing process from OS
             0 MiB allocation reported by mallinfo(arena+hblkhd)
         58262 MiB available memory on the node where the printing process lives
------------------
     ethr =  1.70E-12,  avg # of iterations =  4.0

     total cpu time spent up to now is       81.6 secs

     End of self-consistent calculation

          k = 0.0000 0.0000 0.0000 ( 10635 PWs)   bands (ev):

   -31.2074 -29.6728 -12.4691 -12.4691 -12.4691 -12.1925 -12.1925 -12.1925
    -5.3230  -4.3004  -4.3004   4.2145   4.2145   4.2145   5.7025   5.7025
     5.7025   6.8437   6.8437   6.8437   7.7071   7.7071   8.1277   8.1277

     occupation numbers 
     1.0000   1.0000   1.0000   1.0000   1.0000   1.0000   1.0000   1.0000
     1.0000   1.0000   1.0000   1.0000   1.0000   1.0000   1.0000   1.0000
     1.0000  -0.0001  -0.0001  -0.0001  -0.0000  -0.0000  -0.0000  -0.0000

          k = 0.0000 0.0000 0.1667 ( 10611 PWs)   bands (ev):

   -31.2072 -29.6727 -12.4866 -12.4675 -12.4675 -12.2021 -12.1932 -12.1932
    -5.2300  -4.2922  -4.2853   4.1153   4.2249   4.2249   5.3580   5.4692
     5.4692   6.2410   6.7348   6.7348   7.9060   8.1880   8.2199   8.5850

     occupation numbers 
     1.0000   1.0000   1.0000   1.0000   1.0000   1.0000   1.0000   1.0000
     1.0000   1.0000   1.0000   1.0000   1.0000   1.0000   1.0000   1.0000
     1.0000   1.0294  -0.0045  -0.0045  -0.0000  -0.0000  -0.0000  -0.0000

          k = 0.0000 0.0000 0.3333 ( 10599 PWs)   bands (ev):

   -31.2068 -29.6724 -12.5213 -12.4643 -12.4643 -12.2208 -12.1945 -12.1945
    -5.0290  -4.2758  -4.2669   4.0551   4.2529   4.2529   4.8923   5.1087
     5.1087   5.1984   6.5568   6.5568   8.3238   8.3898   9.0646   9.4686

     occupation numbers 
     1.0000   1.0000   1.0000   1.0000   1.0000   1.0000   1.0000   1.0000
     1.0000   1.0000   1.0000   1.0000   1.0000   1.0000   1.0000   1.0000
     1.0000   1.0000  -0.0039  -0.0039  -0.0000  -0.0000  -0.0000  -0.0000

          k = 0.0000 0.0000-0.5000 ( 10612 PWs)   bands (ev):

   -31.2067 -29.6722 -12.5385 -12.4626 -12.4626 -12.2300 -12.1952 -12.1952
    -4.9168  -4.2676  -4.2675   4.2733   4.2733   4.2934   4.4859   4.7110
     4.9541   4.9541   6.4784   6.4784   8.4020   8.7059   9.4633   9.9668

     occupation numbers 
     1.0000   1.0000   1.0000   1.0000   1.0000   1.0000   1.0000   1.0000
     1.0000   1.0000   1.0000   1.0000   1.0000   1.0000   1.0000   1.0000
     1.0000   1.0000   0.2697   0.2697  -0.0000  -0.0000  -0.0000  -0.0000

          k = 0.0000 0.1667 0.1667 ( 10607 PWs)   bands (ev):

   -31.2070 -29.6725 -12.4895 -12.4832 -12.4662 -12.2055 -12.1965 -12.1935
    -5.1395  -4.2832  -4.2715   3.8769   4.2425   4.4087   4.8683   5.2783
     5.6664   5.9672   6.5045   6.5968   8.0969   8.2425   8.5041   8.7328

     occupation numbers 
     1.0000   1.0000   1.0000   1.0000   1.0000   1.0000   1.0000   1.0000
     1.0000   1.0000   1.0000   1.0000   1.0000   1.0000   1.0000   1.0000
     1.0000   1.0000   0.1434  -0.0346  -0.0000  -0.0000  -0.0000  -0.0000

          k = 0.0000 0.1667 0.3333 ( 10599 PWs)   bands (ev):

   -31.2067 -29.6722 -12.5236 -12.4859 -12.4636 -12.2169 -12.1981 -12.1941
    -4.9464  -4.2687  -4.2483   3.7285   4.2871   4.3796   4.5323   4.9643
     5.1310   5.7042   6.2513   6.3707   8.4870   8.6804   8.8803   9.4996

     occupation numbers 
     1.0000   1.0000   1.0000   1.0000   1.0000   1.0000   1.0000   1.0000
     1.0000   1.0000   1.0000   1.0000   1.0000   1.0000   1.0000   1.0000
     1.0000   1.0000   1.0323   0.8740  -0.0000  -0.0000  -0.0000  -0.0000

          k = 0.0000 0.1667-0.5000 ( 10586 PWs)   bands (ev):

   -31.2065 -29.6721 -12.5415 -12.4862 -12.4623 -12.2230 -12.1983 -12.1945
    -4.8409  -4.2583  -4.2466   3.7802   4.1313   4.3185   4.6322   4.6543
     4.8228   5.6895   6.1236   6.2714   8.7418   8.8291   9.3620   9.5496

     occupation numbers 
     1.0000   1.0000   1.0000   1.0000   1.0000   1.0000   1.0000   1.0000
     1.0000   1.0000   1.0000   1.0000   1.0000   1.0000   1.0000   1.0000
     1.0000   1.0000   1.0025   1.0354  -0.0000  -0.0000  -0.0000  -0.0000

          k = 0.0000 0.3333 0.3333 ( 10603 PWs)   bands (ev):

   -31.2063 -29.6719 -12.5304 -12.5251 -12.4622 -12.2117 -12.2038 -12.1934
    -4.7823  -4.2458  -4.2125   3.3498   4.0526   4.3705   4.7178   4.7335
     5.0755   5.5843   6.0429   6.2683   8.5573   9.1973   9.3624   9.3758

     occupation numbers 
     1.0000   1.0000   1.0000   1.0000   1.0000   1.0000   1.0000   1.0000
     1.0000   1.0000   1.0000   1.0000   1.0000   1.0000   1.0000   1.0000
     1.0000   1.0000   1.0001   1.0353  -0.0000  -0.0000  -0.0000  -0.0000

          k = 0.0000 0.3333-0.5000 ( 10574 PWs)   bands (ev):

   -31.2061 -29.6718 -12.5477 -12.5301 -12.4615 -12.2118 -12.2042 -12.1931
    -4.7030  -4.2186  -4.2040   3.2023   3.9289   4.4300   4.6003   4.8417
     4.8954   5.5085   5.8897   6.3450   8.8638   9.0435   9.4458   9.4914

     occupation numbers 
     1.0000   1.0000   1.0000   1.0000   1.0000   1.0000   1.0000   1.0000
     1.0000   1.0000   1.0000   1.0000   1.0000   1.0000   1.0000   1.0000
     1.0000   1.0000   1.0000   0.9585  -0.0000  -0.0000  -0.0000  -0.0000

          k = 0.0000-0.5000-0.5000 ( 10600 PWs)   bands (ev):

   -31.2060 -29.6716 -12.5509 -12.5509 -12.4611 -12.2071 -12.2071 -12.1924
    -4.6463  -4.1824  -4.1824   2.9906   3.8219   4.5033   4.5033   5.0372
     5.0372   5.1471   5.7001   6.5672   8.7589   8.8511   9.6372   9.9581

     occupation numbers 
     1.0000   1.0000   1.0000   1.0000   1.0000   1.0000   1.0000   1.0000
     1.0000   1.0000   1.0000   1.0000   1.0000   1.0000   1.0000   1.0000
     1.0000   1.0000   1.0000  -0.0172  -0.0000  -0.0000  -0.0000  -0.0000

          k = 0.1667 0.1667 0.1667 ( 10600 PWs)   bands (ev):

   -31.2068 -29.6724 -12.4873 -12.4873 -12.4828 -12.2054 -12.1975 -12.1975
    -5.0499  -4.2670  -4.2670   3.6857   4.3818   4.3818   4.8593   4.8593
     5.6064   5.9402   6.4498   6.4498   8.1581   8.1581   8.5573   9.2674

     occupation numbers 
     1.0000   1.0000   1.0000   1.0000   1.0000   1.0000   1.0000   1.0000
     1.0000   1.0000   1.0000   1.0000   1.0000   1.0000   1.0000   1.0000
     1.0000   1.0000   0.4377   0.4377  -0.0000  -0.0000  -0.0000  -0.0000

          k = 0.1667 0.1667 0.3333 ( 10589 PWs)   bands (ev):

   -31.2065 -29.6721 -12.5242 -12.4868 -12.4830 -12.2136 -12.1996 -12.1974
    -4.8601  -4.2580  -4.2403   3.5693   4.2040   4.2806   4.6279   4.7117
     5.2757   5.8937   6.0757   6.3205   8.4564   8.7046   8.8320   9.4714

     occupation numbers 
     1.0000   1.0000   1.0000   1.0000   1.0000   1.0000   1.0000   1.0000
     1.0000   1.0000   1.0000   1.0000   1.0000   1.0000   1.0000   1.0000
     1.0000   1.0000   1.0005   1.0071  -0.0000  -0.0000  -0.0000  -0.0000

          k = 0.1667 0.1667-0.5000 ( 10566 PWs)   bands (ev):

   -31.2063 -29.6719 -12.5428 -12.4883 -12.4808 -12.2189 -12.2006 -12.1961
    -4.7575  -4.2535  -4.2321   3.7051   3.9274   4.0794   4.5442   4.6137
     5.4829   5.7447   5.7991   6.2571   8.6469   9.2186   9.2671   9.4246

     occupation numbers 
     1.0000   1.0000   1.0000   1.0000   1.0000   1.0000   1.0000   1.0000
     1.0000   1.0000   1.0000   1.0000   1.0000   1.0000   1.0000   1.0000
     1.0000   1.0000   1.0000   1.0336  -0.0000  -0.0000  -0.0000  -0.0000

          k = 0.1667 0.3333 0.3333 ( 10578 PWs)   bands (ev):

   -31.2061 -29.6718 -12.5271 -12.5246 -12.4824 -12.2103 -12.2056 -12.1985
    -4.6874  -4.2394  -4.2151   3.3592   3.8766   4.2038   4.4067   5.0258
     5.0331   5.8746   6.0506   6.3077   8.5930   8.8518   8.9499   9.6158

     occupation numbers 
     1.0000   1.0000   1.0000   1.0000   1.0000   1.0000   1.0000   1.0000
     1.0000   1.0000   1.0000   1.0000   1.0000   1.0000   1.0000   1.0000
     1.0000   1.0000   1.0002   1.0218  -0.0000  -0.0000  -0.0000  -0.0000

          k = 0.1667 0.3333-0.5000 ( 10590 PWs)   bands (ev):

   -31.2060 -29.6716 -12.5455 -12.5270 -12.4811 -12.2122 -12.2065 -12.1979
    -4.6039  -4.2230  -4.2030   3.2950   3.7605   4.0487   4.2768   4.9958
     5.3806   5.5756   5.9654   6.3927   8.8545   8.9863   9.1362   9.6328

     occupation numbers 
     1.0000   1.0000   1.0000   1.0000   1.0000   1.0000   1.0000   1.0000
     1.0000   1.0000   1.0000   1.0000   1.0000   1.0000   1.0000   1.0000
     1.0000   1.0000   1.0000   0.7741  -0.0000  -0.0000  -0.0000  -0.0000

          k = 0.1667-0.5000-0.5000 ( 10556 PWs)   bands (ev):

   -31.2058 -29.6714 -12.5470 -12.5470 -12.4798 -12.2095 -12.2095 -12.1986
    -4.5418  -4.1884  -4.1884   3.1151   3.7117   4.0758   4.0758   5.1536
     5.4969   5.6141   5.6141   6.6229   8.7854   8.8255   9.6161   9.6164

     occupation numbers 
     1.0000   1.0000   1.0000   1.0000   1.0000   1.0000   1.0000   1.0000
     1.0000   1.0000   1.0000   1.0000   1.0000   1.0000   1.0000   1.0000
     1.0000   1.0000   1.0000  -0.0335  -0.0000  -0.0000  -0.0000  -0.0000

          k = 0.3333 0.3333 0.3333 ( 10585 PWs)   bands (ev):

   -31.2058 -29.6715 -12.5252 -12.5204 -12.5204 -12.2095 -12.2095 -12.2069
    -4.4958  -4.2204  -4.2204   3.3397   3.8089   3.8089   3.9784   5.1352
     5.1352   6.1658   6.1658   6.4913   8.6824   8.6929   8.6929   9.6124

     occupation numbers 
     1.0000   1.0000   1.0000   1.0000   1.0000   1.0000   1.0000   1.0000
     1.0000   1.0000   1.0000   1.0000   1.0000   1.0000   1.0000   1.0000
     1.0000   1.0077   1.0077   0.2034  -0.0000  -0.0000  -0.0000  -0.0000

          k = 0.3333 0.3333-0.5000 ( 10586 PWs)   bands (ev):

   -31.2056 -29.6713 -12.5411 -12.5232 -12.5169 -12.2135 -12.2115 -12.2068
    -4.4048  -4.2230  -4.2013   3.4434   3.5137   3.6688   3.8965   5.1694
     5.2155   6.2177   6.2310   6.5696   8.7533   8.7938   9.0699   9.0966

     occupation numbers 
     1.0000   1.0000   1.0000   1.0000   1.0000   1.0000   1.0000   1.0000
     1.0000   1.0000   1.0000   1.0000   1.0000   1.0000   1.0000   1.0000
     1.0000   1.0216   1.0261  -0.0197  -0.0000  -0.0000  -0.0000  -0.0000

          k = 0.3333-0.5000-0.5000 ( 10568 PWs)   bands (ev):

   -31.2054 -29.6711 -12.5389 -12.5389 -12.5167 -12.2144 -12.2144 -12.2108
    -4.3224  -4.2005  -4.2005   3.3902   3.4084   3.6823   3.6823   5.1665
     5.2425   6.3916   6.3916   6.7485   8.6069   8.9244   8.9244   8.9684

     occupation numbers 
     1.0000   1.0000   1.0000   1.0000   1.0000   1.0000   1.0000   1.0000
     1.0000   1.0000   1.0000   1.0000   1.0000   1.0000   1.0000   1.0000
     1.0000   0.7797   0.7797  -0.0030  -0.0000  -0.0000  -0.0000  -0.0000

          k =-0.5000-0.5000-0.5000 ( 10552 PWs)   bands (ev):

   -31.2053 -29.6710 -12.5348 -12.5348 -12.5348 -12.2170 -12.2170 -12.2170
    -4.2065  -4.2065  -4.2065   3.2220   3.5445   3.5445   3.5445   5.1731
     5.1731   6.8208   6.8208   6.8208   8.5055   8.5055   8.5055   9.0350

     occupation numbers 
     1.0000   1.0000   1.0000   1.0000   1.0000   1.0000   1.0000   1.0000
     1.0000   1.0000   1.0000   1.0000   1.0000   1.0000   1.0000   1.0000
     1.0000  -0.0003  -0.0003  -0.0003  -0.0000  -0.0000  -0.0000  -0.0000

     the Fermi energy is     6.4397 ev

!    total energy              =    -804.52549086 Ry
     total all-electron energy =    -21477.624602 Ry
     estimated scf accuracy    <          8.1E-12 Ry
     smearing contrib. (-TS)   =       0.00007814 Ry
     internal energy E=F+TS    =    -804.52556901 Ry

     The total energy is F=E-TS. E is the sum of the following terms:
     one-electron contribution =     -40.85930906 Ry
     hartree contribution      =      37.85013133 Ry
     xc contribution           =    -100.49448858 Ry
     ewald contribution        =    -156.84238772 Ry
     one-center paw contrib.   =    -544.17951497 Ry
      -> PAW hartree energy AE =      48.10699892 Ry
      -> PAW hartree energy PS =     -47.88415958 Ry
      -> PAW xc energy AE      =     -71.57174888 Ry
      -> PAW xc energy PS      =      11.36113552 Ry
      -> total E_H with PAW    =      38.07297067 Ry
      -> total E_XC with PAW   =    -160.70510194 Ry

     convergence has been achieved in  20 iterations

     Forces acting on atoms (cartesian axes, Ry/au):

     atom    1 type  1   force =     0.00000000    0.00000000    0.00000000
     atom    2 type  2   force =     0.00000000    0.00000000    0.00000000
     atom    3 type  3   force =     0.00000000    0.00000000    0.00000000
     atom    4 type  3   force =     0.00000000    0.00000000    0.00000000
     atom    5 type  3   force =     0.00000000    0.00000000    0.00000000
     The non-local contrib.  to forces
     atom    1 type  1   force =     0.00000000    0.00000000    0.00000000
     atom    2 type  2   force =     0.00000000    0.00000000    0.00000000
     atom    3 type  3   force =     0.00000000    0.00000000    0.00000000
     atom    4 type  3   force =     0.00000000    0.00000000    0.00000000
     atom    5 type  3   force =     0.00000000    0.00000000    0.00000000
     The ionic contribution  to forces
     atom    1 type  1   force =    -0.00000000   -0.00000000   -0.00000000
     atom    2 type  2   force =     0.00000000    0.00000000    0.00000000
     atom    3 type  3   force =     0.00000000   -0.00000000   -0.00000000
     atom    4 type  3   force =    -0.00000000    0.00000000   -0.00000000
     atom    5 type  3   force =    -0.00000000   -0.00000000    0.00000000
     The local contribution  to forces
     atom    1 type  1   force =    -0.00000000   -0.00000000   -0.00000000
     atom    2 type  2   force =     0.00000000    0.00000000    0.00000000
     atom    3 type  3   force =     0.00000000   -0.00000000   -0.00000000
     atom    4 type  3   force =    -0.00000000    0.00000000   -0.00000000
     atom    5 type  3   force =    -0.00000000    0.00000000    0.00000000
     The core correction contribution to forces
     atom    1 type  1   force =    -0.00000000   -0.00000000    0.00000000
     atom    2 type  2   force =     0.00000000   -0.00000000   -0.00000000
     atom    3 type  3   force =    -0.00000000    0.00000000    0.00000000
     atom    4 type  3   force =     0.00000000   -0.00000000    0.00000000
     atom    5 type  3   force =    -0.00000000   -0.00000000   -0.00000000
     The Hubbard contrib.    to forces
     atom    1 type  1   force =     0.00000000    0.00000000    0.00000000
     atom    2 type  2   force =     0.00000000    0.00000000    0.00000000
     atom    3 type  3   force =     0.00000000    0.00000000    0.00000000
     atom    4 type  3   force =     0.00000000    0.00000000    0.00000000
     atom    5 type  3   force =     0.00000000    0.00000000    0.00000000
     The SCF correction term to forces
     atom    1 type  1   force =     0.00000000    0.00000000    0.00000000
     atom    2 type  2   force =     0.00000000    0.00000000    0.00000000
     atom    3 type  3   force =    -0.00000000    0.00000000   -0.00000000
     atom    4 type  3   force =     0.00000000   -0.00000000   -0.00000000
     atom    5 type  3   force =     0.00000000    0.00000000   -0.00000000

     Total force =     0.000000     Total SCF correction =     0.000000


     Computing stress (Cartesian axis) and pressure

          total   stress  (Ry/bohr**3)                   (kbar)     P=       -0.11
  -0.00000072   0.00000000   0.00000000           -0.11        0.00        0.00
   0.00000000  -0.00000072   0.00000000            0.00       -0.11        0.00
   0.00000000   0.00000000  -0.00000072            0.00        0.00       -0.11

     kinetic stress (kbar)   8504.06      0.00      0.00
                                0.00   8504.06      0.00
                                0.00      0.00   8504.06

     local   stress (kbar)  -2943.53     -0.00      0.00
                               -0.00  -2943.53      0.00
                                0.00      0.00  -2943.53

     nonloc. stress (kbar)   3295.58      0.00      0.00
                                0.00   3295.58      0.00
                                0.00      0.00   3295.58

     hartree stress (kbar)   2117.77     -0.00     -0.00
                               -0.00   2117.77     -0.00
                               -0.00     -0.00   2117.77

     exc-cor stress (kbar)   9028.11     -0.00     -0.00
                               -0.00   9028.11     -0.00
                               -0.00     -0.00   9028.11

     corecor stress (kbar) -11226.55     -0.00      0.00
                               -0.00 -11226.55      0.00
                                0.00      0.00 -11226.55

     ewald   stress (kbar)  -8775.54      0.00     -0.00
                                0.00  -8775.54     -0.00
                               -0.00     -0.00  -8775.54

     hubbard stress (kbar)      0.00      0.00      0.00
                                0.00      0.00      0.00
                                0.00      0.00      0.00

     DFT-D   stress (kbar)      0.00      0.00      0.00
                                0.00      0.00      0.00
                                0.00      0.00      0.00

     XDM     stress (kbar)      0.00      0.00      0.00
                                0.00      0.00      0.00
                                0.00      0.00      0.00

     dft-nl  stress (kbar)      0.00      0.00      0.00
                                0.00      0.00      0.00
                                0.00      0.00      0.00

     TS-vdW  stress (kbar)      0.00      0.00      0.00
                                0.00      0.00      0.00
                                0.00      0.00      0.00

     MDB     stress (kbar)      0.00      0.00      0.00
                                0.00      0.00      0.00
                                0.00      0.00      0.00

     3D-RISM stress (kbar)      0.00      0.00      0.00
                                0.00      0.00      0.00
                                0.00      0.00      0.00


     Writing all to output data dir ./tmp/caces3.save/ :
     XML data file, charge density, pseudopotentials, collected wavefunctions

     init_run     :      2.46s CPU      2.72s WALL (       1 calls)
     electrons    :     69.39s CPU     78.39s WALL (       1 calls)
     forces       :      0.85s CPU      1.03s WALL (       1 calls)
     stress       :      6.62s CPU      7.05s WALL (       1 calls)

     Called by init_run:
     wfcinit      :      0.84s CPU      0.90s WALL (       1 calls)
     wfcinit:atom :      0.01s CPU      0.01s WALL (      20 calls)
     wfcinit:wfcr :      0.73s CPU      0.79s WALL (      20 calls)
     potinit      :      0.52s CPU      0.54s WALL (       1 calls)
     hinit0       :      0.65s CPU      0.66s WALL (       1 calls)

     Called by electrons:
     c_bands      :     41.91s CPU     44.19s WALL (      20 calls)
     sum_band     :     15.75s CPU     19.33s WALL (      20 calls)
     v_of_rho     :      1.07s CPU      1.11s WALL (      21 calls)
     v_h          :      0.07s CPU      0.08s WALL (      21 calls)
     v_xc         :      1.09s CPU      1.13s WALL (      23 calls)
     newd         :      7.44s CPU     10.66s WALL (      21 calls)
     PAW_pot      :      3.49s CPU      3.52s WALL (      21 calls)
     mix_rho      :      0.18s CPU      0.19s WALL (      20 calls)

     Called by c_bands:
     init_us_2    :      1.65s CPU      1.66s WALL (     860 calls)
     cegterg      :     38.51s CPU     40.78s WALL (     400 calls)

     Called by sum_band:
     sum_band:wei :      0.02s CPU      0.02s WALL (      20 calls)
     sum_band:loo :      6.08s CPU      6.49s WALL (      20 calls)
     sum_band:buf :      0.11s CPU      0.11s WALL (     400 calls)
     sum_band:ini :      0.75s CPU      0.75s WALL (     400 calls)
     sum_band:cal :      0.72s CPU      0.76s WALL (     400 calls)
     sum_band:bec :      0.01s CPU      0.01s WALL (     400 calls)
     addusdens    :      9.25s CPU     12.40s WALL (      20 calls)
                                        0.00s GPU  (      20 calls)
     addusd:skk   :      0.02s CPU      0.02s WALL (      60 calls)
                                        0.00s GPU  (      60 calls)

     Called by *egterg:
     cdiaghg      :      2.77s CPU      2.79s WALL (    2135 calls)
     cegterg:over :      1.66s CPU      1.71s WALL (    1735 calls)
     cegterg:upda :      1.08s CPU      1.09s WALL (    1735 calls)
     cegterg:last :      1.80s CPU      1.81s WALL (     944 calls)
     h_psi        :     28.45s CPU     30.65s WALL (    2155 calls)
     s_psi        :      2.11s CPU      2.13s WALL (    2155 calls)
     g_psi        :      0.22s CPU      0.22s WALL (    1735 calls)

     Called by h_psi:
     h_psi:calbec :      2.69s CPU      2.85s WALL (    2155 calls)
     vloc_psi     :     23.01s CPU     25.03s WALL (    2155 calls)
     add_vuspsi   :      2.54s CPU      2.56s WALL (    2155 calls)

     General routines
     calbec       :      3.65s CPU      3.85s WALL (    2655 calls)
     fft          :      0.81s CPU      0.87s WALL (     296 calls)
     ffts         :      0.30s CPU      0.30s WALL (      41 calls)
     fftw         :     22.54s CPU     24.55s WALL (   64114 calls)
     interpolate  :      0.33s CPU      0.33s WALL (      21 calls)

     Parallel routines

     PAW routines
     PAW_pot      :      3.49s CPU      3.52s WALL (      21 calls)
     PAW_symme    :      0.02s CPU      0.02s WALL (      41 calls)

     PWSCF        :   1m19.88s CPU   1m29.89s WALL


   This run was terminated on:   8:58:12   9Apr2025            

=------------------------------------------------------------------------------=
   JOB DONE.
=------------------------------------------------------------------------------=
