
     Program PWSCF v.7.3.1 starts on  8May2025 at 18:58:17 

     This program is part of the open-source Quantum ESPRESSO suite
     for quantum simulation of materials; please cite
         "P. Giannozzi et al., J. Phys.:Condens. Matter 21 395502 (2009);
         "P. Giannozzi et al., J. Phys.:Condens. Matter 29 465901 (2017);
         "P. Giannozzi et al., J. Chem. Phys. 152 154105 (2020);
          URL http://www.quantum-espresso.org", 
     in publications or presentations arising from this work. More details at
     http://www.quantum-espresso.org/quote

     Parallel version (MPI), running on     8 processors

     MPI processes distributed on     1 nodes
     46318 MiB available memory on the printing compute node when the environment starts

     Waiting for input...
     Reading input from standard input

     Current dimensions of program PWSCF are:
     Max number of different atomic species (ntypx) = 10
     Max number of k-points (npk) = 120000
     Max angular momentum in pseudopotentials (lmaxx) =  4
     file K.pbe-spn-rrkjus_psl.1.0.0.UPF: wavefunction(s)  3S renormalized
     file F.pbe-n-rrkjus_psl.1.0.0.UPF: wavefunction(s)  2S renormalized

     IMPORTANT: XC functional enforced from input :
     Exchange-correlation= PBE
                           (   1   4   3   4   0   0   0)
     Any further DFT definition will be discarded
     Please, verify this is what you really want

     Message from routine setup:
     using ibrav=0 with symmetry is DISCOURAGED, use correct ibrav instead

     K-points division:     npool     =       2
     R & G space division:  proc/nbgrp/npool/nimage =       4
     Subspace diagonalization in iterative solution of the eigenvalue problem:
     a serial algorithm will be used


     Parallelization info
     --------------------
     sticks:   dense  smooth     PW     G-vecs:    dense   smooth      PW
     Min        1144     571    163                58162    20513    3073
     Max        1145     572    165                58164    20516    3074
     Sum        4577    2285    657               232653    82057   12293

     Using Slab Decomposition



     bravais-lattice index     =            0
     lattice parameter (alat)  =       8.4711  a.u.
     unit-cell volume          =     607.8925 (a.u.)^3
     number of atoms/cell      =            5
     number of atomic types    =            3
     number of electrons       =        41.00
     number of Kohn-Sham states=           25
     kinetic-energy cutoff     =     100.0000  Ry
     charge density cutoff     =     800.0000  Ry
     scf convergence threshold =      1.0E-12
     mixing beta               =       0.3000
     number of iterations used =            8  plain     mixing
     Exchange-correlation= PBE
                           (   1   4   3   4   0   0   0)

     celldm(1)=   8.471148  celldm(2)=   0.000000  celldm(3)=   0.000000
     celldm(4)=   0.000000  celldm(5)=   0.000000  celldm(6)=   0.000000

     crystal axes: (cart. coord. in units of alat)
               a(1) = (   1.000000   0.000000   0.000000 )  
               a(2) = (   0.000000   1.000000   0.000000 )  
               a(3) = (   0.000000   0.000000   1.000000 )  

     reciprocal axes: (cart. coord. in units 2 pi/alat)
               b(1) = (  1.000000  0.000000  0.000000 )  
               b(2) = (  0.000000  1.000000  0.000000 )  
               b(3) = (  0.000000  0.000000  1.000000 )  


     PseudoPot. # 1 for K  read from file:
     /home/administrator/Downloads/BURAI/BURAI1.3/pseudopot/K.pbe-spn-rrkjus_psl.1.0.0.UPF
     MD5 check sum: 716c94968b5730b158b89360ae401048
     Pseudo is Ultrasoft + core correction, Zval =  9.0
     Generated using "atomic" code by A. Dal Corso  v.5.1.2
     Using radial grid of 1165 points,  6 beta functions with: 
                l(1) =   0
                l(2) =   0
                l(3) =   1
                l(4) =   1
                l(5) =   2
                l(6) =   2
     Q(r) pseudized with 0 coefficients 


     PseudoPot. # 2 for Yb read from file:
     /home/administrator/Downloads/BURAI/BURAI1.3/pseudopot/Yb.pbe-spdn-rrkjus_psl.1.0.0.UPF
     MD5 check sum: b7c757698a1c184726bee8f81fb257e4
     Pseudo is Ultrasoft + core correction, Zval = 11.0
     Generated using "atomic" code by A. Dal Corso  v.5.1.2
     Using radial grid of 1269 points,  6 beta functions with: 
                l(1) =   0
                l(2) =   0
                l(3) =   1
                l(4) =   1
                l(5) =   2
                l(6) =   2
     Q(r) pseudized with 0 coefficients 


     PseudoPot. # 3 for F  read from file:
     /home/administrator/Downloads/BURAI/BURAI1.3/pseudopot/F.pbe-n-rrkjus_psl.1.0.0.UPF
     MD5 check sum: e46f3687432712155e86cd41d17295f8
     Pseudo is Ultrasoft + core correction, Zval =  7.0
     Generated using "atomic" code by A. Dal Corso  v.5.1.2
     Using radial grid of 1105 points,  4 beta functions with: 
                l(1) =   0
                l(2) =   0
                l(3) =   1
                l(4) =   1
     Q(r) pseudized with 0 coefficients 


     atomic species   valence    mass     pseudopotential
     K                 9.00    39.09830     K ( 1.00)
     Yb               11.00   173.05400     Yb( 1.00)
     F                 7.00    18.99840     F ( 1.00)

     48 Sym. Ops., with inversion, found


                                    s                        frac. trans.

      isym =  1     identity                                     

 cryst.   s( 1) = (     1          0          0      )
                  (     0          1          0      )
                  (     0          0          1      )

 cart.    s( 1) = (  1.0000000  0.0000000  0.0000000 )
                  (  0.0000000  1.0000000  0.0000000 )
                  (  0.0000000  0.0000000  1.0000000 )


      isym =  2     180 deg rotation - cart. axis [0,0,1]        

 cryst.   s( 2) = (    -1          0          0      )
                  (     0         -1          0      )
                  (     0          0          1      )

 cart.    s( 2) = ( -1.0000000  0.0000000  0.0000000 )
                  (  0.0000000 -1.0000000  0.0000000 )
                  (  0.0000000  0.0000000  1.0000000 )


      isym =  3     180 deg rotation - cart. axis [0,1,0]        

 cryst.   s( 3) = (    -1          0          0      )
                  (     0          1          0      )
                  (     0          0         -1      )

 cart.    s( 3) = ( -1.0000000  0.0000000  0.0000000 )
                  (  0.0000000  1.0000000  0.0000000 )
                  (  0.0000000  0.0000000 -1.0000000 )


      isym =  4     180 deg rotation - cart. axis [1,0,0]        

 cryst.   s( 4) = (     1          0          0      )
                  (     0         -1          0      )
                  (     0          0         -1      )

 cart.    s( 4) = (  1.0000000  0.0000000  0.0000000 )
                  (  0.0000000 -1.0000000  0.0000000 )
                  (  0.0000000  0.0000000 -1.0000000 )


      isym =  5     180 deg rotation - cart. axis [1,1,0]        

 cryst.   s( 5) = (     0          1          0      )
                  (     1          0          0      )
                  (     0          0         -1      )

 cart.    s( 5) = (  0.0000000  1.0000000  0.0000000 )
                  (  1.0000000  0.0000000  0.0000000 )
                  (  0.0000000  0.0000000 -1.0000000 )


      isym =  6     180 deg rotation - cart. axis [1,-1,0]       

 cryst.   s( 6) = (     0         -1          0      )
                  (    -1          0          0      )
                  (     0          0         -1      )

 cart.    s( 6) = (  0.0000000 -1.0000000  0.0000000 )
                  ( -1.0000000  0.0000000  0.0000000 )
                  (  0.0000000  0.0000000 -1.0000000 )


      isym =  7      90 deg rotation - cart. axis [0,0,-1]       

 cryst.   s( 7) = (     0         -1          0      )
                  (     1          0          0      )
                  (     0          0          1      )

 cart.    s( 7) = (  0.0000000  1.0000000  0.0000000 )
                  ( -1.0000000  0.0000000  0.0000000 )
                  (  0.0000000  0.0000000  1.0000000 )


      isym =  8      90 deg rotation - cart. axis [0,0,1]        

 cryst.   s( 8) = (     0          1          0      )
                  (    -1          0          0      )
                  (     0          0          1      )

 cart.    s( 8) = (  0.0000000 -1.0000000  0.0000000 )
                  (  1.0000000  0.0000000  0.0000000 )
                  (  0.0000000  0.0000000  1.0000000 )


      isym =  9     180 deg rotation - cart. axis [1,0,1]        

 cryst.   s( 9) = (     0          0          1      )
                  (     0         -1          0      )
                  (     1          0          0      )

 cart.    s( 9) = (  0.0000000  0.0000000  1.0000000 )
                  (  0.0000000 -1.0000000  0.0000000 )
                  (  1.0000000  0.0000000  0.0000000 )


      isym = 10     180 deg rotation - cart. axis [-1,0,1]       

 cryst.   s(10) = (     0          0         -1      )
                  (     0         -1          0      )
                  (    -1          0          0      )

 cart.    s(10) = (  0.0000000  0.0000000 -1.0000000 )
                  (  0.0000000 -1.0000000  0.0000000 )
                  ( -1.0000000  0.0000000  0.0000000 )


      isym = 11      90 deg rotation - cart. axis [0,1,0]        

 cryst.   s(11) = (     0          0         -1      )
                  (     0          1          0      )
                  (     1          0          0      )

 cart.    s(11) = (  0.0000000  0.0000000  1.0000000 )
                  (  0.0000000  1.0000000  0.0000000 )
                  ( -1.0000000  0.0000000  0.0000000 )


      isym = 12      90 deg rotation - cart. axis [0,-1,0]       

 cryst.   s(12) = (     0          0          1      )
                  (     0          1          0      )
                  (    -1          0          0      )

 cart.    s(12) = (  0.0000000  0.0000000 -1.0000000 )
                  (  0.0000000  1.0000000  0.0000000 )
                  (  1.0000000  0.0000000  0.0000000 )


      isym = 13     180 deg rotation - cart. axis [0,1,1]        

 cryst.   s(13) = (    -1          0          0      )
                  (     0          0          1      )
                  (     0          1          0      )

 cart.    s(13) = ( -1.0000000  0.0000000  0.0000000 )
                  (  0.0000000  0.0000000  1.0000000 )
                  (  0.0000000  1.0000000  0.0000000 )


      isym = 14     180 deg rotation - cart. axis [0,1,-1]       

 cryst.   s(14) = (    -1          0          0      )
                  (     0          0         -1      )
                  (     0         -1          0      )

 cart.    s(14) = ( -1.0000000  0.0000000  0.0000000 )
                  (  0.0000000  0.0000000 -1.0000000 )
                  (  0.0000000 -1.0000000  0.0000000 )


      isym = 15      90 deg rotation - cart. axis [-1,0,0]       

 cryst.   s(15) = (     1          0          0      )
                  (     0          0         -1      )
                  (     0          1          0      )

 cart.    s(15) = (  1.0000000  0.0000000  0.0000000 )
                  (  0.0000000  0.0000000  1.0000000 )
                  (  0.0000000 -1.0000000  0.0000000 )


      isym = 16      90 deg rotation - cart. axis [1,0,0]        

 cryst.   s(16) = (     1          0          0      )
                  (     0          0          1      )
                  (     0         -1          0      )

 cart.    s(16) = (  1.0000000  0.0000000  0.0000000 )
                  (  0.0000000  0.0000000 -1.0000000 )
                  (  0.0000000  1.0000000  0.0000000 )


      isym = 17     120 deg rotation - cart. axis [-1,-1,-1]     

 cryst.   s(17) = (     0          0          1      )
                  (     1          0          0      )
                  (     0          1          0      )

 cart.    s(17) = (  0.0000000  1.0000000  0.0000000 )
                  (  0.0000000  0.0000000  1.0000000 )
                  (  1.0000000  0.0000000  0.0000000 )


      isym = 18     120 deg rotation - cart. axis [-1,1,1]       

 cryst.   s(18) = (     0          0         -1      )
                  (    -1          0          0      )
                  (     0          1          0      )

 cart.    s(18) = (  0.0000000 -1.0000000  0.0000000 )
                  (  0.0000000  0.0000000  1.0000000 )
                  ( -1.0000000  0.0000000  0.0000000 )


      isym = 19     120 deg rotation - cart. axis [1,1,-1]       

 cryst.   s(19) = (     0          0         -1      )
                  (     1          0          0      )
                  (     0         -1          0      )

 cart.    s(19) = (  0.0000000  1.0000000  0.0000000 )
                  (  0.0000000  0.0000000 -1.0000000 )
                  ( -1.0000000  0.0000000  0.0000000 )


      isym = 20     120 deg rotation - cart. axis [1,-1,1]       

 cryst.   s(20) = (     0          0          1      )
                  (    -1          0          0      )
                  (     0         -1          0      )

 cart.    s(20) = (  0.0000000 -1.0000000  0.0000000 )
                  (  0.0000000  0.0000000 -1.0000000 )
                  (  1.0000000  0.0000000  0.0000000 )


      isym = 21     120 deg rotation - cart. axis [1,1,1]        

 cryst.   s(21) = (     0          1          0      )
                  (     0          0          1      )
                  (     1          0          0      )

 cart.    s(21) = (  0.0000000  0.0000000  1.0000000 )
                  (  1.0000000  0.0000000  0.0000000 )
                  (  0.0000000  1.0000000  0.0000000 )


      isym = 22     120 deg rotation - cart. axis [-1,1,-1]      

 cryst.   s(22) = (     0         -1          0      )
                  (     0          0         -1      )
                  (     1          0          0      )

 cart.    s(22) = (  0.0000000  0.0000000  1.0000000 )
                  ( -1.0000000  0.0000000  0.0000000 )
                  (  0.0000000 -1.0000000  0.0000000 )


      isym = 23     120 deg rotation - cart. axis [1,-1,-1]      

 cryst.   s(23) = (     0         -1          0      )
                  (     0          0          1      )
                  (    -1          0          0      )

 cart.    s(23) = (  0.0000000  0.0000000 -1.0000000 )
                  ( -1.0000000  0.0000000  0.0000000 )
                  (  0.0000000  1.0000000  0.0000000 )


      isym = 24     120 deg rotation - cart. axis [-1,-1,1]      

 cryst.   s(24) = (     0          1          0      )
                  (     0          0         -1      )
                  (    -1          0          0      )

 cart.    s(24) = (  0.0000000  0.0000000 -1.0000000 )
                  (  1.0000000  0.0000000  0.0000000 )
                  (  0.0000000 -1.0000000  0.0000000 )


      isym = 25     inversion                                    

 cryst.   s(25) = (    -1          0          0      )
                  (     0         -1          0      )
                  (     0          0         -1      )

 cart.    s(25) = ( -1.0000000  0.0000000  0.0000000 )
                  (  0.0000000 -1.0000000  0.0000000 )
                  (  0.0000000  0.0000000 -1.0000000 )


      isym = 26     inv. 180 deg rotation - cart. axis [0,0,1]   

 cryst.   s(26) = (     1          0          0      )
                  (     0          1          0      )
                  (     0          0         -1      )

 cart.    s(26) = (  1.0000000  0.0000000  0.0000000 )
                  (  0.0000000  1.0000000  0.0000000 )
                  (  0.0000000  0.0000000 -1.0000000 )


      isym = 27     inv. 180 deg rotation - cart. axis [0,1,0]   

 cryst.   s(27) = (     1          0          0      )
                  (     0         -1          0      )
                  (     0          0          1      )

 cart.    s(27) = (  1.0000000  0.0000000  0.0000000 )
                  (  0.0000000 -1.0000000  0.0000000 )
                  (  0.0000000  0.0000000  1.0000000 )


      isym = 28     inv. 180 deg rotation - cart. axis [1,0,0]   

 cryst.   s(28) = (    -1          0          0      )
                  (     0          1          0      )
                  (     0          0          1      )

 cart.    s(28) = ( -1.0000000  0.0000000  0.0000000 )
                  (  0.0000000  1.0000000  0.0000000 )
                  (  0.0000000  0.0000000  1.0000000 )


      isym = 29     inv. 180 deg rotation - cart. axis [1,1,0]   

 cryst.   s(29) = (     0         -1          0      )
                  (    -1          0          0      )
                  (     0          0          1      )

 cart.    s(29) = (  0.0000000 -1.0000000  0.0000000 )
                  ( -1.0000000  0.0000000  0.0000000 )
                  (  0.0000000  0.0000000  1.0000000 )


      isym = 30     inv. 180 deg rotation - cart. axis [1,-1,0]  

 cryst.   s(30) = (     0          1          0      )
                  (     1          0          0      )
                  (     0          0          1      )

 cart.    s(30) = (  0.0000000  1.0000000  0.0000000 )
                  (  1.0000000  0.0000000  0.0000000 )
                  (  0.0000000  0.0000000  1.0000000 )


      isym = 31     inv.  90 deg rotation - cart. axis [0,0,-1]  

 cryst.   s(31) = (     0          1          0      )
                  (    -1          0          0      )
                  (     0          0         -1      )

 cart.    s(31) = (  0.0000000 -1.0000000  0.0000000 )
                  (  1.0000000  0.0000000  0.0000000 )
                  (  0.0000000  0.0000000 -1.0000000 )


      isym = 32     inv.  90 deg rotation - cart. axis [0,0,1]   

 cryst.   s(32) = (     0         -1          0      )
                  (     1          0          0      )
                  (     0          0         -1      )

 cart.    s(32) = (  0.0000000  1.0000000  0.0000000 )
                  ( -1.0000000  0.0000000  0.0000000 )
                  (  0.0000000  0.0000000 -1.0000000 )


      isym = 33     inv. 180 deg rotation - cart. axis [1,0,1]   

 cryst.   s(33) = (     0          0         -1      )
                  (     0          1          0      )
                  (    -1          0          0      )

 cart.    s(33) = (  0.0000000  0.0000000 -1.0000000 )
                  (  0.0000000  1.0000000  0.0000000 )
                  ( -1.0000000  0.0000000  0.0000000 )


      isym = 34     inv. 180 deg rotation - cart. axis [-1,0,1]  

 cryst.   s(34) = (     0          0          1      )
                  (     0          1          0      )
                  (     1          0          0      )

 cart.    s(34) = (  0.0000000  0.0000000  1.0000000 )
                  (  0.0000000  1.0000000  0.0000000 )
                  (  1.0000000  0.0000000  0.0000000 )


      isym = 35     inv.  90 deg rotation - cart. axis [0,1,0]   

 cryst.   s(35) = (     0          0          1      )
                  (     0         -1          0      )
                  (    -1          0          0      )

 cart.    s(35) = (  0.0000000  0.0000000 -1.0000000 )
                  (  0.0000000 -1.0000000  0.0000000 )
                  (  1.0000000  0.0000000  0.0000000 )


      isym = 36     inv.  90 deg rotation - cart. axis [0,-1,0]  

 cryst.   s(36) = (     0          0         -1      )
                  (     0         -1          0      )
                  (     1          0          0      )

 cart.    s(36) = (  0.0000000  0.0000000  1.0000000 )
                  (  0.0000000 -1.0000000  0.0000000 )
                  ( -1.0000000  0.0000000  0.0000000 )


      isym = 37     inv. 180 deg rotation - cart. axis [0,1,1]   

 cryst.   s(37) = (     1          0          0      )
                  (     0          0         -1      )
                  (     0         -1          0      )

 cart.    s(37) = (  1.0000000  0.0000000  0.0000000 )
                  (  0.0000000  0.0000000 -1.0000000 )
                  (  0.0000000 -1.0000000  0.0000000 )


      isym = 38     inv. 180 deg rotation - cart. axis [0,1,-1]  

 cryst.   s(38) = (     1          0          0      )
                  (     0          0          1      )
                  (     0          1          0      )

 cart.    s(38) = (  1.0000000  0.0000000  0.0000000 )
                  (  0.0000000  0.0000000  1.0000000 )
                  (  0.0000000  1.0000000  0.0000000 )


      isym = 39     inv.  90 deg rotation - cart. axis [-1,0,0]  

 cryst.   s(39) = (    -1          0          0      )
                  (     0          0          1      )
                  (     0         -1          0      )

 cart.    s(39) = ( -1.0000000  0.0000000  0.0000000 )
                  (  0.0000000  0.0000000 -1.0000000 )
                  (  0.0000000  1.0000000  0.0000000 )


      isym = 40     inv.  90 deg rotation - cart. axis [1,0,0]   

 cryst.   s(40) = (    -1          0          0      )
                  (     0          0         -1      )
                  (     0          1          0      )

 cart.    s(40) = ( -1.0000000  0.0000000  0.0000000 )
                  (  0.0000000  0.0000000  1.0000000 )
                  (  0.0000000 -1.0000000  0.0000000 )


      isym = 41     inv. 120 deg rotation - cart. axis [-1,-1,-1]

 cryst.   s(41) = (     0          0         -1      )
                  (    -1          0          0      )
                  (     0         -1          0      )

 cart.    s(41) = (  0.0000000 -1.0000000  0.0000000 )
                  (  0.0000000  0.0000000 -1.0000000 )
                  ( -1.0000000  0.0000000  0.0000000 )


      isym = 42     inv. 120 deg rotation - cart. axis [-1,1,1]  

 cryst.   s(42) = (     0          0          1      )
                  (     1          0          0      )
                  (     0         -1          0      )

 cart.    s(42) = (  0.0000000  1.0000000  0.0000000 )
                  (  0.0000000  0.0000000 -1.0000000 )
                  (  1.0000000  0.0000000  0.0000000 )


      isym = 43     inv. 120 deg rotation - cart. axis [1,1,-1]  

 cryst.   s(43) = (     0          0          1      )
                  (    -1          0          0      )
                  (     0          1          0      )

 cart.    s(43) = (  0.0000000 -1.0000000  0.0000000 )
                  (  0.0000000  0.0000000  1.0000000 )
                  (  1.0000000  0.0000000  0.0000000 )


      isym = 44     inv. 120 deg rotation - cart. axis [1,-1,1]  

 cryst.   s(44) = (     0          0         -1      )
                  (     1          0          0      )
                  (     0          1          0      )

 cart.    s(44) = (  0.0000000  1.0000000  0.0000000 )
                  (  0.0000000  0.0000000  1.0000000 )
                  ( -1.0000000  0.0000000  0.0000000 )


      isym = 45     inv. 120 deg rotation - cart. axis [1,1,1]   

 cryst.   s(45) = (     0         -1          0      )
                  (     0          0         -1      )
                  (    -1          0          0      )

 cart.    s(45) = (  0.0000000  0.0000000 -1.0000000 )
                  ( -1.0000000  0.0000000  0.0000000 )
                  (  0.0000000 -1.0000000  0.0000000 )


      isym = 46     inv. 120 deg rotation - cart. axis [-1,1,-1] 

 cryst.   s(46) = (     0          1          0      )
                  (     0          0          1      )
                  (    -1          0          0      )

 cart.    s(46) = (  0.0000000  0.0000000 -1.0000000 )
                  (  1.0000000  0.0000000  0.0000000 )
                  (  0.0000000  1.0000000  0.0000000 )


      isym = 47     inv. 120 deg rotation - cart. axis [1,-1,-1] 

 cryst.   s(47) = (     0          1          0      )
                  (     0          0         -1      )
                  (     1          0          0      )

 cart.    s(47) = (  0.0000000  0.0000000  1.0000000 )
                  (  1.0000000  0.0000000  0.0000000 )
                  (  0.0000000 -1.0000000  0.0000000 )


      isym = 48     inv. 120 deg rotation - cart. axis [-1,-1,1] 

 cryst.   s(48) = (     0         -1          0      )
                  (     0          0          1      )
                  (     1          0          0      )

 cart.    s(48) = (  0.0000000  0.0000000  1.0000000 )
                  ( -1.0000000  0.0000000  0.0000000 )
                  (  0.0000000  1.0000000  0.0000000 )


   Cartesian axes

     site n.     atom                  positions (alat units)
         1        K      tau(   1) = (   0.0000000   0.0000000   0.0000000  )
         2        Yb     tau(   2) = (   0.5000000   0.5000000   0.5000000  )
         3        F      tau(   3) = (   0.5000000   0.5000000   0.0000000  )
         4        F      tau(   4) = (   0.5000000   0.0000000   0.5000000  )
         5        F      tau(   5) = (   0.0000000   0.5000000   0.5000000  )

   Crystallographic axes

     site n.     atom                  positions (cryst. coord.)
         1        K      tau(   1) = (  0.0000000  0.0000000  0.0000000  )
         2        Yb     tau(   2) = (  0.5000000  0.5000000  0.5000000  )
         3        F      tau(   3) = (  0.5000000  0.5000000  0.0000000  )
         4        F      tau(   4) = (  0.5000000  0.0000000  0.5000000  )
         5        F      tau(   5) = (  0.0000000  0.5000000  0.5000000  )

     number of k points=    35  Marzari-Vanderbilt smearing, width (Ry)=  0.0050
                       cart. coord. in units 2pi/alat
        k(    1) = (   0.0000000   0.0000000   0.0000000), wk =   0.0039062
        k(    2) = (   0.0000000   0.0000000   0.1250000), wk =   0.0234375
        k(    3) = (   0.0000000   0.0000000   0.2500000), wk =   0.0234375
        k(    4) = (   0.0000000   0.0000000   0.3750000), wk =   0.0234375
        k(    5) = (   0.0000000   0.0000000  -0.5000000), wk =   0.0117188
        k(    6) = (   0.0000000   0.1250000   0.1250000), wk =   0.0468750
        k(    7) = (   0.0000000   0.1250000   0.2500000), wk =   0.0937500
        k(    8) = (   0.0000000   0.1250000   0.3750000), wk =   0.0937500
        k(    9) = (   0.0000000   0.1250000  -0.5000000), wk =   0.0468750
        k(   10) = (   0.0000000   0.2500000   0.2500000), wk =   0.0468750
        k(   11) = (   0.0000000   0.2500000   0.3750000), wk =   0.0937500
        k(   12) = (   0.0000000   0.2500000  -0.5000000), wk =   0.0468750
        k(   13) = (   0.0000000   0.3750000   0.3750000), wk =   0.0468750
        k(   14) = (   0.0000000   0.3750000  -0.5000000), wk =   0.0468750
        k(   15) = (   0.0000000  -0.5000000  -0.5000000), wk =   0.0117188
        k(   16) = (   0.1250000   0.1250000   0.1250000), wk =   0.0312500
        k(   17) = (   0.1250000   0.1250000   0.2500000), wk =   0.0937500
        k(   18) = (   0.1250000   0.1250000   0.3750000), wk =   0.0937500
        k(   19) = (   0.1250000   0.1250000  -0.5000000), wk =   0.0468750
        k(   20) = (   0.1250000   0.2500000   0.2500000), wk =   0.0937500
        k(   21) = (   0.1250000   0.2500000   0.3750000), wk =   0.1875000
        k(   22) = (   0.1250000   0.2500000  -0.5000000), wk =   0.0937500
        k(   23) = (   0.1250000   0.3750000   0.3750000), wk =   0.0937500
        k(   24) = (   0.1250000   0.3750000  -0.5000000), wk =   0.0937500
        k(   25) = (   0.1250000  -0.5000000  -0.5000000), wk =   0.0234375
        k(   26) = (   0.2500000   0.2500000   0.2500000), wk =   0.0312500
        k(   27) = (   0.2500000   0.2500000   0.3750000), wk =   0.0937500
        k(   28) = (   0.2500000   0.2500000  -0.5000000), wk =   0.0468750
        k(   29) = (   0.2500000   0.3750000   0.3750000), wk =   0.0937500
        k(   30) = (   0.2500000   0.3750000  -0.5000000), wk =   0.0937500
        k(   31) = (   0.2500000  -0.5000000  -0.5000000), wk =   0.0234375
        k(   32) = (   0.3750000   0.3750000   0.3750000), wk =   0.0312500
        k(   33) = (   0.3750000   0.3750000  -0.5000000), wk =   0.0468750
        k(   34) = (   0.3750000  -0.5000000  -0.5000000), wk =   0.0234375
        k(   35) = (  -0.5000000  -0.5000000  -0.5000000), wk =   0.0039062

                       cryst. coord.
        k(    1) = (   0.0000000   0.0000000   0.0000000), wk =   0.0039062
        k(    2) = (   0.0000000   0.0000000   0.1250000), wk =   0.0234375
        k(    3) = (   0.0000000   0.0000000   0.2500000), wk =   0.0234375
        k(    4) = (   0.0000000   0.0000000   0.3750000), wk =   0.0234375
        k(    5) = (   0.0000000   0.0000000  -0.5000000), wk =   0.0117188
        k(    6) = (   0.0000000   0.1250000   0.1250000), wk =   0.0468750
        k(    7) = (   0.0000000   0.1250000   0.2500000), wk =   0.0937500
        k(    8) = (   0.0000000   0.1250000   0.3750000), wk =   0.0937500
        k(    9) = (   0.0000000   0.1250000  -0.5000000), wk =   0.0468750
        k(   10) = (   0.0000000   0.2500000   0.2500000), wk =   0.0468750
        k(   11) = (   0.0000000   0.2500000   0.3750000), wk =   0.0937500
        k(   12) = (   0.0000000   0.2500000  -0.5000000), wk =   0.0468750
        k(   13) = (   0.0000000   0.3750000   0.3750000), wk =   0.0468750
        k(   14) = (   0.0000000   0.3750000  -0.5000000), wk =   0.0468750
        k(   15) = (   0.0000000  -0.5000000  -0.5000000), wk =   0.0117188
        k(   16) = (   0.1250000   0.1250000   0.1250000), wk =   0.0312500
        k(   17) = (   0.1250000   0.1250000   0.2500000), wk =   0.0937500
        k(   18) = (   0.1250000   0.1250000   0.3750000), wk =   0.0937500
        k(   19) = (   0.1250000   0.1250000  -0.5000000), wk =   0.0468750
        k(   20) = (   0.1250000   0.2500000   0.2500000), wk =   0.0937500
        k(   21) = (   0.1250000   0.2500000   0.3750000), wk =   0.1875000
        k(   22) = (   0.1250000   0.2500000  -0.5000000), wk =   0.0937500
        k(   23) = (   0.1250000   0.3750000   0.3750000), wk =   0.0937500
        k(   24) = (   0.1250000   0.3750000  -0.5000000), wk =   0.0937500
        k(   25) = (   0.1250000  -0.5000000  -0.5000000), wk =   0.0234375
        k(   26) = (   0.2500000   0.2500000   0.2500000), wk =   0.0312500
        k(   27) = (   0.2500000   0.2500000   0.3750000), wk =   0.0937500
        k(   28) = (   0.2500000   0.2500000  -0.5000000), wk =   0.0468750
        k(   29) = (   0.2500000   0.3750000   0.3750000), wk =   0.0937500
        k(   30) = (   0.2500000   0.3750000  -0.5000000), wk =   0.0937500
        k(   31) = (   0.2500000  -0.5000000  -0.5000000), wk =   0.0234375
        k(   32) = (   0.3750000   0.3750000   0.3750000), wk =   0.0312500
        k(   33) = (   0.3750000   0.3750000  -0.5000000), wk =   0.0468750
        k(   34) = (   0.3750000  -0.5000000  -0.5000000), wk =   0.0234375
        k(   35) = (  -0.5000000  -0.5000000  -0.5000000), wk =   0.0039062

     Dense  grid:   232653 G-vectors     FFT dimensions: (  80,  80,  80)

     Smooth grid:    82057 G-vectors     FFT dimensions: (  54,  54,  54)

     Dynamical RAM for                 wfc:       0.98 MB

     Dynamical RAM for     wfc (w. buffer):      18.60 MB

     Dynamical RAM for           str. fact:       2.66 MB

     Dynamical RAM for           local pot:       0.00 MB

     Dynamical RAM for          nlocal pot:       2.35 MB

     Dynamical RAM for                qrad:       6.81 MB

     Dynamical RAM for          rho,v,vnew:       5.59 MB

     Dynamical RAM for               rhoin:       1.86 MB

     Dynamical RAM for            rho*nmix:      14.20 MB

     Dynamical RAM for           G-vectors:       3.48 MB

     Dynamical RAM for          h,s,v(r/c):       0.11 MB

     Dynamical RAM for          <psi|beta>:       0.02 MB

     Dynamical RAM for                 psi:       1.96 MB

     Dynamical RAM for                hpsi:       1.96 MB

     Dynamical RAM for                spsi:       1.96 MB

     Dynamical RAM for      wfcinit/wfcrot:       1.97 MB

     Dynamical RAM for           addusdens:      84.31 MB

     Dynamical RAM for          addusforce:      86.10 MB

     Dynamical RAM for         addusstress:      89.42 MB

     Estimated static dynamical RAM per process >      49.79 MB

     Estimated max dynamical RAM per process >     153.41 MB

     Estimated total dynamical RAM >       1.14 GB

     Atomic positions and unit cell read from directory:
     ./tmp/kybf3.save/
     Atomic positions from file used, from input discarded


     The initial density is read from file :
     ./tmp/kybf3.save/charge-density

     Starting wfcs from file

     total cpu time spent up to now is        2.4 secs

     Self-consistent Calculation

     iteration #  1     ecut=   100.00 Ry     beta= 0.30
     Davidson diagonalization with overlap

---- Real-time Memory Report at c_bands before calling an iterative solver
           149 MiB given to the printing process from OS
             0 MiB allocation reported by mallinfo(arena+hblkhd)
         45228 MiB available memory on the node where the printing process lives
------------------
     c_bands:  2 eigenvalues not converged
     c_bands:  3 eigenvalues not converged
     c_bands:  3 eigenvalues not converged
     c_bands:  3 eigenvalues not converged
     c_bands:  3 eigenvalues not converged
     c_bands:  3 eigenvalues not converged
     c_bands:  2 eigenvalues not converged
     c_bands:  1 eigenvalues not converged
     c_bands:  2 eigenvalues not converged
     c_bands:  2 eigenvalues not converged
     c_bands:  2 eigenvalues not converged
     c_bands:  2 eigenvalues not converged
     c_bands:  3 eigenvalues not converged
     ethr =  1.00E-05,  avg # of iterations = 19.9

     total cpu time spent up to now is       32.5 secs

     total energy              =    -367.20111639 Ry
     estimated scf accuracy    <      11.74669680 Ry

     iteration #  2     ecut=   100.00 Ry     beta= 0.30
     Davidson diagonalization with overlap

---- Real-time Memory Report at c_bands before calling an iterative solver
           184 MiB given to the printing process from OS
             0 MiB allocation reported by mallinfo(arena+hblkhd)
         44953 MiB available memory on the node where the printing process lives
------------------
     ethr =  1.00E-02,  avg # of iterations =  2.3

     total cpu time spent up to now is       39.8 secs

     total energy              =    -367.33224045 Ry
     estimated scf accuracy    <       2.47371781 Ry

     iteration #  3     ecut=   100.00 Ry     beta= 0.30
     Davidson diagonalization with overlap

---- Real-time Memory Report at c_bands before calling an iterative solver
           188 MiB given to the printing process from OS
             0 MiB allocation reported by mallinfo(arena+hblkhd)
         44982 MiB available memory on the node where the printing process lives
------------------
     ethr =  6.03E-03,  avg # of iterations =  2.0

     total cpu time spent up to now is       46.1 secs

     total energy              =    -367.03876614 Ry
     estimated scf accuracy    <       0.83477727 Ry

     iteration #  4     ecut=   100.00 Ry     beta= 0.30
     Davidson diagonalization with overlap

---- Real-time Memory Report at c_bands before calling an iterative solver
           188 MiB given to the printing process from OS
             0 MiB allocation reported by mallinfo(arena+hblkhd)
         44882 MiB available memory on the node where the printing process lives
------------------
     ethr =  2.04E-03,  avg # of iterations =  3.3

     total cpu time spent up to now is       53.5 secs

     total energy              =    -367.13812105 Ry
     estimated scf accuracy    <       0.07348194 Ry

     iteration #  5     ecut=   100.00 Ry     beta= 0.30
     Davidson diagonalization with overlap

---- Real-time Memory Report at c_bands before calling an iterative solver
           189 MiB given to the printing process from OS
             0 MiB allocation reported by mallinfo(arena+hblkhd)
         44980 MiB available memory on the node where the printing process lives
------------------
     ethr =  1.79E-04,  avg # of iterations =  4.0

     total cpu time spent up to now is       61.0 secs

     total energy              =    -367.13078622 Ry
     estimated scf accuracy    <       0.03049936 Ry

     iteration #  6     ecut=   100.00 Ry     beta= 0.30
     Davidson diagonalization with overlap

---- Real-time Memory Report at c_bands before calling an iterative solver
           189 MiB given to the printing process from OS
             0 MiB allocation reported by mallinfo(arena+hblkhd)
         44956 MiB available memory on the node where the printing process lives
------------------
     ethr =  7.44E-05,  avg # of iterations =  3.2

     total cpu time spent up to now is       68.3 secs

     total energy              =    -367.12341705 Ry
     estimated scf accuracy    <       0.04398154 Ry

     iteration #  7     ecut=   100.00 Ry     beta= 0.30
     Davidson diagonalization with overlap

---- Real-time Memory Report at c_bands before calling an iterative solver
           190 MiB given to the printing process from OS
             0 MiB allocation reported by mallinfo(arena+hblkhd)
         44954 MiB available memory on the node where the printing process lives
------------------
     ethr =  7.44E-05,  avg # of iterations =  1.2

     total cpu time spent up to now is       74.3 secs

     total energy              =    -367.13084449 Ry
     estimated scf accuracy    <       0.00116912 Ry

     iteration #  8     ecut=   100.00 Ry     beta= 0.30
     Davidson diagonalization with overlap

---- Real-time Memory Report at c_bands before calling an iterative solver
           191 MiB given to the printing process from OS
             0 MiB allocation reported by mallinfo(arena+hblkhd)
         44966 MiB available memory on the node where the printing process lives
------------------
     ethr =  2.85E-06,  avg # of iterations =  5.0

     total cpu time spent up to now is       83.0 secs

     total energy              =    -367.13288912 Ry
     estimated scf accuracy    <       0.00085817 Ry

     iteration #  9     ecut=   100.00 Ry     beta= 0.30
     Davidson diagonalization with overlap

---- Real-time Memory Report at c_bands before calling an iterative solver
           191 MiB given to the printing process from OS
             0 MiB allocation reported by mallinfo(arena+hblkhd)
         44961 MiB available memory on the node where the printing process lives
------------------
     ethr =  2.09E-06,  avg # of iterations =  2.0

     total cpu time spent up to now is       89.2 secs

     total energy              =    -367.13223813 Ry
     estimated scf accuracy    <       0.00003613 Ry

     iteration # 10     ecut=   100.00 Ry     beta= 0.30
     Davidson diagonalization with overlap

---- Real-time Memory Report at c_bands before calling an iterative solver
           192 MiB given to the printing process from OS
             0 MiB allocation reported by mallinfo(arena+hblkhd)
         44960 MiB available memory on the node where the printing process lives
------------------
     ethr =  8.81E-08,  avg # of iterations =  3.4

     total cpu time spent up to now is       96.1 secs

     total energy              =    -367.13243688 Ry
     estimated scf accuracy    <       0.00000073 Ry

     iteration # 11     ecut=   100.00 Ry     beta= 0.30
     Davidson diagonalization with overlap

---- Real-time Memory Report at c_bands before calling an iterative solver
           193 MiB given to the printing process from OS
             0 MiB allocation reported by mallinfo(arena+hblkhd)
         44933 MiB available memory on the node where the printing process lives
------------------
     ethr =  1.79E-09,  avg # of iterations =  5.0

     total cpu time spent up to now is      104.7 secs

     total energy              =    -367.13244023 Ry
     estimated scf accuracy    <       0.00000032 Ry

     iteration # 12     ecut=   100.00 Ry     beta= 0.30
     Davidson diagonalization with overlap

---- Real-time Memory Report at c_bands before calling an iterative solver
           193 MiB given to the printing process from OS
             0 MiB allocation reported by mallinfo(arena+hblkhd)
         44867 MiB available memory on the node where the printing process lives
------------------
     ethr =  7.70E-10,  avg # of iterations =  2.0

     total cpu time spent up to now is      112.1 secs

     total energy              =    -367.13243643 Ry
     estimated scf accuracy    <       0.00000009 Ry

     iteration # 13     ecut=   100.00 Ry     beta= 0.30
     Davidson diagonalization with overlap

---- Real-time Memory Report at c_bands before calling an iterative solver
           193 MiB given to the printing process from OS
             0 MiB allocation reported by mallinfo(arena+hblkhd)
         44877 MiB available memory on the node where the printing process lives
------------------
     ethr =  2.24E-10,  avg # of iterations =  1.5

     total cpu time spent up to now is      118.2 secs

     total energy              =    -367.13243605 Ry
     estimated scf accuracy    <       0.00000003 Ry

     iteration # 14     ecut=   100.00 Ry     beta= 0.30
     Davidson diagonalization with overlap

---- Real-time Memory Report at c_bands before calling an iterative solver
           193 MiB given to the printing process from OS
             0 MiB allocation reported by mallinfo(arena+hblkhd)
         44790 MiB available memory on the node where the printing process lives
------------------
     ethr =  7.99E-11,  avg # of iterations =  2.3

     total cpu time spent up to now is      124.6 secs

     total energy              =    -367.13243998 Ry
     estimated scf accuracy    <          6.2E-10 Ry

     iteration # 15     ecut=   100.00 Ry     beta= 0.30
     Davidson diagonalization with overlap

---- Real-time Memory Report at c_bands before calling an iterative solver
           193 MiB given to the printing process from OS
             0 MiB allocation reported by mallinfo(arena+hblkhd)
         44933 MiB available memory on the node where the printing process lives
------------------
     ethr =  1.51E-12,  avg # of iterations =  6.1

     total cpu time spent up to now is      134.1 secs

     total energy              =    -367.13243962 Ry
     estimated scf accuracy    <          6.3E-10 Ry

     iteration # 16     ecut=   100.00 Ry     beta= 0.30
     Davidson diagonalization with overlap

---- Real-time Memory Report at c_bands before calling an iterative solver
           193 MiB given to the printing process from OS
             0 MiB allocation reported by mallinfo(arena+hblkhd)
         44784 MiB available memory on the node where the printing process lives
------------------
     ethr =  1.51E-12,  avg # of iterations =  2.0

     total cpu time spent up to now is      140.6 secs

     total energy              =    -367.13243907 Ry
     estimated scf accuracy    <          2.1E-11 Ry

     iteration # 17     ecut=   100.00 Ry     beta= 0.30
     Davidson diagonalization with overlap

---- Real-time Memory Report at c_bands before calling an iterative solver
           193 MiB given to the printing process from OS
             0 MiB allocation reported by mallinfo(arena+hblkhd)
         44896 MiB available memory on the node where the printing process lives
------------------
     ethr =  1.00E-13,  avg # of iterations =  4.7

     total cpu time spent up to now is      148.2 secs

     total energy              =    -367.13243908 Ry
     estimated scf accuracy    <          2.6E-12 Ry

     iteration # 18     ecut=   100.00 Ry     beta= 0.30
     Davidson diagonalization with overlap

---- Real-time Memory Report at c_bands before calling an iterative solver
           193 MiB given to the printing process from OS
             0 MiB allocation reported by mallinfo(arena+hblkhd)
         44906 MiB available memory on the node where the printing process lives
------------------
     ethr =  1.00E-13,  avg # of iterations =  1.0

     total cpu time spent up to now is      154.2 secs

     End of self-consistent calculation

          k = 0.0000 0.0000 0.0000 ( 10251 PWs)   bands (ev):

   -80.1530 -49.9802 -49.9802 -49.7461 -44.9039 -44.9039 -40.0687 -28.0965
   -25.0579 -24.9233 -24.9233 -21.9152 -21.9152 -21.5802 -14.9083 -10.7572
   -10.7572 -10.0645 -10.0645  -9.9772  -9.2381  -7.7387  -7.7387  -5.8805
    -5.8805

     occupation numbers 
     1.0000   1.0000   1.0000   1.0000   1.0000   1.0000   1.0000   1.0000
     1.0000   1.0000   1.0000   1.0000   1.0000   1.0000   1.0000   1.0000
     1.0000   1.0000   1.0000   1.0000   1.0004   0.0000   0.0000   0.0000
     0.0000

          k = 0.0000 0.0000 0.1250 ( 10259 PWs)   bands (ev):

   -80.1529 -49.9849 -49.9802 -49.7470 -44.9038 -44.8946 -40.0640 -28.0964
   -25.0738 -24.9416 -24.9233 -21.9186 -21.9154 -21.5788 -14.9119 -10.7657
   -10.7607 -10.0674 -10.0595  -9.9813  -9.2136  -7.7339  -7.7067  -5.8776
    -5.8442

     occupation numbers 
     1.0000   1.0000   1.0000   1.0000   1.0000   1.0000   1.0000   1.0000
     1.0000   1.0000   1.0000   1.0000   1.0000   1.0000   1.0000   1.0000
     1.0000   1.0000   1.0000   1.0000   1.0021   0.0000   0.0000   0.0000
     0.0000

          k = 0.0000 0.0000 0.2500 ( 10275 PWs)   bands (ev):

   -80.1529 -49.9966 -49.9802 -49.7492 -44.9038 -44.8722 -40.0526 -28.0960
   -25.1286 -24.9689 -24.9233 -21.9266 -21.9159 -21.5756 -14.9208 -10.7863
   -10.7690 -10.0742 -10.0477  -9.9911  -9.1574  -7.7223  -7.6291  -5.8707
    -5.7533

     occupation numbers 
     1.0000   1.0000   1.0000   1.0000   1.0000   1.0000   1.0000   1.0000
     1.0000   1.0000   1.0000   1.0000   1.0000   1.0000   1.0000   1.0000
     1.0000   1.0000   1.0000   1.0000   1.0333   0.0000   0.0000   0.0000
     0.0000

          k = 0.0000 0.0000 0.3750 ( 10291 PWs)   bands (ev):

   -80.1529 -50.0083 -49.9801 -49.7512 -44.9037 -44.8500 -40.0409 -28.0956
   -25.1976 -24.9813 -24.9232 -21.9344 -21.9164 -21.5725 -14.9297 -10.8072
   -10.7771 -10.0811 -10.0361 -10.0000  -9.1053  -7.7108  -7.5515  -5.8637
    -5.6574

     occupation numbers 
     1.0000   1.0000   1.0000   1.0000   1.0000   1.0000   1.0000   1.0000
     1.0000   1.0000   1.0000   1.0000   1.0000   1.0000   1.0000   1.0000
     1.0000   1.0000   1.0000   1.0000   1.0814   0.0000   0.0000   0.0000
     0.0000

          k = 0.0000 0.0000-0.5000 ( 10274 PWs)   bands (ev):

   -80.1528 -50.0131 -49.9801 -49.7519 -44.9036 -44.8408 -40.0361 -28.0954
   -25.2280 -24.9843 -24.9232 -21.9376 -21.9166 -21.5713 -14.9334 -10.8159
   -10.7803 -10.0841 -10.0314 -10.0032  -9.0850  -7.7060  -7.5195  -5.8607
    -5.6160

     occupation numbers 
     1.0000   1.0000   1.0000   1.0000   1.0000   1.0000   1.0000   1.0000
     1.0000   1.0000   1.0000   1.0000   1.0000   1.0000   1.0000   1.0000
     1.0000   1.0000   1.0000   1.0000   1.0355   0.0000   0.0000   0.0000
     0.0000

          k = 0.0000 0.1250 0.1250 ( 10249 PWs)   bands (ev):

   -80.1529 -49.9873 -49.9826 -49.7480 -44.8992 -44.8899 -40.0593 -28.0962
   -25.0864 -24.9550 -24.9315 -21.9205 -21.9174 -21.5772 -14.9155 -10.7689
   -10.7648 -10.0623 -10.0618  -9.9880  -9.1912  -7.7160  -7.6893  -5.8588
    -5.8224

     occupation numbers 
     1.0000   1.0000   1.0000   1.0000   1.0000   1.0000   1.0000   1.0000
     1.0000   1.0000   1.0000   1.0000   1.0000   1.0000   1.0000   1.0000
     1.0000   1.0000   1.0000   1.0000   1.0076   0.0000   0.0000   0.0000
     0.0000

          k = 0.0000 0.1250 0.2500 ( 10273 PWs)   bands (ev):

   -80.1529 -49.9979 -49.9835 -49.7503 -44.8974 -44.8692 -40.0479 -28.0958
   -25.1349 -24.9860 -24.9341 -21.9281 -21.9186 -21.5738 -14.9244 -10.7869
   -10.7736 -10.0674 -10.0496  -9.9985  -9.1370  -7.6994  -7.6176  -5.8456
    -5.7370

     occupation numbers 
     1.0000   1.0000   1.0000   1.0000   1.0000   1.0000   1.0000   1.0000
     1.0000   1.0000   1.0000   1.0000   1.0000   1.0000   1.0000   1.0000
     1.0000   1.0000   1.0000   1.0000   1.0601   0.0000   0.0000   0.0000
     0.0000

          k = 0.0000 0.1250 0.3750 ( 10283 PWs)   bands (ev):

   -80.1528 -50.0094 -49.9836 -49.7523 -44.8970 -44.8472 -40.0363 -28.0954
   -25.2009 -25.0008 -24.9346 -21.9359 -21.9192 -21.5707 -14.9334 -10.8080
   -10.7831 -10.0744 -10.0357 -10.0059  -9.0857  -7.6868  -7.5409  -5.8377
    -5.6422

     occupation numbers 
     1.0000   1.0000   1.0000   1.0000   1.0000   1.0000   1.0000   1.0000
     1.0000   1.0000   1.0000   1.0000   1.0000   1.0000   1.0000   1.0000
     1.0000   1.0000   1.0000   1.0000   1.0383   0.0000   0.0000   0.0000
     0.0000

          k = 0.0000 0.1250-0.5000 ( 10264 PWs)   bands (ev):

   -80.1528 -50.0143 -49.9836 -49.7530 -44.8969 -44.8381 -40.0314 -28.0952
   -25.2310 -25.0040 -24.9347 -21.9390 -21.9193 -21.5696 -14.9372 -10.8188
   -10.7887 -10.0786 -10.0279 -10.0071  -9.0643  -7.6813  -7.5089  -5.8347
    -5.6021

     occupation numbers 
     1.0000   1.0000   1.0000   1.0000   1.0000   1.0000   1.0000   1.0000
     1.0000   1.0000   1.0000   1.0000   1.0000   1.0000   1.0000   1.0000
     1.0000   1.0000   1.0000   1.0000   0.9098   0.0000   0.0000   0.0000
     0.0000

          k = 0.0000 0.2500 0.2500 ( 10315 PWs)   bands (ev):

   -80.1528 -50.0043 -49.9885 -49.7527 -44.8879 -44.8562 -40.0365 -28.0953
   -25.1638 -25.0311 -24.9421 -21.9334 -21.9226 -21.5702 -14.9334 -10.7960
   -10.7901 -10.0562 -10.0487 -10.0084  -9.0865  -7.6575  -7.5724  -5.8060
    -5.6770

     occupation numbers 
     1.0000   1.0000   1.0000   1.0000   1.0000   1.0000   1.0000   1.0000
     1.0000   1.0000   1.0000   1.0000   1.0000   1.0000   1.0000   1.0000
     1.0000   1.0000   1.0000   1.0000   1.0415   0.0000   0.0000   0.0000
     0.0000

          k = 0.0000 0.2500 0.3750 ( 10273 PWs)   bands (ev):

   -80.1528 -50.0139 -49.9904 -49.7548 -44.8844 -44.8373 -40.0249 -28.0949
   -25.2155 -25.0586 -24.9442 -21.9403 -21.9243 -21.5669 -14.9425 -10.8145
   -10.8024 -10.0605 -10.0334 -10.0137  -9.0381  -7.6339  -7.5072  -5.7864
    -5.5935

     occupation numbers 
     1.0000   1.0000   1.0000   1.0000   1.0000   1.0000   1.0000   1.0000
     1.0000   1.0000   1.0000   1.0000   1.0000   1.0000   1.0000   1.0000
     1.0000   1.0000   1.0000   1.0000   0.6518   0.0000   0.0000   0.0000
     0.0000

          k = 0.0000 0.2500-0.5000 ( 10234 PWs)   bands (ev):

   -80.1528 -50.0184 -49.9907 -49.7555 -44.8836 -44.8289 -40.0201 -28.0948
   -25.2424 -25.0647 -24.9447 -21.9432 -21.9246 -21.5657 -14.9465 -10.8260
   -10.8088 -10.0658 -10.0214 -10.0145  -9.0175  -7.6262  -7.4774  -5.7806
    -5.5564

     occupation numbers 
     1.0000   1.0000   1.0000   1.0000   1.0000   1.0000   1.0000   1.0000
     1.0000   1.0000   1.0000   1.0000   1.0000   1.0000   1.0000   1.0000
     1.0000   1.0000   1.0000   1.0000   0.4269   0.0000   0.0000   0.0000
     0.0000

          k = 0.0000 0.3750 0.3750 ( 10257 PWs)   bands (ev):

   -80.1528 -50.0211 -49.9946 -49.7570 -44.8767 -44.8226 -40.0134 -28.0945
   -25.2461 -25.1065 -24.9470 -21.9462 -21.9276 -21.5633 -14.9518 -10.8249
   -10.8215 -10.0518 -10.0322 -10.0129  -8.9934  -7.5941  -7.4588  -5.7521
    -5.5237

     occupation numbers 
     1.0000   1.0000   1.0000   1.0000   1.0000   1.0000   1.0000   1.0000
     1.0000   1.0000   1.0000   1.0000   1.0000   1.0000   1.0000   1.0000
     1.0000   1.0000   1.0000   1.0000   0.2142   0.0000   0.0000   0.0000
     0.0000

          k = 0.0000 0.3750-0.5000 ( 10286 PWs)   bands (ev):

   -80.1527 -50.0247 -49.9957 -49.7578 -44.8747 -44.8154 -40.0086 -28.0943
   -25.2656 -25.1199 -24.9477 -21.9488 -21.9284 -21.5620 -14.9558 -10.8355
   -10.8266 -10.0542 -10.0275 -10.0084  -8.9747  -7.5815  -7.4344  -5.7415
    -5.4906

     occupation numbers 
     1.0000   1.0000   1.0000   1.0000   1.0000   1.0000   1.0000   1.0000
     1.0000   1.0000   1.0000   1.0000   1.0000   1.0000   1.0000   1.0000
     1.0000   1.0000   1.0000   1.0000   0.1075   0.0000   0.0000   0.0000
     0.0000

          k = 0.0000-0.5000-0.5000 ( 10280 PWs)   bands (ev):

   -80.1527 -50.0280 -49.9972 -49.7587 -44.8721 -44.8087 -40.0038 -28.0941
   -25.2807 -25.1376 -24.9483 -21.9515 -21.9296 -21.5605 -14.9596 -10.8418
   -10.8316 -10.0503 -10.0304 -10.0047  -8.9582  -7.5665  -7.4128  -5.7293
    -5.4578

     occupation numbers 
     1.0000   1.0000   1.0000   1.0000   1.0000   1.0000   1.0000   1.0000
     1.0000   1.0000   1.0000   1.0000   1.0000   1.0000   1.0000   1.0000
     1.0000   1.0000   1.0000   1.0000   0.0519   0.0000   0.0000   0.0000
     0.0000

          k = 0.1250 0.1250 0.1250 ( 10263 PWs)   bands (ev):

   -80.1529 -49.9873 -49.9873 -49.7491 -44.8899 -44.8899 -40.0546 -28.0960
   -25.0971 -24.9550 -24.9550 -21.9212 -21.9212 -21.5755 -14.9188 -10.7684
   -10.7684 -10.0603 -10.0603  -9.9975  -9.1700  -7.6858  -7.6858  -5.8194
    -5.8194

     occupation numbers 
     1.0000   1.0000   1.0000   1.0000   1.0000   1.0000   1.0000   1.0000
     1.0000   1.0000   1.0000   1.0000   1.0000   1.0000   1.0000   1.0000
     1.0000   1.0000   1.0000   1.0000   1.0206   0.0000   0.0000   0.0000
     0.0000

          k = 0.1250 0.1250 0.2500 ( 10285 PWs)   bands (ev):

   -80.1529 -49.9987 -49.9872 -49.7514 -44.8898 -44.8674 -40.0432 -28.0955
   -25.1409 -24.9933 -24.9550 -21.9295 -21.9219 -21.5719 -14.9276 -10.7859
   -10.7764 -10.0635 -10.0480 -10.0091  -9.1167  -7.6746  -7.6098  -5.8127
    -5.7265

     occupation numbers 
     1.0000   1.0000   1.0000   1.0000   1.0000   1.0000   1.0000   1.0000
     1.0000   1.0000   1.0000   1.0000   1.0000   1.0000   1.0000   1.0000
     1.0000   1.0000   1.0000   1.0000   1.0818   0.0000   0.0000   0.0000
     0.0000

          k = 0.1250 0.1250 0.3750 ( 10280 PWs)   bands (ev):

   -80.1528 -50.0104 -49.9872 -49.7534 -44.8897 -44.8452 -40.0316 -28.0951
   -25.2042 -25.0113 -24.9550 -21.9374 -21.9224 -21.5688 -14.9367 -10.8071
   -10.7878 -10.0701 -10.0325 -10.0150  -9.0655  -7.6623  -7.5328  -5.8060
    -5.6307

     occupation numbers 
     1.0000   1.0000   1.0000   1.0000   1.0000   1.0000   1.0000   1.0000
     1.0000   1.0000   1.0000   1.0000   1.0000   1.0000   1.0000   1.0000
     1.0000   1.0000   1.0000   1.0000   0.9194   0.0000   0.0000   0.0000
     0.0000

          k = 0.1250 0.1250-0.5000 ( 10246 PWs)   bands (ev):

   -80.1528 -50.0152 -49.9872 -49.7542 -44.8896 -44.8360 -40.0268 -28.0950
   -25.2339 -25.0151 -24.9550 -21.9403 -21.9223 -21.5677 -14.9407 -10.8196
   -10.7960 -10.0744 -10.0228 -10.0139  -9.0434  -7.6561  -7.5007  -5.8035
    -5.5914

     occupation numbers 
     1.0000   1.0000   1.0000   1.0000   1.0000   1.0000   1.0000   1.0000
     1.0000   1.0000   1.0000   1.0000   1.0000   1.0000   1.0000   1.0000
     1.0000   1.0000   1.0000   1.0000   0.7095   0.0000   0.0000   0.0000
     0.0000

          k = 0.1250 0.2500 0.2500 ( 10294 PWs)   bands (ev):

   -80.1528 -50.0043 -49.9931 -49.7538 -44.8785 -44.8561 -40.0318 -28.0951
   -25.1687 -25.0311 -24.9714 -21.9343 -21.9267 -21.5682 -14.9364 -10.7952
   -10.7918 -10.0544 -10.0428 -10.0205  -9.0660  -7.6297  -7.5692  -5.7642
    -5.6742

     occupation numbers 
     1.0000   1.0000   1.0000   1.0000   1.0000   1.0000   1.0000   1.0000
     1.0000   1.0000   1.0000   1.0000   1.0000   1.0000   1.0000   1.0000
     1.0000   1.0000   1.0000   1.0000   0.9233   0.0000   0.0000   0.0000
     0.0000

          k = 0.1250 0.2500 0.3750 ( 10266 PWs)   bands (ev):

   -80.1528 -50.0142 -49.9946 -49.7560 -44.8755 -44.8368 -40.0203 -28.0946
   -25.2188 -25.0597 -24.9740 -21.9414 -21.9283 -21.5648 -14.9457 -10.8145
   -10.8057 -10.0564 -10.0304 -10.0214  -9.0174  -7.6078  -7.5026  -5.7465
    -5.5888

     occupation numbers 
     1.0000   1.0000   1.0000   1.0000   1.0000   1.0000   1.0000   1.0000
     1.0000   1.0000   1.0000   1.0000   1.0000   1.0000   1.0000   1.0000
     1.0000   1.0000   1.0000   1.0000   0.4268   0.0000   0.0000   0.0000
     0.0000

          k = 0.1250 0.2500-0.5000 ( 10258 PWs)   bands (ev):

   -80.1528 -50.0187 -49.9949 -49.7568 -44.8749 -44.8281 -40.0155 -28.0945
   -25.2454 -25.0662 -24.9745 -21.9443 -21.9283 -21.5637 -14.9500 -10.8271
   -10.8149 -10.0601 -10.0246 -10.0130  -8.9964  -7.5999  -7.4723  -5.7422
    -5.5515

     occupation numbers 
     1.0000   1.0000   1.0000   1.0000   1.0000   1.0000   1.0000   1.0000
     1.0000   1.0000   1.0000   1.0000   1.0000   1.0000   1.0000   1.0000
     1.0000   1.0000   1.0000   1.0000   0.2365   0.0000   0.0000   0.0000
     0.0000

          k = 0.1250 0.3750 0.3750 ( 10259 PWs)   bands (ev):

   -80.1527 -50.0211 -49.9990 -49.7583 -44.8673 -44.8225 -40.0088 -28.0942
   -25.2491 -25.1065 -24.9783 -21.9471 -21.9317 -21.5612 -14.9552 -10.8277
   -10.8241 -10.0460 -10.0356 -10.0119  -8.9724  -7.5679  -7.4549  -5.7101
    -5.5213

     occupation numbers 
     1.0000   1.0000   1.0000   1.0000   1.0000   1.0000   1.0000   1.0000
     1.0000   1.0000   1.0000   1.0000   1.0000   1.0000   1.0000   1.0000
     1.0000   1.0000   1.0000   1.0000   0.0978   0.0000   0.0000   0.0000
     0.0000

          k = 0.1250 0.3750-0.5000 ( 10268 PWs)   bands (ev):

   -80.1527 -50.0247 -50.0001 -49.7591 -44.8654 -44.8153 -40.0040 -28.0940
   -25.2685 -25.1200 -24.9789 -21.9496 -21.9324 -21.5600 -14.9596 -10.8390
   -10.8322 -10.0460 -10.0320 -10.0038  -8.9537  -7.5552  -7.4300  -5.7007
    -5.4882

     occupation numbers 
     1.0000   1.0000   1.0000   1.0000   1.0000   1.0000   1.0000   1.0000
     1.0000   1.0000   1.0000   1.0000   1.0000   1.0000   1.0000   1.0000
     1.0000   1.0000   1.0000   1.0000   0.0418   0.0000   0.0000   0.0000
     0.0000

          k = 0.1250-0.5000-0.5000 ( 10272 PWs)   bands (ev):

   -80.1527 -50.0280 -50.0016 -49.7600 -44.8627 -44.8086 -39.9992 -28.0939
   -25.2836 -25.1376 -24.9796 -21.9521 -21.9335 -21.5586 -14.9640 -10.8469
   -10.8392 -10.0392 -10.0333  -9.9997  -8.9372  -7.5404  -7.4078  -5.6896
    -5.4556

     occupation numbers 
     1.0000   1.0000   1.0000   1.0000   1.0000   1.0000   1.0000   1.0000
     1.0000   1.0000   1.0000   1.0000   1.0000   1.0000   1.0000   1.0000
     1.0000   1.0000   1.0000   1.0000   0.0176   0.0000   0.0000   0.0000
     0.0000

          k = 0.2500 0.2500 0.2500 ( 10267 PWs)   bands (ev):

   -80.1528 -50.0042 -50.0042 -49.7564 -44.8561 -44.8561 -40.0205 -28.0946
   -25.1911 -25.0311 -25.0311 -21.9355 -21.9355 -21.5641 -14.9453 -10.8059
   -10.8059 -10.0376 -10.0376 -10.0339  -9.0163  -7.5579  -7.5579  -5.6680
    -5.6680

     occupation numbers 
     1.0000   1.0000   1.0000   1.0000   1.0000   1.0000   1.0000   1.0000
     1.0000   1.0000   1.0000   1.0000   1.0000   1.0000   1.0000   1.0000
     1.0000   1.0000   1.0000   1.0000   0.4153   0.0000   0.0000   0.0000
     0.0000

          k = 0.2500 0.2500 0.3750 ( 10258 PWs)   bands (ev):

   -80.1527 -50.0156 -50.0042 -49.7587 -44.8560 -44.8337 -40.0090 -28.0941
   -25.2331 -25.0705 -25.0311 -21.9438 -21.9362 -21.5605 -14.9550 -10.8247
   -10.8211 -10.0419 -10.0344 -10.0165  -8.9693  -7.5451  -7.4839  -5.6621
    -5.5701

     occupation numbers 
     1.0000   1.0000   1.0000   1.0000   1.0000   1.0000   1.0000   1.0000
     1.0000   1.0000   1.0000   1.0000   1.0000   1.0000   1.0000   1.0000
     1.0000   1.0000   1.0000   1.0000   0.0857   0.0000   0.0000   0.0000
     0.0000

          k = 0.2500 0.2500-0.5000 ( 10238 PWs)   bands (ev):

   -80.1527 -50.0203 -50.0042 -49.7596 -44.8559 -44.8245 -40.0042 -28.0940
   -25.2570 -25.0800 -25.0311 -21.9468 -21.9361 -21.5594 -14.9596 -10.8369
   -10.8320 -10.0425 -10.0323 -10.0033  -8.9493  -7.5383  -7.4528  -5.6599
    -5.5309

     occupation numbers 
     1.0000   1.0000   1.0000   1.0000   1.0000   1.0000   1.0000   1.0000
     1.0000   1.0000   1.0000   1.0000   1.0000   1.0000   1.0000   1.0000
     1.0000   1.0000   1.0000   1.0000   0.0335   0.0000   0.0000   0.0000
     0.0000

          k = 0.2500 0.3750 0.3750 ( 10259 PWs)   bands (ev):

   -80.1527 -50.0210 -50.0099 -49.7611 -44.8448 -44.8224 -39.9975 -28.0936
   -25.2613 -25.1065 -25.0482 -21.9486 -21.9410 -21.5568 -14.9650 -10.8402
   -10.8387 -10.0428 -10.0235 -10.0043  -8.9248  -7.5007  -7.4432  -5.6114
    -5.5157

     occupation numbers 
     1.0000   1.0000   1.0000   1.0000   1.0000   1.0000   1.0000   1.0000
     1.0000   1.0000   1.0000   1.0000   1.0000   1.0000   1.0000   1.0000
     1.0000   1.0000   1.0000   1.0000   0.0085   0.0000   0.0000   0.0000
     0.0000

          k = 0.2500 0.3750-0.5000 ( 10244 PWs)   bands (ev):

   -80.1527 -50.0248 -50.0108 -49.7620 -44.8430 -44.8149 -39.9928 -28.0935
   -25.2793 -25.1205 -25.0497 -21.9512 -21.9416 -21.5555 -14.9698 -10.8512
   -10.8485 -10.0397 -10.0212  -9.9938  -8.9066  -7.4893  -7.4176  -5.6029
    -5.4819

     occupation numbers 
     1.0000   1.0000   1.0000   1.0000   1.0000   1.0000   1.0000   1.0000
     1.0000   1.0000   1.0000   1.0000   1.0000   1.0000   1.0000   1.0000
     1.0000   1.0000   1.0000   1.0000   0.0026   0.0000   0.0000   0.0000
     0.0000

          k = 0.2500-0.5000-0.5000 ( 10248 PWs)   bands (ev):

   -80.1527 -50.0279 -50.0124 -49.7630 -44.8402 -44.8086 -39.9880 -28.0933
   -25.2938 -25.1376 -25.0515 -21.9536 -21.9428 -21.5540 -14.9745 -10.8597
   -10.8566 -10.0383 -10.0132  -9.9893  -8.8902  -7.4752  -7.3956  -5.5907
    -5.4504

     occupation numbers 
     1.0000   1.0000   1.0000   1.0000   1.0000   1.0000   1.0000   1.0000
     1.0000   1.0000   1.0000   1.0000   1.0000   1.0000   1.0000   1.0000
     1.0000   1.0000   1.0000   1.0000   0.0008   0.0000   0.0000   0.0000
     0.0000

          k = 0.3750 0.3750 0.3750 ( 10237 PWs)   bands (ev):

   -80.1527 -50.0210 -50.0210 -49.7637 -44.8224 -44.8224 -39.9861 -28.0931
   -25.2843 -25.1065 -25.1065 -21.9497 -21.9497 -21.5527 -14.9754 -10.8559
   -10.8559 -10.0454  -9.9985  -9.9985  -8.8815  -7.4306  -7.4306  -5.5102
    -5.5102

     occupation numbers 
     1.0000   1.0000   1.0000   1.0000   1.0000   1.0000   1.0000   1.0000
     1.0000   1.0000   1.0000   1.0000   1.0000   1.0000   1.0000   1.0000
     1.0000   1.0000   1.0000   1.0000   0.0004   0.0000   0.0000   0.0000
     0.0000

          k = 0.3750 0.3750-0.5000 ( 10216 PWs)   bands (ev):

   -80.1527 -50.0257 -50.0210 -49.7647 -44.8223 -44.8131 -39.9814 -28.0929
   -25.2991 -25.1252 -25.1065 -21.9531 -21.9499 -21.5513 -14.9803 -10.8660
   -10.8649 -10.0422  -9.9976  -9.9852  -8.8643  -7.4244  -7.4010  -5.5082
    -5.4689

     occupation numbers 
     1.0000   1.0000   1.0000   1.0000   1.0000   1.0000   1.0000   1.0000
     1.0000   1.0000   1.0000   1.0000   1.0000   1.0000   1.0000   1.0000
     1.0000   1.0000   1.0000   1.0000   0.0001   0.0000   0.0000   0.0000
     0.0000

          k = 0.3750-0.5000-0.5000 ( 10232 PWs)   bands (ev):

   -80.1526 -50.0279 -50.0233 -49.7657 -44.8177 -44.8085 -39.9766 -28.0927
   -25.3116 -25.1375 -25.1150 -21.9550 -21.9519 -21.5497 -14.9850 -10.8735
   -10.8730 -10.0409  -9.9882  -9.9810  -8.8480  -7.4071  -7.3833  -5.4871
    -5.4450

     occupation numbers 
     1.0000   1.0000   1.0000   1.0000   1.0000   1.0000   1.0000   1.0000
     1.0000   1.0000   1.0000   1.0000   1.0000   1.0000   1.0000   1.0000
     1.0000   1.0000   1.0000   1.0000   0.0000   0.0000   0.0000   0.0000
     0.0000

          k =-0.5000-0.5000-0.5000 ( 10144 PWs)   bands (ev):

   -80.1526 -50.0279 -50.0279 -49.7667 -44.8084 -44.8084 -39.9719 -28.0925
   -25.3226 -25.1375 -25.1375 -21.9556 -21.9556 -21.5480 -14.9894 -10.8795
   -10.8795 -10.0412  -9.9781  -9.9781  -8.8319  -7.3783  -7.3783  -5.4428
    -5.4428

     occupation numbers 
     1.0000   1.0000   1.0000   1.0000   1.0000   1.0000   1.0000   1.0000
     1.0000   1.0000   1.0000   1.0000   1.0000   1.0000   1.0000   1.0000
     1.0000   1.0000   1.0000   1.0000   0.0000   0.0000   0.0000   0.0000
     0.0000

     the Fermi energy is    -9.0149 ev

!    total energy              =    -367.13243913 Ry
     estimated scf accuracy    <          3.5E-14 Ry
     smearing contrib. (-TS)   =      -0.00027276 Ry
     internal energy E=F+TS    =    -367.13216637 Ry

     The total energy is F=E-TS. E is the sum of the following terms:
     one-electron contribution =    -157.62749797 Ry
     hartree contribution      =      65.06923350 Ry
     xc contribution           =     -92.35756847 Ry
     ewald contribution        =    -182.21633343 Ry

     convergence has been achieved in  18 iterations

     Forces acting on atoms (cartesian axes, Ry/au):

     atom    1 type  1   force =     0.00000000    0.00000000    0.00000000
     atom    2 type  2   force =     0.00000000    0.00000000    0.00000000
     atom    3 type  3   force =     0.00000000    0.00000000    0.00000000
     atom    4 type  3   force =     0.00000000    0.00000000    0.00000000
     atom    5 type  3   force =     0.00000000    0.00000000    0.00000000
     The non-local contrib.  to forces
     atom    1 type  1   force =     0.00000000    0.00000000    0.00000000
     atom    2 type  2   force =     0.00000000    0.00000000    0.00000000
     atom    3 type  3   force =     0.00000000    0.00000000    0.00000000
     atom    4 type  3   force =     0.00000000    0.00000000    0.00000000
     atom    5 type  3   force =     0.00000000    0.00000000    0.00000000
     The ionic contribution  to forces
     atom    1 type  1   force =     2.24914895    2.24914895    2.24914895
     atom    2 type  2   force =    -4.54334796   -4.54334796   -4.54334796
     atom    3 type  3   force =    -1.44489008   -1.44489008    5.18397917
     atom    4 type  3   force =    -1.44489008    5.18397917   -1.44489008
     atom    5 type  3   force =     5.18397917   -1.44489008   -1.44489008
     The local contribution  to forces
     atom    1 type  1   force =    -0.00000000   -0.00000000    0.00000000
     atom    2 type  2   force =    -7.75368230   -7.75368230   -7.75368230
     atom    3 type  3   force =   -18.16199560  -18.16199560    0.00000000
     atom    4 type  3   force =   -18.16199560    0.00000000  -18.16199560
     atom    5 type  3   force =     0.00000000  -18.16199560  -18.16199560
     The core correction contribution to forces
     atom    1 type  1   force =    -0.00000016   -0.00000016   -0.00000016
     atom    2 type  2   force =    -0.58301719   -0.58301719   -0.58301719
     atom    3 type  3   force =    -0.01915875   -0.01915875   -0.00000384
     atom    4 type  3   force =    -0.01915875   -0.00000384   -0.01915875
     atom    5 type  3   force =    -0.00000384   -0.01915875   -0.01915875
     The Hubbard contrib.    to forces
     atom    1 type  1   force =     0.00000000    0.00000000    0.00000000
     atom    2 type  2   force =     0.00000000    0.00000000    0.00000000
     atom    3 type  3   force =     0.00000000    0.00000000    0.00000000
     atom    4 type  3   force =     0.00000000    0.00000000    0.00000000
     atom    5 type  3   force =     0.00000000    0.00000000    0.00000000
     The SCF correction term to forces
     atom    1 type  1   force =     0.00000000    0.00000000    0.00000000
     atom    2 type  2   force =     0.00000006    0.00000006    0.00000006
     atom    3 type  3   force =    -0.00000019   -0.00000019    0.00000001
     atom    4 type  3   force =    -0.00000019    0.00000001   -0.00000019
     atom    5 type  3   force =     0.00000001   -0.00000019   -0.00000019

     Total force =     0.000000     Total SCF correction =     0.000000


     Computing stress (Cartesian axis) and pressure

          total   stress  (Ry/bohr**3)                   (kbar)     P=     9338.55
   0.06348217   0.00000000   0.00000000         9338.55        0.00        0.00
   0.00000000   0.06348217   0.00000000            0.00     9338.55        0.00
   0.00000000   0.00000000   0.06348217            0.00        0.00     9338.55

     kinetic stress (kbar)  24096.45      0.00      0.00
                                0.00  24096.45      0.00
                                0.00      0.00  24096.45

     local   stress (kbar)  -8824.71   -980.72   -980.72
                             -980.72  -8824.71   -980.72
                             -980.72   -980.72  -8824.71

     nonloc. stress (kbar)   7597.55      0.00      0.00
                                0.00   7597.55      0.00
                                0.00      0.00   7597.55

     hartree stress (kbar)   5248.74     -0.00     -0.00
                               -0.00   5248.74     -0.00
                               -0.00     -0.00   5248.74

     exc-cor stress (kbar)   7361.00      0.05      0.05
                                0.05   7361.00      0.05
                                0.05      0.05   7361.00

     corecor stress (kbar) -11442.19     -1.77     -1.77
                               -1.77 -11442.19     -1.77
                               -1.77     -1.77 -11442.19

     ewald   stress (kbar) -14698.29    132.69    132.69
                              132.69 -14698.29    132.69
                              132.69    132.69 -14698.29

     hubbard stress (kbar)      0.00      0.00      0.00
                                0.00      0.00      0.00
                                0.00      0.00      0.00

     DFT-D   stress (kbar)      0.00      0.00      0.00
                                0.00      0.00      0.00
                                0.00      0.00      0.00

     XDM     stress (kbar)      0.00      0.00      0.00
                                0.00      0.00      0.00
                                0.00      0.00      0.00

     dft-nl  stress (kbar)      0.00      0.00      0.00
                                0.00      0.00      0.00
                                0.00      0.00      0.00

     TS-vdW  stress (kbar)      0.00      0.00      0.00
                                0.00      0.00      0.00
                                0.00      0.00      0.00

     MDB     stress (kbar)      0.00      0.00      0.00
                                0.00      0.00      0.00
                                0.00      0.00      0.00

     3D-RISM stress (kbar)      0.00      0.00      0.00
                                0.00      0.00      0.00
                                0.00      0.00      0.00


     Writing all to output data dir ./tmp/kybf3.save/ :
     XML data file, charge density, pseudopotentials, collected wavefunctions

     init_run     :      1.83s CPU      1.91s WALL (       1 calls)
     electrons    :    205.85s CPU    151.82s WALL (       1 calls)
     forces       :      1.62s CPU      1.28s WALL (       1 calls)
     stress       :      9.71s CPU      8.75s WALL (       1 calls)

     Called by init_run:
     wfcinit      :      0.19s CPU      0.15s WALL (       1 calls)
     potinit      :      0.28s CPU      0.29s WALL (       1 calls)
     hinit0       :      0.86s CPU      0.87s WALL (       1 calls)

     Called by electrons:
     c_bands      :    160.25s CPU    113.64s WALL (      18 calls)
     sum_band     :     34.60s CPU     26.84s WALL (      18 calls)
     v_of_rho     :      2.73s CPU      2.56s WALL (      19 calls)
     v_h          :      0.15s CPU      0.16s WALL (      19 calls)
     v_xc         :      2.87s CPU      2.65s WALL (      21 calls)
     newd         :      8.01s CPU      8.72s WALL (      19 calls)
     mix_rho      :      0.48s CPU      0.37s WALL (      18 calls)

     Called by c_bands:
     init_us_2    :      3.79s CPU      2.70s WALL (     684 calls)
     cegterg      :    148.63s CPU    105.14s WALL (     324 calls)

     Called by sum_band:
     sum_band:wei :      0.05s CPU      0.03s WALL (      18 calls)
     sum_band:loo :     21.62s CPU     15.74s WALL (      18 calls)
     sum_band:buf :      0.19s CPU      0.15s WALL (     324 calls)
     sum_band:ini :      1.73s CPU      1.22s WALL (     324 calls)
     sum_band:cal :      1.46s CPU      0.80s WALL (     324 calls)
     sum_band:bec :      0.03s CPU      0.02s WALL (     324 calls)
     addusdens    :     11.91s CPU     10.29s WALL (      18 calls)
                                        0.00s GPU  (      18 calls)
     addusd:skk   :      0.02s CPU      0.02s WALL (      54 calls)
                                        0.00s GPU  (      54 calls)

     Called by *egterg:
     cdiaghg      :      5.31s CPU      3.82s WALL (    1598 calls)
     cegterg:over :      5.61s CPU      3.15s WALL (    1292 calls)
     cegterg:upda :      3.38s CPU      1.91s WALL (    1292 calls)
     cegterg:last :      7.11s CPU      3.87s WALL (     878 calls)
     h_psi        :    118.87s CPU     87.40s WALL (    1616 calls)
     s_psi        :      4.09s CPU      2.19s WALL (    1616 calls)
     g_psi        :      0.98s CPU      0.69s WALL (    1292 calls)

     Called by h_psi:
     h_psi:calbec :      5.05s CPU      2.87s WALL (    1616 calls)
     vloc_psi     :    108.66s CPU     81.67s WALL (    1616 calls)
     add_vuspsi   :      4.56s CPU      2.43s WALL (    1616 calls)

     General routines
     calbec       :      7.57s CPU      4.39s WALL (    2030 calls)
     fft          :      1.95s CPU      1.91s WALL (     270 calls)
     ffts         :      0.21s CPU      0.20s WALL (      37 calls)
     fftw         :    104.32s CPU     77.98s WALL (   57838 calls)
     interpolate  :      0.27s CPU      0.28s WALL (      19 calls)

     Parallel routines

     PWSCF        :   3m39.62s CPU   2m44.44s WALL


   This run was terminated on:  19: 1: 1   8May2025            

=------------------------------------------------------------------------------=
   JOB DONE.
=------------------------------------------------------------------------------=
