
     Program PWSCF v.7.3.1 starts on 15May2025 at 17:59:31 

     This program is part of the open-source Quantum ESPRESSO suite
     for quantum simulation of materials; please cite
         "P. Giannozzi et al., J. Phys.:Condens. Matter 21 395502 (2009);
         "P. Giannozzi et al., J. Phys.:Condens. Matter 29 465901 (2017);
         "P. Giannozzi et al., J. Chem. Phys. 152 154105 (2020);
          URL http://www.quantum-espresso.org", 
     in publications or presentations arising from this work. More details at
     http://www.quantum-espresso.org/quote

     Parallel version (MPI), running on     8 processors

     MPI processes distributed on     1 nodes
     56195 MiB available memory on the printing compute node when the environment starts

     Waiting for input...
     Reading input from standard input

     Current dimensions of program PWSCF are:
     Max number of different atomic species (ntypx) = 10
     Max number of k-points (npk) = 120000
     Max angular momentum in pseudopotentials (lmaxx) =  4
     file K.pbe-spn-kjpaw_psl.1.0.0.UPF: wavefunction(s)  3S renormalized
     file Zn.pbe-spn-kjpaw_psl.1.0.0.UPF: wavefunction(s)  3P 3D renormalized
     file Cl.pbe-n-kjpaw_psl.1.0.0.UPF: wavefunction(s)  3S 3P renormalized

     IMPORTANT: XC functional enforced from input :
     Exchange-correlation= PBE
                           (   1   4   3   4   0   0   0)
     Any further DFT definition will be discarded
     Please, verify this is what you really want

     Message from routine setup:
     using ibrav=0 with symmetry is DISCOURAGED, use correct ibrav instead

     K-points division:     npool     =       4
     R & G space division:  proc/nbgrp/npool/nimage =       2
     Subspace diagonalization in iterative solution of the eigenvalue problem:
     a serial algorithm will be used


     Parallelization info
     --------------------
     sticks:   dense  smooth     PW     G-vecs:    dense   smooth      PW
     Min        2790    1392    388               156636    55348    8186
     Max        2791    1393    389               156637    55351    8189
     Sum        5581    2785    777               313273   110699   16375

     Using Slab Decomposition



     bravais-lattice index     =            0
     lattice parameter (alat)  =       9.3609  a.u.
     unit-cell volume          =     820.2649 (a.u.)^3
     number of atoms/cell      =            5
     number of atomic types    =            3
     number of electrons       =        50.00
     number of Kohn-Sham states=           30
     kinetic-energy cutoff     =     100.0000  Ry
     charge density cutoff     =     800.0000  Ry
     scf convergence threshold =      1.0E-12
     mixing beta               =       0.3000
     number of iterations used =            8  plain     mixing
     Exchange-correlation= PBE
                           (   1   4   3   4   0   0   0)

     celldm(1)=   9.360909  celldm(2)=   0.000000  celldm(3)=   0.000000
     celldm(4)=   0.000000  celldm(5)=   0.000000  celldm(6)=   0.000000

     crystal axes: (cart. coord. in units of alat)
               a(1) = (   1.000000   0.000000   0.000000 )  
               a(2) = (   0.000000   1.000000   0.000000 )  
               a(3) = (   0.000000   0.000000   1.000000 )  

     reciprocal axes: (cart. coord. in units 2 pi/alat)
               b(1) = (  1.000000  0.000000  0.000000 )  
               b(2) = (  0.000000  1.000000  0.000000 )  
               b(3) = (  0.000000  0.000000  1.000000 )  


     PseudoPot. # 1 for K  read from file:
     /home/administrator/Downloads/BURAI/BURAI1.3/pseudopot/K.pbe-spn-kjpaw_psl.1.0.0.UPF
     MD5 check sum: 14ff5a24ff9f8afecca2cb30191d3c3d
     Pseudo is Projector augmented-wave + core cor, Zval =  9.0
     Generated using "atomic" code by A. Dal Corso  v.5.1.2
     Shape of augmentation charge: PSQ
     Using radial grid of 1165 points,  6 beta functions with: 
                l(1) =   0
                l(2) =   0
                l(3) =   1
                l(4) =   1
                l(5) =   2
                l(6) =   2
     Q(r) pseudized with 0 coefficients 


     PseudoPot. # 2 for Zn read from file:
     /home/administrator/Downloads/BURAI/BURAI1.3/pseudopot/Zn.pbe-spn-kjpaw_psl.1.0.0.UPF
     MD5 check sum: 9ae49ce97c5e3111e3f06ee7e23c2246
     Pseudo is Projector augmented-wave + core cor, Zval = 20.0
     Generated using "atomic" code by A. Dal Corso  v.5.1.2
     Shape of augmentation charge: PSQ
     Using radial grid of 1201 points,  6 beta functions with: 
                l(1) =   0
                l(2) =   0
                l(3) =   1
                l(4) =   1
                l(5) =   2
                l(6) =   2
     Q(r) pseudized with 0 coefficients 


     PseudoPot. # 3 for Cl read from file:
     /home/administrator/Downloads/BURAI/BURAI1.3/pseudopot/Cl.pbe-n-kjpaw_psl.1.0.0.UPF
     MD5 check sum: d11ac872591ccaf6ebdc6d6d0c764b72
     Pseudo is Projector augmented-wave + core cor, Zval =  7.0
     Generated using "atomic" code by A. Dal Corso  v.5.1.2
     Shape of augmentation charge: PSQ
     Using radial grid of 1157 points,  6 beta functions with: 
                l(1) =   0
                l(2) =   0
                l(3) =   1
                l(4) =   1
                l(5) =   2
                l(6) =   2
     Q(r) pseudized with 0 coefficients 


     atomic species   valence    mass     pseudopotential
     K                 9.00    39.09830     K ( 1.00)
     Zn               20.00    65.38000     Zn( 1.00)
     Cl                7.00    35.45300     Cl( 1.00)

     48 Sym. Ops., with inversion, found



   Cartesian axes

     site n.     atom                  positions (alat units)
         1        K      tau(   1) = (   0.0000000   0.0000000   0.0000000  )
         2        Zn     tau(   2) = (   0.5000000   0.5000000   0.5000000  )
         3        Cl     tau(   3) = (   0.5000000   0.5000000   0.0000000  )
         4        Cl     tau(   4) = (   0.5000000   0.0000000   0.5000000  )
         5        Cl     tau(   5) = (   0.0000000   0.5000000   0.5000000  )

     number of k points=    56  Gaussian smearing, width (Ry)=  0.0050
                       cart. coord. in units 2pi/alat
        k(    1) = (   0.0000000   0.0000000   0.0000000), wk =   0.0020000
        k(    2) = (   0.0000000   0.0000000   0.1000000), wk =   0.0120000
        k(    3) = (   0.0000000   0.0000000   0.2000000), wk =   0.0120000
        k(    4) = (   0.0000000   0.0000000   0.3000000), wk =   0.0120000
        k(    5) = (   0.0000000   0.0000000   0.4000000), wk =   0.0120000
        k(    6) = (   0.0000000   0.0000000  -0.5000000), wk =   0.0060000
        k(    7) = (   0.0000000   0.1000000   0.1000000), wk =   0.0240000
        k(    8) = (   0.0000000   0.1000000   0.2000000), wk =   0.0480000
        k(    9) = (   0.0000000   0.1000000   0.3000000), wk =   0.0480000
        k(   10) = (   0.0000000   0.1000000   0.4000000), wk =   0.0480000
        k(   11) = (   0.0000000   0.1000000  -0.5000000), wk =   0.0240000
        k(   12) = (   0.0000000   0.2000000   0.2000000), wk =   0.0240000
        k(   13) = (   0.0000000   0.2000000   0.3000000), wk =   0.0480000
        k(   14) = (   0.0000000   0.2000000   0.4000000), wk =   0.0480000
        k(   15) = (   0.0000000   0.2000000  -0.5000000), wk =   0.0240000
        k(   16) = (   0.0000000   0.3000000   0.3000000), wk =   0.0240000
        k(   17) = (   0.0000000   0.3000000   0.4000000), wk =   0.0480000
        k(   18) = (   0.0000000   0.3000000  -0.5000000), wk =   0.0240000
        k(   19) = (   0.0000000   0.4000000   0.4000000), wk =   0.0240000
        k(   20) = (   0.0000000   0.4000000  -0.5000000), wk =   0.0240000
        k(   21) = (   0.0000000  -0.5000000  -0.5000000), wk =   0.0060000
        k(   22) = (   0.1000000   0.1000000   0.1000000), wk =   0.0160000
        k(   23) = (   0.1000000   0.1000000   0.2000000), wk =   0.0480000
        k(   24) = (   0.1000000   0.1000000   0.3000000), wk =   0.0480000
        k(   25) = (   0.1000000   0.1000000   0.4000000), wk =   0.0480000
        k(   26) = (   0.1000000   0.1000000  -0.5000000), wk =   0.0240000
        k(   27) = (   0.1000000   0.2000000   0.2000000), wk =   0.0480000
        k(   28) = (   0.1000000   0.2000000   0.3000000), wk =   0.0960000
        k(   29) = (   0.1000000   0.2000000   0.4000000), wk =   0.0960000
        k(   30) = (   0.1000000   0.2000000  -0.5000000), wk =   0.0480000
        k(   31) = (   0.1000000   0.3000000   0.3000000), wk =   0.0480000
        k(   32) = (   0.1000000   0.3000000   0.4000000), wk =   0.0960000
        k(   33) = (   0.1000000   0.3000000  -0.5000000), wk =   0.0480000
        k(   34) = (   0.1000000   0.4000000   0.4000000), wk =   0.0480000
        k(   35) = (   0.1000000   0.4000000  -0.5000000), wk =   0.0480000
        k(   36) = (   0.1000000  -0.5000000  -0.5000000), wk =   0.0120000
        k(   37) = (   0.2000000   0.2000000   0.2000000), wk =   0.0160000
        k(   38) = (   0.2000000   0.2000000   0.3000000), wk =   0.0480000
        k(   39) = (   0.2000000   0.2000000   0.4000000), wk =   0.0480000
        k(   40) = (   0.2000000   0.2000000  -0.5000000), wk =   0.0240000
        k(   41) = (   0.2000000   0.3000000   0.3000000), wk =   0.0480000
        k(   42) = (   0.2000000   0.3000000   0.4000000), wk =   0.0960000
        k(   43) = (   0.2000000   0.3000000  -0.5000000), wk =   0.0480000
        k(   44) = (   0.2000000   0.4000000   0.4000000), wk =   0.0480000
        k(   45) = (   0.2000000   0.4000000  -0.5000000), wk =   0.0480000
        k(   46) = (   0.2000000  -0.5000000  -0.5000000), wk =   0.0120000
        k(   47) = (   0.3000000   0.3000000   0.3000000), wk =   0.0160000
        k(   48) = (   0.3000000   0.3000000   0.4000000), wk =   0.0480000
        k(   49) = (   0.3000000   0.3000000  -0.5000000), wk =   0.0240000
        k(   50) = (   0.3000000   0.4000000   0.4000000), wk =   0.0480000
        k(   51) = (   0.3000000   0.4000000  -0.5000000), wk =   0.0480000
        k(   52) = (   0.3000000  -0.5000000  -0.5000000), wk =   0.0120000
        k(   53) = (   0.4000000   0.4000000   0.4000000), wk =   0.0160000
        k(   54) = (   0.4000000   0.4000000  -0.5000000), wk =   0.0240000
        k(   55) = (   0.4000000  -0.5000000  -0.5000000), wk =   0.0120000
        k(   56) = (  -0.5000000  -0.5000000  -0.5000000), wk =   0.0020000

     Dense  grid:   313273 G-vectors     FFT dimensions: (  90,  90,  90)

     Smooth grid:   110699 G-vectors     FFT dimensions: (  60,  60,  60)

     Estimated max dynamical RAM per process >     277.54 MB

     Estimated total dynamical RAM >       1.94 GB

     Initial potential from superposition of free atoms

     starting charge      49.9810, renormalised to      50.0000
     Starting wfcs are   30 randomized atomic wfcs
     Checking if some PAW data can be deallocated... 

     total cpu time spent up to now is        8.3 secs

     Self-consistent Calculation

     iteration #  1     ecut=   100.00 Ry     beta= 0.30
     Davidson diagonalization with overlap
     ethr =  1.00E-02,  avg # of iterations =  7.1

     Threshold (ethr) on eigenvalues was too large:
     Diagonalizing with lowered threshold

     Davidson diagonalization with overlap
     ethr =  4.33E-04,  avg # of iterations =  2.7

     total cpu time spent up to now is       42.1 secs

     total energy              =    -901.44786185 Ry
     estimated scf accuracy    <       0.21404898 Ry

     iteration #  2     ecut=   100.00 Ry     beta= 0.30
     Davidson diagonalization with overlap
     ethr =  4.28E-04,  avg # of iterations =  2.7

     total cpu time spent up to now is       58.7 secs

     total energy              =    -901.45784464 Ry
     estimated scf accuracy    <       0.03559665 Ry

     iteration #  3     ecut=   100.00 Ry     beta= 0.30
     Davidson diagonalization with overlap
     ethr =  7.12E-05,  avg # of iterations =  5.9

     total cpu time spent up to now is       77.6 secs

     total energy              =    -901.46112177 Ry
     estimated scf accuracy    <       0.00499927 Ry

     iteration #  4     ecut=   100.00 Ry     beta= 0.30
     Davidson diagonalization with overlap
     ethr =  1.00E-05,  avg # of iterations =  5.2

     total cpu time spent up to now is       95.4 secs

     total energy              =    -901.46171799 Ry
     estimated scf accuracy    <       0.00094233 Ry

     iteration #  5     ecut=   100.00 Ry     beta= 0.30
     Davidson diagonalization with overlap
     c_bands:  1 eigenvalues not converged
     ethr =  1.88E-06,  avg # of iterations =  6.4

     total cpu time spent up to now is      114.8 secs

     total energy              =    -901.46184530 Ry
     estimated scf accuracy    <       0.00005207 Ry

     iteration #  6     ecut=   100.00 Ry     beta= 0.30
     Davidson diagonalization with overlap
     ethr =  1.04E-07,  avg # of iterations =  3.3

     total cpu time spent up to now is      132.5 secs

     total energy              =    -901.46185539 Ry
     estimated scf accuracy    <       0.00000726 Ry

     iteration #  7     ecut=   100.00 Ry     beta= 0.30
     Davidson diagonalization with overlap
     ethr =  1.45E-08,  avg # of iterations =  2.4

     total cpu time spent up to now is      149.6 secs

     total energy              =    -901.46185817 Ry
     estimated scf accuracy    <       0.00000025 Ry

     iteration #  8     ecut=   100.00 Ry     beta= 0.30
     Davidson diagonalization with overlap
     ethr =  4.93E-10,  avg # of iterations =  3.5

     total cpu time spent up to now is      168.5 secs

     total energy              =    -901.46185863 Ry
     estimated scf accuracy    <       0.00000006 Ry

     iteration #  9     ecut=   100.00 Ry     beta= 0.30
     Davidson diagonalization with overlap
     ethr =  1.30E-10,  avg # of iterations =  2.0

     total cpu time spent up to now is      185.7 secs

     total energy              =    -901.46185881 Ry
     estimated scf accuracy    <          2.4E-09 Ry

     iteration # 10     ecut=   100.00 Ry     beta= 0.30
     Davidson diagonalization with overlap
     ethr =  4.84E-12,  avg # of iterations =  3.7

     total cpu time spent up to now is      205.3 secs

     total energy              =    -901.46185890 Ry
     estimated scf accuracy    <          2.6E-09 Ry

     iteration # 11     ecut=   100.00 Ry     beta= 0.30
     Davidson diagonalization with overlap
     ethr =  4.84E-12,  avg # of iterations =  2.0

     total cpu time spent up to now is      221.4 secs

     total energy              =    -901.46185894 Ry
     estimated scf accuracy    <          3.8E-11 Ry

     iteration # 12     ecut=   100.00 Ry     beta= 0.30
     Davidson diagonalization with overlap
     ethr =  1.00E-13,  avg # of iterations =  3.2

     total cpu time spent up to now is      239.7 secs

     End of self-consistent calculation

          k = 0.0000 0.0000 0.0000 ( 13805 PWs)   bands (ev):

  -121.0619 -75.2438 -75.2438 -75.2438 -24.8028 -10.7926  -9.8531  -9.8531
    -8.2814  -8.2814  -8.2814  -2.0119  -2.0119  -2.0119  -1.8578  -1.8578
    -0.1186  -0.1186  -0.1186   2.3209   2.3209   2.3209   2.5961   2.5961
     2.5961   4.5824   8.5999  10.1896  10.1896  11.0720

          k = 0.0000 0.0000 0.1000 ( 13821 PWs)   bands (ev):

  -121.0619 -75.2438 -75.2438 -75.2438 -24.8027 -10.7750  -9.8722  -9.8522
    -8.2809  -8.2809  -8.2759  -2.0166  -2.0166  -2.0118  -1.9408  -1.8578
    -0.0981  -0.0981  -0.0518   2.2967   2.3044   2.3044   2.4455   2.5763
     2.5763   4.8381   8.7298  10.2611  10.3020  11.1699

          k = 0.0000 0.0000 0.2000 ( 13834 PWs)   bands (ev):

  -121.0619 -75.2438 -75.2438 -75.2438 -24.8025 -10.7252  -9.9252  -9.8500
    -8.2796  -8.2796  -8.2623  -2.1326  -2.0287  -2.0287  -2.0116  -1.8576
    -0.0430  -0.0430   0.1061   2.1253   2.2347   2.2543   2.2543   2.5303
     2.5303   5.4666   9.0930  10.4579  10.6134  11.2584

          k = 0.0000 0.0000 0.3000 ( 13826 PWs)   bands (ev):

  -121.0619 -75.2438 -75.2438 -75.2438 -24.8023 -10.6536  -9.9998  -9.8472
    -8.2779  -8.2779  -8.2466  -2.3351  -2.0431  -2.0431  -2.0114  -1.8575
     0.0287   0.0287   0.2902   1.7895   2.1607   2.1784   2.1784   2.4849
     2.4849   6.2784   9.6182  10.7106  11.0431  11.4822

          k = 0.0000 0.0000 0.4000 ( 13862 PWs)   bands (ev):

  -121.0619 -75.2439 -75.2438 -75.2438 -24.8021 -10.5817 -10.0734  -9.8449
    -8.2766  -8.2766  -8.2349  -2.4799  -2.0544  -2.0544  -2.0112  -1.8573
     0.0902   0.0902   0.4539   1.5214   2.1029   2.1068   2.1068   2.4556
     2.4556   7.0756  10.1874  10.8528  11.4456  11.7626

          k = 0.0000 0.0000-0.5000 ( 13854 PWs)   bands (ev):

  -121.0619 -75.2439 -75.2438 -75.2438 -24.8020 -10.5482 -10.1073  -9.8441
    -8.2761  -8.2761  -8.2306  -2.5318  -2.0586  -2.0586  -2.0111  -1.8573
     0.1147   0.1147   0.5286   1.4095   2.0772   2.0772   2.0813   2.4457
     2.4457   7.4607  10.5268  10.7837  11.6185  11.6245

          k = 0.0000 0.1000 0.1000 ( 13813 PWs)   bands (ev):

  -121.0619 -75.2438 -75.2438 -75.2438 -24.8027 -10.7573  -9.8807  -9.8613
    -8.2804  -8.2781  -8.2734  -2.0217  -2.0167  -2.0164  -1.9724  -1.9028
    -0.2038  -0.0771   0.1364   2.1908   2.2896   2.3150   2.3387   2.5544
     2.6183   5.0502   8.8539  10.3534  10.3818  11.2001

          k = 0.0000 0.1000 0.2000 ( 13813 PWs)   bands (ev):

  -121.0619 -75.2438 -75.2438 -75.2438 -24.8025 -10.7073  -9.9286  -9.8627
    -8.2791  -8.2763  -8.2620  -2.1390  -2.0344  -2.0287  -2.0164  -1.9189
    -0.2444  -0.0206   0.3832   1.9495   2.1689   2.2439   2.3459   2.5031
     2.6060   5.6125   9.2025  10.5521  10.6649  11.3417

          k = 0.0000 0.1000 0.3000 ( 13829 PWs)   bands (ev):

  -121.0619 -75.2438 -75.2438 -75.2438 -24.8022 -10.6352 -10.0014  -9.8600
    -8.2775  -8.2753  -8.2478  -2.3358  -2.0495  -2.0431  -2.0162  -1.9202
    -0.2317   0.0530   0.6228   1.6779   2.0408   2.1719   2.3420   2.4523
     2.5459   6.3816   9.7109  10.8038  11.0778  11.5559

          k = 0.0000 0.1000 0.4000 ( 13836 PWs)   bands (ev):

  -121.0619 -75.2438 -75.2438 -75.2438 -24.8020 -10.5624 -10.0746  -9.8575
    -8.2762  -8.2745  -8.2371  -2.4797  -2.0613  -2.0545  -2.0161  -1.9202
    -0.2032   0.1164   0.8204   1.4582   1.9392   2.1015   2.3373   2.4202
     2.4833   7.1606  10.2708  10.9504  11.4813  11.8214

          k = 0.0000 0.1000-0.5000 ( 13854 PWs)   bands (ev):

  -121.0619 -75.2438 -75.2438 -75.2438 -24.8019 -10.5282 -10.1088  -9.8565
    -8.2757  -8.2742  -8.2333  -2.5316  -2.0657  -2.0587  -2.0160  -1.9202
    -0.1894   0.1418   0.9122   1.3603   1.8989   2.0720   2.3360   2.4096
     2.4568   7.5435  10.6112  10.8776  11.4865  11.6772

          k = 0.0000 0.2000 0.2000 ( 13849 PWs)   bands (ev):

  -121.0619 -75.2438 -75.2438 -75.2438 -24.8023 -10.6566  -9.9508  -9.8859
    -8.2778  -8.2705  -8.2590  -2.1883  -2.0577  -2.0307  -2.0291  -2.0282
    -0.3983   0.0399   0.7330   1.6868   2.0923   2.2108   2.3772   2.4362
     2.7068   6.0418   9.5131  10.8123  10.8290  11.5470

          k = 0.0000 0.2000 0.3000 ( 13860 PWs)   bands (ev):

  -121.0619 -75.2438 -75.2438 -75.2438 -24.8020 -10.5831 -10.0091  -9.8942
    -8.2762  -8.2687  -8.2507  -2.3407  -2.0887  -2.0592  -2.0432  -2.0286
    -0.4671   0.1192   1.0428   1.4612   1.9876   2.1527   2.3669   2.4109
     2.7230   6.7003   9.9749  11.0631  11.1982  11.7601

          k = 0.0000 0.2000 0.4000 ( 13834 PWs)   bands (ev):

  -121.0619 -75.2438 -75.2438 -75.2438 -24.8018 -10.5073 -10.0781  -9.8947
    -8.2749  -8.2690  -8.2429  -2.4793  -2.0929  -2.0755  -2.0547  -2.0285
    -0.4888   0.1882   1.2448   1.3405   1.8817   2.0876   2.3248   2.4662
     2.6665   7.4246  10.5046  11.2287  11.4861  11.7395

          k = 0.0000 0.2000-0.5000 ( 13876 PWs)   bands (ev):

  -121.0619 -75.2439 -75.2438 -75.2438 -24.8018 -10.4706 -10.1126  -9.8944
    -8.2745  -8.2692  -8.2400  -2.5312  -2.0905  -2.0841  -2.0590  -2.0285
    -0.4926   0.2159   1.2328   1.3969   1.8273   2.0585   2.3117   2.5180
     2.6076   7.8008  10.8392  11.1384  11.1831  11.8425

          k = 0.0000 0.3000 0.3000 ( 13863 PWs)   bands (ev):

  -121.0619 -75.2438 -75.2438 -75.2438 -24.8018 -10.5064 -10.0339  -9.9329
    -8.2747  -8.2627  -8.2524  -2.3746  -2.2496  -2.0839  -2.0438  -2.0429
    -0.5936   0.2070   1.2661   1.3840   1.9345   2.1192   2.2658   2.4860
     2.8528   7.2329  10.3713  11.3680  11.4690  12.0216

          k = 0.0000 0.3000 0.4000 ( 13859 PWs)   bands (ev):

  -121.0619 -75.2438 -75.2438 -75.2438 -24.8016 -10.4248 -10.0844  -9.9533
    -8.2734  -8.2623  -8.2496  -2.4797  -2.2968  -2.1006  -2.0550  -2.0435
    -0.6493   0.2843   1.1386   1.6067   1.8699   2.0697   2.2007   2.6020
     2.8759   7.8809  10.8414  11.2663  11.6426  11.7771

          k = 0.0000 0.3000-0.5000 ( 13888 PWs)   bands (ev):

  -121.0619 -75.2439 -75.2438 -75.2438 -24.8015 -10.3828 -10.1174  -9.9582
    -8.2730  -8.2629  -8.2478  -2.5307  -2.3018  -2.1071  -2.0593  -2.0435
    -0.6645   0.3158   1.0941   1.7030   1.8208   2.0419   2.1828   2.6832
     2.8450   8.2505  10.8192  11.2081  11.4905  12.0417

          k = 0.0000 0.4000 0.4000 ( 13847 PWs)   bands (ev):

  -121.0619 -75.2438 -75.2438 -75.2438 -24.8014 -10.3319 -10.0986 -10.0178
    -8.2722  -8.2576  -8.2541  -2.4918  -2.4461  -2.1188  -2.0553  -2.0550
    -0.7235   0.3704   1.0337   1.7568   1.8564   2.0493   2.0982   2.7846
     2.9910   8.4828  10.9818  11.1735  11.3275  12.0835

          k = 0.0000 0.4000-0.5000 ( 13852 PWs)   bands (ev):

  -121.0619 -75.2438 -75.2438 -75.2438 -24.8014 -10.2769 -10.1212 -10.0447
    -8.2718  -8.2578  -8.2537  -2.5303  -2.4673  -2.1257  -2.0595  -2.0552
    -0.7447   0.4058   0.9968   1.8152   1.8322   2.0286   2.0696   2.8850
     3.0076   8.8755  10.5965  11.1025  11.4812  11.9107

          k = 0.0000-0.5000-0.5000 ( 13852 PWs)   bands (ev):

  -121.0619 -75.2438 -75.2438 -75.2438 -24.8013 -10.1916 -10.1227 -10.1227
    -8.2713  -8.2559  -8.2559  -2.5313  -2.5277  -2.1329  -2.0596  -2.0596
    -0.7677   0.4430   0.9626   1.8383   1.8383   2.0235   2.0235   2.9714
     3.0657   9.3534  10.5145  10.5145  11.5713  12.0979

          k = 0.1000 0.1000 0.1000 ( 13805 PWs)   bands (ev):

  -121.0619 -75.2438 -75.2438 -75.2437 -24.8026 -10.7395  -9.8794  -9.8794
    -8.2781  -8.2781  -8.2706  -2.0221  -2.0216  -2.0216  -1.9716  -1.9716
    -0.3622   0.1574   0.1574   2.1448   2.1964   2.1964   2.3859   2.6109
     2.6109   5.2339   8.9717  10.4474  10.4474  11.2718

          k = 0.1000 0.1000 0.2000 ( 13810 PWs)   bands (ev):

  -121.0619 -75.2438 -75.2438 -75.2438 -24.8024 -10.6895  -9.9301  -9.8763
    -8.2783  -8.2750  -8.2609  -2.1435  -2.0345  -2.0343  -2.0213  -1.9701
    -0.4705   0.2146   0.4628   1.8785   2.0541   2.1850   2.4114   2.5862
     2.6083   5.7451   9.3038  10.6325  10.7159  11.4175

          k = 0.1000 0.1000 0.3000 ( 13830 PWs)   bands (ev):

  -121.0619 -75.2438 -75.2438 -75.2438 -24.8021 -10.6171 -10.0024  -9.8723
    -8.2784  -8.2724  -8.2487  -2.3365  -2.0500  -2.0491  -2.0212  -1.9690
    -0.5044   0.2904   0.7430   1.6212   1.9122   2.1805   2.4132   2.5212
     2.5480   6.4767   9.7919  10.8811  11.1112  11.6242

          k = 0.1000 0.1000 0.4000 ( 13849 PWs)   bands (ev):

  -121.0619 -75.2438 -75.2438 -75.2438 -24.8020 -10.5435 -10.0753  -9.8692
    -8.2786  -8.2705  -8.2394  -2.4795  -2.0621  -2.0605  -2.0211  -1.9683
    -0.5038   0.3572   0.9640   1.4225   1.8057   2.1859   2.4057   2.4095
     2.5137   7.2387  10.3369  11.0295  11.5232  11.7471

          k = 0.1000 0.1000-0.5000 ( 13860 PWs)   bands (ev):

  -121.0619 -75.2439 -75.2438 -75.2438 -24.8019 -10.5087 -10.1098  -9.8679
    -8.2786  -8.2698  -8.2360  -2.5314  -2.0666  -2.0647  -2.0211  -1.9681
    -0.4997   0.3843   1.0685   1.3295   1.7656   2.1957   2.3524   2.4011
     2.5004   7.6198  10.6758  10.9513  11.3580  11.7223

          k = 0.1000 0.2000 0.2000 ( 13846 PWs)   bands (ev):

  -121.0619 -75.2438 -75.2438 -75.2438 -24.8022 -10.6390  -9.9488  -9.9008
    -8.2775  -8.2719  -8.2569  -2.1879  -2.0802  -2.0446  -2.0347  -2.0331
    -0.6743   0.3671   0.7553   1.6606   1.9761   2.0854   2.4677   2.5629
     2.7063   6.1446   9.5920  10.8604  10.8772  11.5909

          k = 0.1000 0.2000 0.3000 ( 13853 PWs)   bands (ev):

  -121.0619 -75.2438 -75.2438 -75.2438 -24.8020 -10.5657 -10.0079  -9.9055
    -8.2781  -8.2685  -8.2505  -2.3410  -2.1087  -2.0629  -2.0491  -2.0339
    -0.7768   0.4645   1.0703   1.4510   1.8420   2.0879   2.4841   2.5131
     2.7210   6.7754  10.0224  11.0995  11.2225  11.7865

          k = 0.1000 0.2000 0.4000 ( 13858 PWs)   bands (ev):

  -121.0619 -75.2438 -75.2438 -75.2438 -24.8018 -10.4897 -10.0774  -9.9038
    -8.2793  -8.2659  -8.2451  -2.4791  -2.1109  -2.0777  -2.0610  -2.0339
    -0.8164   0.5430   1.2510   1.3553   1.7201   2.1518   2.3932   2.5349
     2.6676   7.4854  10.5191  11.2482  11.4404  11.6615

          k = 0.1000 0.2000-0.5000 ( 13882 PWs)   bands (ev):

  -121.0619 -75.2439 -75.2438 -75.2438 -24.8017 -10.4525 -10.1123  -9.9029
    -8.2798  -8.2649  -8.2432  -2.5310  -2.1102  -2.0840  -2.0655  -2.0339
    -0.8258   0.5751   1.2300   1.4142   1.6657   2.2427   2.2909   2.5637
     2.6196   7.8602  10.8431  11.0536  11.1519  11.8847

          k = 0.1000 0.3000 0.3000 ( 13862 PWs)   bands (ev):

  -121.0619 -75.2438 -75.2438 -75.2438 -24.8017 -10.4900 -10.0310  -9.9420
    -8.2774  -8.2656  -8.2513  -2.3742  -2.2583  -2.0839  -2.0500  -2.0484
    -0.9278   0.5807   1.2704   1.3816   1.7899   2.0569   2.4411   2.5604
     2.8524   7.2863  10.3675  11.3758  11.4327  11.8968

          k = 0.1000 0.3000 0.4000 ( 13850 PWs)   bands (ev):

  -121.0619 -75.2438 -75.2438 -75.2438 -24.8015 -10.4092 -10.0819  -9.9588
    -8.2779  -8.2630  -8.2514  -2.4795  -2.3010  -2.1002  -2.0612  -2.0492
    -0.9938   0.6716   1.1479   1.5547   1.7066   2.1425   2.3598   2.6404
     2.8763   7.9206  10.7708  11.1446  11.5819  11.6808

          k = 0.1000 0.3000-0.5000 ( 13878 PWs)   bands (ev):

  -121.0619 -75.2438 -75.2438 -75.2438 -24.8015 -10.3672 -10.1154  -9.9622
    -8.2784  -8.2616  -8.2515  -2.5305  -2.3053  -2.1065  -2.0656  -2.0492
    -1.0116   0.7091   1.1040   1.6292   1.6406   2.2491   2.2696   2.7007
     2.8483   8.2890  10.7149  11.0624  11.4000  11.8623

          k = 0.1000 0.4000 0.4000 ( 13867 PWs)   bands (ev):

  -121.0619 -75.2438 -75.2438 -75.2438 -24.8014 -10.3186 -10.0951 -10.0193
    -8.2762  -8.2616  -8.2557  -2.4916  -2.4462  -2.1180  -2.0615  -2.0609
    -1.0726   0.7723   1.0478   1.6241   1.6811   2.1966   2.3088   2.7964
     2.9920   8.5067  10.8494  11.0055  11.1989  11.7974

          k = 0.1000 0.4000-0.5000 ( 13852 PWs)   bands (ev):

  -121.0619 -75.2438 -75.2438 -75.2438 -24.8013 -10.2647 -10.1180 -10.0438
    -8.2758  -8.2603  -8.2579  -2.5301  -2.4671  -2.1248  -2.0657  -2.0612
    -1.0943   0.8141   1.0116   1.6412   1.6561   2.2501   2.2579   2.8887
     3.0096   8.8979  10.4842  10.9753  11.1936  11.7326

          k = 0.1000-0.5000-0.5000 ( 13848 PWs)   bands (ev):

  -121.0619 -75.2438 -75.2438 -75.2438 -24.8012 -10.1816 -10.1190 -10.1190
    -8.2744  -8.2603  -8.2603  -2.5311  -2.5272  -2.1319  -2.0657  -2.0657
    -1.1171   0.8576   0.9787   1.6434   1.6434   2.2503   2.2503   2.9726
     3.0676   9.3821  10.4007  10.4007  11.2277  11.8408

          k = 0.2000 0.2000 0.2000 ( 13829 PWs)   bands (ev):

  -121.0619 -75.2438 -75.2438 -75.2438 -24.8020 -10.5892  -9.9434  -9.9434
    -8.2755  -8.2755  -8.2527  -2.1866  -2.1866  -2.0517  -2.0461  -2.0461
    -0.9782   0.8179   0.8179   1.5452   1.8935   1.8935   2.5629   2.7051
     2.7051   6.4699   9.8180  11.0181  11.0182  11.6856

          k = 0.2000 0.2000 0.3000 ( 13830 PWs)   bands (ev):

  -121.0619 -75.2438 -75.2438 -75.2438 -24.8018 -10.5163 -10.0070  -9.9368
    -8.2801  -8.2710  -8.2499  -2.3438  -2.1847  -2.0675  -2.0622  -2.0478
    -1.1542   0.9083   1.1734   1.3929   1.7088   1.9493   2.6148   2.7023
     2.7239   7.0209  10.1593  11.2002  11.2927  11.7666

          k = 0.2000 0.2000 0.4000 ( 13869 PWs)   bands (ev):

  -121.0619 -75.2438 -75.2438 -75.2438 -24.8016 -10.4395 -10.0758  -9.9314
    -8.2839  -8.2653  -8.2502  -2.4787  -2.1829  -2.0807  -2.0755  -2.0480
    -1.2318   1.0021   1.2380   1.4116   1.5610   2.1268   2.6093   2.6388
     2.6946   7.6839  10.5579  11.1293  11.3730  11.6479

          k = 0.2000 0.2000-0.5000 ( 13884 PWs)   bands (ev):

  -121.0619 -75.2439 -75.2438 -75.2438 -24.8015 -10.4009 -10.1114  -9.9293
    -8.2853  -8.2620  -8.2514  -2.5305  -2.1820  -2.0857  -2.0807  -2.0480
    -1.2526   1.0487   1.2032   1.4587   1.4974   2.3141   2.4529   2.6473
     2.6886   8.0534  10.7530  10.8340  11.1941  12.0395

          k = 0.2000 0.3000 0.3000 ( 13846 PWs)   bands (ev):

  -121.0619 -75.2438 -75.2438 -75.2438 -24.8016 -10.4435 -10.0234  -9.9693
    -8.2817  -8.2732  -8.2512  -2.3732  -2.2922  -2.0843  -2.0662  -2.0628
    -1.3874   1.1178   1.2771   1.3692   1.6561   1.9629   2.6910   2.6911
     2.8518   7.4661  10.3684  11.2711  11.3465  11.6684

          k = 0.2000 0.3000 0.4000 ( 13871 PWs)   bands (ev):

  -121.0619 -75.2438 -75.2438 -75.2438 -24.8014 -10.3650 -10.0757  -9.9760
    -8.2854  -8.2693  -8.2555  -2.4790  -2.3187  -2.0994  -2.0774  -2.0644
    -1.4916   1.1541   1.2628   1.4446   1.5558   2.2226   2.6355   2.7351
     2.8773   8.0538  10.6088  10.8443  11.3712  11.4541

          k = 0.2000 0.3000-0.5000 ( 13854 PWs)   bands (ev):

  -121.0619 -75.2438 -75.2438 -75.2438 -24.8013 -10.3231 -10.1103  -9.9759
    -8.2872  -8.2634  -8.2613  -2.5299  -2.3209  -2.1051  -2.0821  -2.0644
    -1.5195   1.1268   1.3250   1.4321   1.5111   2.4374   2.5293   2.7534
     2.8610   8.4154  10.4326  10.7817  11.2332  11.4553

          k = 0.2000 0.4000 0.4000 ( 13884 PWs)   bands (ev):

  -121.0619 -75.2439 -75.2438 -75.2438 -24.8012 -10.2815 -10.0858 -10.0252
    -8.2850  -8.2721  -8.2618  -2.4910  -2.4476  -2.1161  -2.0777  -2.0763
    -1.6041   1.0799   1.3659   1.4408   1.5657   2.4104   2.6057   2.8362
     2.9949   8.5824  10.5351  10.6627  10.8788  11.4234

          k = 0.2000 0.4000-0.5000 ( 13854 PWs)   bands (ev):

  -121.0619 -75.2438 -75.2438 -75.2438 -24.8011 -10.2308 -10.1094 -10.0429
    -8.2851  -8.2690  -8.2681  -2.5295  -2.4670  -2.1225  -2.0816  -2.0768
    -1.6332   1.0504   1.4137   1.4254   1.5600   2.5307   2.5479   2.9006
     3.0149   8.9607  10.1985  10.6743  10.7143  11.3985

          k = 0.2000-0.5000-0.5000 ( 13840 PWs)   bands (ev):

  -121.0619 -75.2438 -75.2438 -75.2438 -24.8011 -10.1550 -10.1091 -10.1091
    -8.2823  -8.2719  -8.2719  -2.5308  -2.5258  -2.1292  -2.0814  -2.0814
    -1.6622   1.0213   1.4273   1.4273   1.5827   2.5523   2.5523   2.9757
     3.0725   9.4501  10.1134  10.1134  10.6842  11.4457

          k = 0.3000 0.3000 0.3000 ( 13871 PWs)   bands (ev):

  -121.0619 -75.2438 -75.2438 -75.2438 -24.8013 -10.3752 -10.0138 -10.0138
    -8.2828  -8.2828  -8.2551  -2.3718  -2.3718  -2.0900  -2.0805  -2.0805
    -1.7090   1.2266   1.3415   1.3415   1.9080   1.9080   2.7976   2.8557
     2.8557   7.8143  10.3970  11.0777  11.0777  11.4523

          k = 0.3000 0.3000 0.4000 ( 13875 PWs)   bands (ev):

  -121.0619 -75.2438 -75.2438 -75.2438 -24.8012 -10.3003 -10.0692 -10.0060
    -8.2906  -8.2793  -8.2626  -2.4790  -2.3706  -2.1015  -2.0949  -2.0832
    -1.8597   1.1628   1.3108   1.3603   1.8910   2.3357   2.8348   2.8632
     2.8874   8.3174  10.4363  10.5308  10.9470  11.2533

          k = 0.3000 0.3000-0.5000 ( 13846 PWs)   bands (ev):

  -121.0619 -75.2438 -75.2438 -75.2438 -24.8011 -10.2580 -10.1039 -10.0030
    -8.2936  -8.2733  -8.2702  -2.5292  -2.3701  -2.1055  -2.1004  -2.0839
    -1.8986   1.1352   1.2978   1.3659   1.8891   2.6097   2.7452   2.8376
     2.9076   8.6619  10.1097  10.5003  10.9021  11.1614

          k = 0.3000 0.4000 0.4000 ( 13858 PWs)   bands (ev):

  -121.0619 -75.2438 -75.2438 -75.2438 -24.8010 -10.2283 -10.0742 -10.0392
    -8.2930  -8.2854  -8.2721  -2.4903  -2.4557  -2.1149  -2.1007  -2.0952
    -2.0315   1.1217   1.2836   1.2966   2.1438   2.5666   2.8609   2.9133
     2.9984   8.7289  10.2028  10.3326  10.4550  11.1805

          k = 0.3000 0.4000-0.5000 ( 13858 PWs)   bands (ev):

  -121.0619 -75.2438 -75.2438 -75.2438 -24.8009 -10.1834 -10.0987 -10.0466
    -8.2948  -8.2828  -8.2797  -2.5287  -2.4698  -2.1197  -2.1019  -2.1012
    -2.0706   1.0982   1.2652   1.2924   2.1941   2.7612   2.8137   2.9312
     3.0225   9.0618   9.8700  10.2962  10.2995  11.1711

          k = 0.3000-0.5000-0.5000 ( 13864 PWs)   bands (ev):

  -121.0619 -75.2438 -75.2438 -75.2438 -24.8008 -10.1213 -10.0968 -10.0968
    -8.2921  -8.2864  -8.2864  -2.5303  -2.5242  -2.1259  -2.1155  -2.1008
    -2.1008   1.0750   1.2666   1.2666   2.2806   2.8239   2.8239   2.9795
     3.0786   9.4974   9.7824   9.7824  10.2277  11.2071

          k = 0.4000 0.4000 0.4000 ( 13878 PWs)   bands (ev):

  -121.0619 -75.2438 -75.2438 -75.2438 -24.8008 -10.1708 -10.0646 -10.0646
    -8.2962  -8.2962  -8.2836  -2.4897  -2.4897  -2.2866  -2.1121  -2.1105
    -2.1105   1.1403   1.2070   1.2070   2.6413   2.6413   3.0006   3.0006
     3.0029   8.9777   9.9652   9.9652  10.1077  11.1402

          k = 0.4000 0.4000-0.5000 ( 13832 PWs)   bands (ev):

  -121.0619 -75.2438 -75.2438 -75.2438 -24.8007 -10.1331 -10.0900 -10.0609
    -8.3004  -8.2940  -8.2913  -2.5282  -2.4894  -2.3444  -2.1183  -2.1163
    -2.1104   1.1288   1.1767   1.2002   2.6614   2.8848   2.9881   3.0023
     3.0411   9.2263   9.6220   9.8799  10.0266  11.1747

          k = 0.4000-0.5000-0.5000 ( 13832 PWs)   bands (ev):

  -121.0619 -75.2438 -75.2438 -75.2438 -24.8007 -10.0935 -10.0866 -10.0866
    -8.2999  -8.2983  -8.2983  -2.5299  -2.5238  -2.4063  -2.1234  -2.1164
    -2.1164   1.1192   1.1690   1.1690   2.7927   2.9827   3.0157   3.0157
     3.0836   9.4701   9.5306   9.5306   9.9318  11.2535

          k =-0.5000-0.5000-0.5000 ( 13776 PWs)   bands (ev):

  -121.0619 -75.2437 -75.2437 -75.2437 -24.8006 -10.0827 -10.0827 -10.0827
    -8.3029  -8.3029  -8.3029  -2.5298  -2.5298  -2.5002  -2.1224  -2.1224
    -2.1224   1.1364   1.1364   1.1364   2.9839   2.9839   3.0855   3.0855
     3.0855   9.4374   9.4374   9.4374   9.8296  11.4014

     the Fermi energy is     3.8452 ev

!    total energy              =    -901.46185898 Ry
     total all-electron energy =     -7565.886467 Ry
     estimated scf accuracy    <          8.1E-13 Ry
     smearing contrib. (-TS)   =      -0.00000000 Ry
     internal energy E=F+TS    =    -901.46185898 Ry

     The total energy is F=E-TS. E is the sum of the following terms:
     one-electron contribution =    -538.90806682 Ry
     hartree contribution      =     287.47830651 Ry
     xc contribution           =     -85.83662579 Ry
     ewald contribution        =    -271.61435594 Ry
     one-center paw contrib.   =    -292.58111695 Ry

     convergence has been achieved in  12 iterations

     Writing all to output data dir ./tmp/KZnCl3.save/ :
     XML data file, charge density, pseudopotentials, collected wavefunctions

     init_run     :      8.46s CPU      7.70s WALL (       1 calls)
     electrons    :    293.88s CPU    231.47s WALL (       1 calls)

     Called by init_run:
     wfcinit      :      5.25s CPU      4.23s WALL (       1 calls)
     potinit      :      0.96s CPU      1.05s WALL (       1 calls)
     hinit0       :      1.31s CPU      1.33s WALL (       1 calls)

     Called by electrons:
     c_bands      :    217.92s CPU    165.89s WALL (      13 calls)
     sum_band     :     59.50s CPU     47.44s WALL (      13 calls)
     v_of_rho     :      4.60s CPU      5.13s WALL (      13 calls)
     newd         :      9.48s CPU     10.83s WALL (      13 calls)
     PAW_pot      :      2.60s CPU      2.61s WALL (      13 calls)
     mix_rho      :      0.35s CPU      0.36s WALL (      13 calls)

     Called by c_bands:
     init_us_2    :      7.23s CPU      5.27s WALL (     378 calls)
     cegterg      :    178.58s CPU    134.89s WALL (     182 calls)

     Called by *egterg:
     cdiaghg      :      3.89s CPU      2.73s WALL (     869 calls)
     h_psi        :    139.42s CPU    113.30s WALL (     897 calls)
     s_psi        :      8.81s CPU      4.69s WALL (     897 calls)
     g_psi        :      1.11s CPU      0.81s WALL (     701 calls)

     Called by h_psi:
     h_psi:calbec :      9.56s CPU      5.30s WALL (     897 calls)
     vloc_psi     :    119.80s CPU    102.29s WALL (     897 calls)
     add_vuspsi   :      9.15s CPU      4.91s WALL (     897 calls)

     General routines
     calbec       :     12.97s CPU      7.18s WALL (    1079 calls)
     fft          :      2.89s CPU      3.16s WALL (     168 calls)
     ffts         :      0.40s CPU      0.39s WALL (      26 calls)
     fftw         :    107.16s CPU     89.86s WALL (   34632 calls)
     interpolate  :      0.62s CPU      0.64s WALL (      13 calls)

     Parallel routines

     PWSCF        :   5m 2.99s CPU   3m59.94s WALL


   This run was terminated on:  18: 3:31  15May2025            

=------------------------------------------------------------------------------=
   JOB DONE.
=------------------------------------------------------------------------------=
