
     Program PWSCF v.7.3.1 starts on 15Apr2025 at  9:47:38 

     This program is part of the open-source Quantum ESPRESSO suite
     for quantum simulation of materials; please cite
         "P. Giannozzi et al., J. Phys.:Condens. Matter 21 395502 (2009);
         "P. Giannozzi et al., J. Phys.:Condens. Matter 29 465901 (2017);
         "P. Giannozzi et al., J. Chem. Phys. 152 154105 (2020);
          URL http://www.quantum-espresso.org", 
     in publications or presentations arising from this work. More details at
     http://www.quantum-espresso.org/quote

     Parallel version (MPI), running on     8 processors

     MPI processes distributed on     1 nodes
     58788 MiB available memory on the printing compute node when the environment starts

     Waiting for input...
     Reading input from standard input

     Current dimensions of program PWSCF are:
     Max number of different atomic species (ntypx) = 10
     Max number of k-points (npk) =  40000
     Max angular momentum in pseudopotentials (lmaxx) =  4
     file Ca.pbe-spn-kjpaw_psl.1.0.0.UPF: wavefunction(s)  3S renormalized
     file Ti.pbe-spn-kjpaw_psl.1.0.0.UPF: wavefunction(s)  3S 3P 3D renormalized
     file Se.pbe-n-kjpaw_psl.1.0.0.UPF: wavefunction(s)  4S renormalized

     IMPORTANT: XC functional enforced from input :
     Exchange-correlation= PBE
                           (   1   4   3   4   0   0   0)
     Any further DFT definition will be discarded
     Please, verify this is what you really want

     Message from routine setup:
     using ibrav=0 with symmetry is DISCOURAGED, use correct ibrav instead

     R & G space division:  proc/nbgrp/npool/nimage =       8
     Subspace diagonalization in iterative solution of the eigenvalue problem:
     a serial algorithm will be used


     Parallelization info
     --------------------
     sticks:   dense  smooth     PW     G-vecs:    dense   smooth      PW
     Min         635     317     89                33942    12013    1788
     Max         637     319     90                33944    12015    1789
     Sum        5089    2539    717               271541    96107   14307

     Using Slab Decomposition



     bravais-lattice index     =            0
     lattice parameter (alat)  =       9.9783  a.u.
     unit-cell volume          =     993.4351 (a.u.)^3
     number of atoms/cell      =            5
     number of atomic types    =            3
     number of electrons       =        40.00
     number of Kohn-Sham states=           24
     kinetic-energy cutoff     =      80.0000  Ry
     charge density cutoff     =     640.0000  Ry
     scf convergence threshold =      1.0E-10
     mixing beta               =       0.3000
     number of iterations used =            8  plain     mixing
     Exchange-correlation= PBE
                           (   1   4   3   4   0   0   0)

     celldm(1)=   9.978277  celldm(2)=   0.000000  celldm(3)=   0.000000
     celldm(4)=   0.000000  celldm(5)=   0.000000  celldm(6)=   0.000000

     crystal axes: (cart. coord. in units of alat)
               a(1) = (   0.999988  -0.005000   0.000000 )  
               a(2) = (  -0.005000   0.999988   0.000000 )  
               a(3) = (   0.000000   0.000000   0.999988 )  

     reciprocal axes: (cart. coord. in units 2 pi/alat)
               b(1) = (  1.000038  0.005000 -0.000000 )  
               b(2) = (  0.005000  1.000038 -0.000000 )  
               b(3) = ( -0.000000 -0.000000  1.000012 )  


     PseudoPot. # 1 for Ca read from file:
     /home/administrator/Downloads/BURAI/BURAI1.3/pseudopot/Ca.pbe-spn-kjpaw_psl.1.0.0.UPF
     MD5 check sum: b518bfa21c8e9f1b10ff1c7131b15729
     Pseudo is Projector augmented-wave + core cor, Zval = 10.0
     Generated using "atomic" code by A. Dal Corso  v.5.1.2
     Shape of augmentation charge: PSQ
     Using radial grid of 1169 points,  6 beta functions with: 
                l(1) =   0
                l(2) =   0
                l(3) =   1
                l(4) =   1
                l(5) =   2
                l(6) =   2
     Q(r) pseudized with 0 coefficients 


     PseudoPot. # 2 for Ti read from file:
     /home/administrator/Downloads/BURAI/BURAI1.3/pseudopot/Ti.pbe-spn-kjpaw_psl.1.0.0.UPF
     MD5 check sum: ea6c0241539b3211983c246a8902380f
     Pseudo is Projector augmented-wave + core cor, Zval = 12.0
     Generated using "atomic" code by A. Dal Corso  v.5.1.2
     Shape of augmentation charge: PSQ
     Using radial grid of 1177 points,  6 beta functions with: 
                l(1) =   0
                l(2) =   0
                l(3) =   1
                l(4) =   1
                l(5) =   2
                l(6) =   2
     Q(r) pseudized with 0 coefficients 


     PseudoPot. # 3 for Se read from file:
     /home/administrator/Downloads/BURAI/BURAI1.3/pseudopot/Se.pbe-n-kjpaw_psl.1.0.0.UPF
     MD5 check sum: a24196f260b4188fa853fb27ef2f7c98
     Pseudo is Projector augmented-wave + core cor, Zval =  6.0
     Generated using "atomic" code by A. Dal Corso  v.5.1.2
     Shape of augmentation charge: PSQ
     Using radial grid of 1211 points,  4 beta functions with: 
                l(1) =   0
                l(2) =   0
                l(3) =   1
                l(4) =   1
     Q(r) pseudized with 0 coefficients 


     atomic species   valence    mass     pseudopotential
     Ca               10.00    40.07800     Ca( 1.00)
     Ti               12.00    47.86700     Ti( 1.00)
     Se                6.00    78.97100     Se( 1.00)

      8 Sym. Ops., with inversion, found


                                    s                        frac. trans.

      isym =  1     identity                                     

 cryst.   s( 1) = (     1          0          0      )
                  (     0          1          0      )
                  (     0          0          1      )

 cart.    s( 1) = (  1.0000000 -0.0000000  0.0000000 )
                  ( -0.0000000  1.0000000  0.0000000 )
                  (  0.0000000  0.0000000  1.0000000 )


      isym =  2     180 deg rotation - cart. axis [0,0,1]        

 cryst.   s( 2) = (    -1          0          0      )
                  (     0         -1          0      )
                  (     0          0          1      )

 cart.    s( 2) = ( -1.0000000  0.0000000  0.0000000 )
                  (  0.0000000 -1.0000000  0.0000000 )
                  (  0.0000000  0.0000000  1.0000000 )


      isym =  3     180 deg rotation - cart. axis [1,1,0]        

 cryst.   s( 3) = (     0          1          0      )
                  (     1          0          0      )
                  (     0          0         -1      )

 cart.    s( 3) = ( -0.0000000  1.0000000  0.0000000 )
                  (  1.0000000 -0.0000000  0.0000000 )
                  (  0.0000000  0.0000000 -1.0000000 )


      isym =  4     180 deg rotation - cart. axis [1,-1,0]       

 cryst.   s( 4) = (     0         -1          0      )
                  (    -1          0          0      )
                  (     0          0         -1      )

 cart.    s( 4) = (  0.0000000 -1.0000000  0.0000000 )
                  ( -1.0000000  0.0000000  0.0000000 )
                  (  0.0000000  0.0000000 -1.0000000 )


      isym =  5     inversion                                    

 cryst.   s( 5) = (    -1          0          0      )
                  (     0         -1          0      )
                  (     0          0         -1      )

 cart.    s( 5) = ( -1.0000000  0.0000000  0.0000000 )
                  (  0.0000000 -1.0000000  0.0000000 )
                  (  0.0000000  0.0000000 -1.0000000 )


      isym =  6     inv. 180 deg rotation - cart. axis [0,0,1]   

 cryst.   s( 6) = (     1          0          0      )
                  (     0          1          0      )
                  (     0          0         -1      )

 cart.    s( 6) = (  1.0000000 -0.0000000  0.0000000 )
                  ( -0.0000000  1.0000000  0.0000000 )
                  (  0.0000000  0.0000000 -1.0000000 )


      isym =  7     inv. 180 deg rotation - cart. axis [1,1,0]   

 cryst.   s( 7) = (     0         -1          0      )
                  (    -1          0          0      )
                  (     0          0          1      )

 cart.    s( 7) = (  0.0000000 -1.0000000  0.0000000 )
                  ( -1.0000000  0.0000000  0.0000000 )
                  (  0.0000000  0.0000000  1.0000000 )


      isym =  8     inv. 180 deg rotation - cart. axis [1,-1,0]  

 cryst.   s( 8) = (     0          1          0      )
                  (     1          0          0      )
                  (     0          0          1      )

 cart.    s( 8) = ( -0.0000000  1.0000000  0.0000000 )
                  (  1.0000000 -0.0000000  0.0000000 )
                  (  0.0000000  0.0000000  1.0000000 )


   Cartesian axes

     site n.     atom                  positions (alat units)
         1        Ca     tau(   1) = (   0.0000000   0.0000000   0.0000000  )
         2        Ti     tau(   2) = (   0.4974938   0.4974938   0.4999938  )
         3        Se     tau(   3) = (   0.4999938  -0.0025000   0.0000000  )
         4        Se     tau(   4) = (  -0.0025000   0.4999938   0.0000000  )
         5        Se     tau(   5) = (   0.0000000   0.0000000   0.4999938  )

   Crystallographic axes

     site n.     atom                  positions (cryst. coord.)
         1        Ca     tau(   1) = (  0.0000000  0.0000000  0.0000000  )
         2        Ti     tau(   2) = (  0.5000000  0.5000000  0.5000000  )
         3        Se     tau(   3) = (  0.5000000 -0.0000000  0.0000000  )
         4        Se     tau(   4) = ( -0.0000000  0.5000000  0.0000000  )
         5        Se     tau(   5) = (  0.0000000  0.0000000  0.5000000  )

     number of k points=    21  Gaussian smearing, width (Ry)=  0.0020
                       cart. coord. in units 2pi/alat
        k(    1) = (   0.0000000   0.0000000   0.0000000), wk =   0.0312500
        k(    2) = (   0.0000000   0.0000000   0.2500031), wk =   0.0625000
        k(    3) = (   0.0000000   0.0000000  -0.5000062), wk =   0.0312500
        k(    4) = (   0.0012500   0.2500094   0.0000000), wk =   0.1250000
        k(    5) = (   0.0012500   0.2500094   0.2500031), wk =   0.2500000
        k(    6) = (   0.0012500   0.2500094  -0.5000062), wk =   0.1250000
        k(    7) = (  -0.0025001  -0.5000188   0.0000000), wk =   0.0625000
        k(    8) = (  -0.0025001  -0.5000188   0.2500031), wk =   0.1250000
        k(    9) = (  -0.0025001  -0.5000188  -0.5000062), wk =   0.0625000
        k(   10) = (   0.2512594   0.2512594   0.0000000), wk =   0.0625000
        k(   11) = (   0.2512594   0.2512594   0.2500031), wk =   0.1250000
        k(   12) = (   0.2512594   0.2512594  -0.5000062), wk =   0.0625000
        k(   13) = (   0.2475093  -0.4987687   0.0000000), wk =   0.1250000
        k(   14) = (   0.2475093  -0.4987687   0.2500031), wk =   0.2500000
        k(   15) = (   0.2475093  -0.4987687  -0.5000062), wk =   0.1250000
        k(   16) = (   0.2487593  -0.2487593   0.0000000), wk =   0.0625000
        k(   17) = (   0.2487593  -0.2487593   0.2500031), wk =   0.1250000
        k(   18) = (   0.2487593  -0.2487593  -0.5000062), wk =   0.0625000
        k(   19) = (  -0.5025188  -0.5025188   0.0000000), wk =   0.0312500
        k(   20) = (  -0.5025188  -0.5025188   0.2500031), wk =   0.0625000
        k(   21) = (  -0.5025188  -0.5025188  -0.5000062), wk =   0.0312500

                       cryst. coord.
        k(    1) = (   0.0000000   0.0000000   0.0000000), wk =   0.0312500
        k(    2) = (   0.0000000   0.0000000   0.2500000), wk =   0.0625000
        k(    3) = (   0.0000000   0.0000000  -0.5000000), wk =   0.0312500
        k(    4) = (  -0.0000000   0.2500000   0.0000000), wk =   0.1250000
        k(    5) = (  -0.0000000   0.2500000   0.2500000), wk =   0.2500000
        k(    6) = (  -0.0000000   0.2500000  -0.5000000), wk =   0.1250000
        k(    7) = (   0.0000000  -0.5000000   0.0000000), wk =   0.0625000
        k(    8) = (   0.0000000  -0.5000000   0.2500000), wk =   0.1250000
        k(    9) = (   0.0000000  -0.5000000  -0.5000000), wk =   0.0625000
        k(   10) = (   0.2500000   0.2500000   0.0000000), wk =   0.0625000
        k(   11) = (   0.2500000   0.2500000   0.2500000), wk =   0.1250000
        k(   12) = (   0.2500000   0.2500000  -0.5000000), wk =   0.0625000
        k(   13) = (   0.2500000  -0.5000000   0.0000000), wk =   0.1250000
        k(   14) = (   0.2500000  -0.5000000   0.2500000), wk =   0.2500000
        k(   15) = (   0.2500000  -0.5000000  -0.5000000), wk =   0.1250000
        k(   16) = (   0.2500000  -0.2500000   0.0000000), wk =   0.0625000
        k(   17) = (   0.2500000  -0.2500000   0.2500000), wk =   0.1250000
        k(   18) = (   0.2500000  -0.2500000  -0.5000000), wk =   0.0625000
        k(   19) = (  -0.5000000  -0.5000000   0.0000000), wk =   0.0312500
        k(   20) = (  -0.5000000  -0.5000000   0.2500000), wk =   0.0625000
        k(   21) = (  -0.5000000  -0.5000000  -0.5000000), wk =   0.0312500

     Dense  grid:   271541 G-vectors     FFT dimensions: (  81,  81,  81)

     Smooth grid:    96107 G-vectors     FFT dimensions: (  60,  60,  60)

     Dynamical RAM for                 wfc:       0.55 MB

     Dynamical RAM for     wfc (w. buffer):      12.08 MB

     Dynamical RAM for           str. fact:       1.55 MB

     Dynamical RAM for           local pot:       0.00 MB

     Dynamical RAM for          nlocal pot:       1.37 MB

     Dynamical RAM for                qrad:       6.09 MB

     Dynamical RAM for          rho,v,vnew:       3.21 MB

     Dynamical RAM for               rhoin:       1.07 MB

     Dynamical RAM for            rho*nmix:       8.29 MB

     Dynamical RAM for           G-vectors:       2.03 MB

     Dynamical RAM for          h,s,v(r/c):       0.11 MB

     Dynamical RAM for          <psi|beta>:       0.02 MB

     Dynamical RAM for                 psi:       1.10 MB

     Dynamical RAM for                hpsi:       1.10 MB

     Dynamical RAM for                spsi:       1.10 MB

     Dynamical RAM for      wfcinit/wfcrot:       1.39 MB

     Dynamical RAM for           addusdens:      97.89 MB

     Dynamical RAM for         addusstress:     104.10 MB

     Estimated static dynamical RAM per process >      32.23 MB

     Estimated max dynamical RAM per process >     144.62 MB

     Estimated total dynamical RAM >       1.13 GB

     Initial potential from superposition of free atoms

     starting charge      39.9934, renormalised to      40.0000
     Starting wfcs are   30 randomized atomic wfcs
     Checking if some PAW data can be deallocated... 
       PAW data deallocated on    6 nodes for type:  1
       PAW data deallocated on    6 nodes for type:  2
       PAW data deallocated on    4 nodes for type:  3

     total cpu time spent up to now is       12.0 secs

     Self-consistent Calculation

     iteration #  1     ecut=    80.00 Ry     beta= 0.30
     Davidson diagonalization with overlap

---- Real-time Memory Report at c_bands before calling an iterative solver
           150 MiB given to the printing process from OS
             0 MiB allocation reported by mallinfo(arena+hblkhd)
         58165 MiB available memory on the node where the printing process lives
------------------
     ethr =  1.00E-02,  avg # of iterations =  2.1

     total cpu time spent up to now is       40.8 secs

     total energy              =    -884.11535097 Ry
     estimated scf accuracy    <       2.81511391 Ry

     iteration #  2     ecut=    80.00 Ry     beta= 0.30
     Davidson diagonalization with overlap

---- Real-time Memory Report at c_bands before calling an iterative solver
           186 MiB given to the printing process from OS
             0 MiB allocation reported by mallinfo(arena+hblkhd)
         57303 MiB available memory on the node where the printing process lives
------------------
     ethr =  7.04E-03,  avg # of iterations =  2.9

     total cpu time spent up to now is       78.1 secs

     total energy              =    -884.06753126 Ry
     estimated scf accuracy    <      23.91836823 Ry

     iteration #  3     ecut=    80.00 Ry     beta= 0.30
     Davidson diagonalization with overlap

---- Real-time Memory Report at c_bands before calling an iterative solver
           187 MiB given to the printing process from OS
             0 MiB allocation reported by mallinfo(arena+hblkhd)
         57461 MiB available memory on the node where the printing process lives
------------------
     ethr =  7.04E-03,  avg # of iterations =  1.7

     total cpu time spent up to now is      104.2 secs

     total energy              =    -884.97986554 Ry
     estimated scf accuracy    <       0.91644549 Ry

     iteration #  4     ecut=    80.00 Ry     beta= 0.30
     Davidson diagonalization with overlap

---- Real-time Memory Report at c_bands before calling an iterative solver
           188 MiB given to the printing process from OS
             0 MiB allocation reported by mallinfo(arena+hblkhd)
         57190 MiB available memory on the node where the printing process lives
------------------
     ethr =  2.29E-03,  avg # of iterations =  1.5

     total cpu time spent up to now is      129.9 secs

     total energy              =    -885.10074158 Ry
     estimated scf accuracy    <       1.21861418 Ry

     iteration #  5     ecut=    80.00 Ry     beta= 0.30
     Davidson diagonalization with overlap

---- Real-time Memory Report at c_bands before calling an iterative solver
           188 MiB given to the printing process from OS
             0 MiB allocation reported by mallinfo(arena+hblkhd)
         57432 MiB available memory on the node where the printing process lives
------------------
     ethr =  2.29E-03,  avg # of iterations =  1.1

     total cpu time spent up to now is      151.6 secs

     total energy              =    -885.09137991 Ry
     estimated scf accuracy    <       1.03040545 Ry

     iteration #  6     ecut=    80.00 Ry     beta= 0.30
     Davidson diagonalization with overlap

---- Real-time Memory Report at c_bands before calling an iterative solver
           188 MiB given to the printing process from OS
             0 MiB allocation reported by mallinfo(arena+hblkhd)
         57655 MiB available memory on the node where the printing process lives
------------------
     ethr =  2.29E-03,  avg # of iterations =  1.0

     total cpu time spent up to now is      171.9 secs

     total energy              =    -885.10248986 Ry
     estimated scf accuracy    <       0.17538393 Ry

     iteration #  7     ecut=    80.00 Ry     beta= 0.30
     Davidson diagonalization with overlap

---- Real-time Memory Report at c_bands before calling an iterative solver
           188 MiB given to the printing process from OS
             0 MiB allocation reported by mallinfo(arena+hblkhd)
         57358 MiB available memory on the node where the printing process lives
------------------
     ethr =  4.38E-04,  avg # of iterations =  2.1

     total cpu time spent up to now is      201.5 secs

     total energy              =    -885.10603689 Ry
     estimated scf accuracy    <       0.10324960 Ry

     iteration #  8     ecut=    80.00 Ry     beta= 0.30
     Davidson diagonalization with overlap

---- Real-time Memory Report at c_bands before calling an iterative solver
           189 MiB given to the printing process from OS
             0 MiB allocation reported by mallinfo(arena+hblkhd)
         57426 MiB available memory on the node where the printing process lives
------------------
     ethr =  2.58E-04,  avg # of iterations =  1.9

     total cpu time spent up to now is      230.4 secs

     total energy              =    -885.12762698 Ry
     estimated scf accuracy    <       0.07308422 Ry

     iteration #  9     ecut=    80.00 Ry     beta= 0.30
     Davidson diagonalization with overlap

---- Real-time Memory Report at c_bands before calling an iterative solver
           190 MiB given to the printing process from OS
             0 MiB allocation reported by mallinfo(arena+hblkhd)
         57248 MiB available memory on the node where the printing process lives
------------------
     ethr =  1.83E-04,  avg # of iterations =  5.9

     total cpu time spent up to now is      291.9 secs

     total energy              =    -884.97649174 Ry
     estimated scf accuracy    <       3.26057131 Ry

     iteration # 10     ecut=    80.00 Ry     beta= 0.30
     Davidson diagonalization with overlap

---- Real-time Memory Report at c_bands before calling an iterative solver
           190 MiB given to the printing process from OS
             0 MiB allocation reported by mallinfo(arena+hblkhd)
         57425 MiB available memory on the node where the printing process lives
------------------
     ethr =  1.83E-04,  avg # of iterations =  4.1

     total cpu time spent up to now is      342.3 secs

     total energy              =    -885.12013667 Ry
     estimated scf accuracy    <       0.25399100 Ry

     iteration # 11     ecut=    80.00 Ry     beta= 0.30
     Davidson diagonalization with overlap

---- Real-time Memory Report at c_bands before calling an iterative solver
           190 MiB given to the printing process from OS
             0 MiB allocation reported by mallinfo(arena+hblkhd)
         57250 MiB available memory on the node where the printing process lives
------------------
     ethr =  1.83E-04,  avg # of iterations =  1.0

     total cpu time spent up to now is      361.6 secs

     total energy              =    -885.11626504 Ry
     estimated scf accuracy    <       0.05080200 Ry

     iteration # 12     ecut=    80.00 Ry     beta= 0.30
     Davidson diagonalization with overlap

---- Real-time Memory Report at c_bands before calling an iterative solver
           190 MiB given to the printing process from OS
             0 MiB allocation reported by mallinfo(arena+hblkhd)
         57257 MiB available memory on the node where the printing process lives
------------------
     ethr =  1.27E-04,  avg # of iterations =  1.6

     total cpu time spent up to now is      387.1 secs

     total energy              =    -885.10835244 Ry
     estimated scf accuracy    <       0.04025756 Ry

     iteration # 13     ecut=    80.00 Ry     beta= 0.30
     Davidson diagonalization with overlap

---- Real-time Memory Report at c_bands before calling an iterative solver
           190 MiB given to the printing process from OS
             0 MiB allocation reported by mallinfo(arena+hblkhd)
         57109 MiB available memory on the node where the printing process lives
------------------
     ethr =  1.01E-04,  avg # of iterations =  2.0

     total cpu time spent up to now is      417.5 secs

     total energy              =    -885.10541279 Ry
     estimated scf accuracy    <       0.01763813 Ry

     iteration # 14     ecut=    80.00 Ry     beta= 0.30
     Davidson diagonalization with overlap

---- Real-time Memory Report at c_bands before calling an iterative solver
           190 MiB given to the printing process from OS
             0 MiB allocation reported by mallinfo(arena+hblkhd)
         57509 MiB available memory on the node where the printing process lives
------------------
     ethr =  4.41E-05,  avg # of iterations =  6.5

     total cpu time spent up to now is      485.7 secs

     total energy              =    -885.11302969 Ry
     estimated scf accuracy    <       0.01282731 Ry

     iteration # 15     ecut=    80.00 Ry     beta= 0.30
     Davidson diagonalization with overlap

---- Real-time Memory Report at c_bands before calling an iterative solver
           190 MiB given to the printing process from OS
             0 MiB allocation reported by mallinfo(arena+hblkhd)
         57321 MiB available memory on the node where the printing process lives
------------------
     ethr =  3.21E-05,  avg # of iterations =  1.6

     total cpu time spent up to now is      510.7 secs

     total energy              =    -885.11325786 Ry
     estimated scf accuracy    <       0.01649689 Ry

     iteration # 16     ecut=    80.00 Ry     beta= 0.30
     Davidson diagonalization with overlap

---- Real-time Memory Report at c_bands before calling an iterative solver
           190 MiB given to the printing process from OS
             0 MiB allocation reported by mallinfo(arena+hblkhd)
         57397 MiB available memory on the node where the printing process lives
------------------
     ethr =  3.21E-05,  avg # of iterations =  1.1

     total cpu time spent up to now is      532.1 secs

     total energy              =    -885.11356440 Ry
     estimated scf accuracy    <       0.01918374 Ry

     iteration # 17     ecut=    80.00 Ry     beta= 0.30
     Davidson diagonalization with overlap

---- Real-time Memory Report at c_bands before calling an iterative solver
           190 MiB given to the printing process from OS
             0 MiB allocation reported by mallinfo(arena+hblkhd)
         57452 MiB available memory on the node where the printing process lives
------------------
     ethr =  3.21E-05,  avg # of iterations =  1.1

     total cpu time spent up to now is      554.8 secs

     total energy              =    -885.11332100 Ry
     estimated scf accuracy    <       0.02313937 Ry

     iteration # 18     ecut=    80.00 Ry     beta= 0.30
     Davidson diagonalization with overlap

---- Real-time Memory Report at c_bands before calling an iterative solver
           190 MiB given to the printing process from OS
             0 MiB allocation reported by mallinfo(arena+hblkhd)
         57412 MiB available memory on the node where the printing process lives
------------------
     ethr =  3.21E-05,  avg # of iterations =  1.1

     total cpu time spent up to now is      575.7 secs

     total energy              =    -885.11181814 Ry
     estimated scf accuracy    <       0.01667804 Ry

     iteration # 19     ecut=    80.00 Ry     beta= 0.30
     Davidson diagonalization with overlap

---- Real-time Memory Report at c_bands before calling an iterative solver
           190 MiB given to the printing process from OS
             0 MiB allocation reported by mallinfo(arena+hblkhd)
         57327 MiB available memory on the node where the printing process lives
------------------
     ethr =  3.21E-05,  avg # of iterations =  1.0

     total cpu time spent up to now is      595.8 secs

     total energy              =    -885.11254869 Ry
     estimated scf accuracy    <       0.00565232 Ry

     iteration # 20     ecut=    80.00 Ry     beta= 0.30
     Davidson diagonalization with overlap

---- Real-time Memory Report at c_bands before calling an iterative solver
           190 MiB given to the printing process from OS
             0 MiB allocation reported by mallinfo(arena+hblkhd)
         57467 MiB available memory on the node where the printing process lives
------------------
     ethr =  1.41E-05,  avg # of iterations =  1.9

     total cpu time spent up to now is      624.3 secs

     total energy              =    -885.11276704 Ry
     estimated scf accuracy    <       0.00025301 Ry

     iteration # 21     ecut=    80.00 Ry     beta= 0.30
     Davidson diagonalization with overlap

---- Real-time Memory Report at c_bands before calling an iterative solver
           190 MiB given to the printing process from OS
             0 MiB allocation reported by mallinfo(arena+hblkhd)
         57368 MiB available memory on the node where the printing process lives
------------------
     c_bands:  2 eigenvalues not converged
     ethr =  6.33E-07,  avg # of iterations =  9.7

     total cpu time spent up to now is      721.2 secs

     total energy              =    -885.11295285 Ry
     estimated scf accuracy    <       0.00151498 Ry

     iteration # 22     ecut=    80.00 Ry     beta= 0.30
     Davidson diagonalization with overlap

---- Real-time Memory Report at c_bands before calling an iterative solver
           190 MiB given to the printing process from OS
             0 MiB allocation reported by mallinfo(arena+hblkhd)
         57357 MiB available memory on the node where the printing process lives
------------------
     ethr =  6.33E-07,  avg # of iterations =  2.4

     total cpu time spent up to now is      754.9 secs

     total energy              =    -885.11301171 Ry
     estimated scf accuracy    <       0.00045177 Ry

     iteration # 23     ecut=    80.00 Ry     beta= 0.30
     Davidson diagonalization with overlap

---- Real-time Memory Report at c_bands before calling an iterative solver
           190 MiB given to the printing process from OS
             0 MiB allocation reported by mallinfo(arena+hblkhd)
         57319 MiB available memory on the node where the printing process lives
------------------
     ethr =  6.33E-07,  avg # of iterations =  1.1

     total cpu time spent up to now is      775.8 secs

     total energy              =    -885.11305153 Ry
     estimated scf accuracy    <       0.00040588 Ry

     iteration # 24     ecut=    80.00 Ry     beta= 0.30
     Davidson diagonalization with overlap

---- Real-time Memory Report at c_bands before calling an iterative solver
           190 MiB given to the printing process from OS
             0 MiB allocation reported by mallinfo(arena+hblkhd)
         57376 MiB available memory on the node where the printing process lives
------------------
     ethr =  6.33E-07,  avg # of iterations =  1.0

     total cpu time spent up to now is      796.5 secs

     total energy              =    -885.11305042 Ry
     estimated scf accuracy    <       0.00044260 Ry

     iteration # 25     ecut=    80.00 Ry     beta= 0.30
     Davidson diagonalization with overlap

---- Real-time Memory Report at c_bands before calling an iterative solver
           190 MiB given to the printing process from OS
             0 MiB allocation reported by mallinfo(arena+hblkhd)
         57395 MiB available memory on the node where the printing process lives
------------------
     ethr =  6.33E-07,  avg # of iterations =  1.0

     total cpu time spent up to now is      816.3 secs

     total energy              =    -885.11304689 Ry
     estimated scf accuracy    <       0.00026949 Ry

     iteration # 26     ecut=    80.00 Ry     beta= 0.30
     Davidson diagonalization with overlap

---- Real-time Memory Report at c_bands before calling an iterative solver
           190 MiB given to the printing process from OS
             0 MiB allocation reported by mallinfo(arena+hblkhd)
         57372 MiB available memory on the node where the printing process lives
------------------
     ethr =  6.33E-07,  avg # of iterations =  1.0

     total cpu time spent up to now is      836.4 secs

     total energy              =    -885.11304689 Ry
     estimated scf accuracy    <       0.00008973 Ry

     iteration # 27     ecut=    80.00 Ry     beta= 0.30
     Davidson diagonalization with overlap

---- Real-time Memory Report at c_bands before calling an iterative solver
           190 MiB given to the printing process from OS
             0 MiB allocation reported by mallinfo(arena+hblkhd)
         57332 MiB available memory on the node where the printing process lives
------------------
     ethr =  2.24E-07,  avg # of iterations =  1.3

     total cpu time spent up to now is      859.3 secs

     total energy              =    -885.11304650 Ry
     estimated scf accuracy    <       0.00002418 Ry

     iteration # 28     ecut=    80.00 Ry     beta= 0.30
     Davidson diagonalization with overlap

---- Real-time Memory Report at c_bands before calling an iterative solver
           190 MiB given to the printing process from OS
             0 MiB allocation reported by mallinfo(arena+hblkhd)
         57413 MiB available memory on the node where the printing process lives
------------------
     ethr =  6.05E-08,  avg # of iterations =  3.6

     total cpu time spent up to now is      903.0 secs

     total energy              =    -885.11304994 Ry
     estimated scf accuracy    <       0.00000048 Ry

     iteration # 29     ecut=    80.00 Ry     beta= 0.30
     Davidson diagonalization with overlap

---- Real-time Memory Report at c_bands before calling an iterative solver
           190 MiB given to the printing process from OS
             0 MiB allocation reported by mallinfo(arena+hblkhd)
         57107 MiB available memory on the node where the printing process lives
------------------
     c_bands:  3 eigenvalues not converged
     c_bands:  2 eigenvalues not converged
     c_bands:  2 eigenvalues not converged
     c_bands:  2 eigenvalues not converged
     c_bands:  4 eigenvalues not converged
     ethr =  1.21E-09,  avg # of iterations = 12.8

     total cpu time spent up to now is     1024.5 secs

     total energy              =    -885.11305260 Ry
     estimated scf accuracy    <       0.00000895 Ry

     iteration # 30     ecut=    80.00 Ry     beta= 0.30
     Davidson diagonalization with overlap

---- Real-time Memory Report at c_bands before calling an iterative solver
           190 MiB given to the printing process from OS
             0 MiB allocation reported by mallinfo(arena+hblkhd)
         57239 MiB available memory on the node where the printing process lives
------------------
     c_bands:  4 eigenvalues not converged
     ethr =  1.21E-09,  avg # of iterations =  4.7

     total cpu time spent up to now is     1079.6 secs

     total energy              =    -885.11311995 Ry
     estimated scf accuracy    <       0.00005868 Ry

     iteration # 31     ecut=    80.00 Ry     beta= 0.30
     Davidson diagonalization with overlap

---- Real-time Memory Report at c_bands before calling an iterative solver
           190 MiB given to the printing process from OS
             0 MiB allocation reported by mallinfo(arena+hblkhd)
         57160 MiB available memory on the node where the printing process lives
------------------
     c_bands:  4 eigenvalues not converged
     ethr =  1.21E-09,  avg # of iterations =  1.9

     total cpu time spent up to now is     1107.4 secs

     total energy              =    -885.11313964 Ry
     estimated scf accuracy    <       0.00007763 Ry

     iteration # 32     ecut=    80.00 Ry     beta= 0.30
     Davidson diagonalization with overlap

---- Real-time Memory Report at c_bands before calling an iterative solver
           190 MiB given to the printing process from OS
             0 MiB allocation reported by mallinfo(arena+hblkhd)
         57228 MiB available memory on the node where the printing process lives
------------------
     ethr =  1.21E-09,  avg # of iterations =  1.7

     total cpu time spent up to now is     1133.7 secs

     total energy              =    -885.11313822 Ry
     estimated scf accuracy    <       0.00008363 Ry

     iteration # 33     ecut=    80.00 Ry     beta= 0.30
     Davidson diagonalization with overlap

---- Real-time Memory Report at c_bands before calling an iterative solver
           190 MiB given to the printing process from OS
             0 MiB allocation reported by mallinfo(arena+hblkhd)
         57448 MiB available memory on the node where the printing process lives
------------------
     ethr =  1.21E-09,  avg # of iterations =  2.0

     total cpu time spent up to now is     1162.1 secs

     total energy              =    -885.11313816 Ry
     estimated scf accuracy    <       0.00007747 Ry

     iteration # 34     ecut=    80.00 Ry     beta= 0.30
     Davidson diagonalization with overlap

---- Real-time Memory Report at c_bands before calling an iterative solver
           190 MiB given to the printing process from OS
             0 MiB allocation reported by mallinfo(arena+hblkhd)
         57446 MiB available memory on the node where the printing process lives
------------------
     ethr =  1.21E-09,  avg # of iterations =  1.0

     total cpu time spent up to now is     1182.4 secs

     total energy              =    -885.11313776 Ry
     estimated scf accuracy    <       0.00007901 Ry

     iteration # 35     ecut=    80.00 Ry     beta= 0.30
     Davidson diagonalization with overlap

---- Real-time Memory Report at c_bands before calling an iterative solver
           190 MiB given to the printing process from OS
             0 MiB allocation reported by mallinfo(arena+hblkhd)
         57453 MiB available memory on the node where the printing process lives
------------------
     ethr =  1.21E-09,  avg # of iterations =  1.1

     total cpu time spent up to now is     1204.9 secs

     total energy              =    -885.11313782 Ry
     estimated scf accuracy    <       0.00007944 Ry

     iteration # 36     ecut=    80.00 Ry     beta= 0.30
     Davidson diagonalization with overlap

---- Real-time Memory Report at c_bands before calling an iterative solver
           190 MiB given to the printing process from OS
             0 MiB allocation reported by mallinfo(arena+hblkhd)
         57082 MiB available memory on the node where the printing process lives
------------------
     ethr =  1.21E-09,  avg # of iterations =  1.2

     total cpu time spent up to now is     1226.7 secs

     total energy              =    -885.11313867 Ry
     estimated scf accuracy    <       0.00008021 Ry

     iteration # 37     ecut=    80.00 Ry     beta= 0.30
     Davidson diagonalization with overlap

---- Real-time Memory Report at c_bands before calling an iterative solver
           190 MiB given to the printing process from OS
             0 MiB allocation reported by mallinfo(arena+hblkhd)
         57497 MiB available memory on the node where the printing process lives
------------------
     ethr =  1.21E-09,  avg # of iterations =  1.2

     total cpu time spent up to now is     1248.8 secs

     total energy              =    -885.11313757 Ry
     estimated scf accuracy    <       0.00008977 Ry

     iteration # 38     ecut=    80.00 Ry     beta= 0.30
     Davidson diagonalization with overlap

---- Real-time Memory Report at c_bands before calling an iterative solver
           190 MiB given to the printing process from OS
             0 MiB allocation reported by mallinfo(arena+hblkhd)
         57409 MiB available memory on the node where the printing process lives
------------------
     ethr =  1.21E-09,  avg # of iterations =  2.3

     total cpu time spent up to now is     1279.8 secs

     total energy              =    -885.11312226 Ry
     estimated scf accuracy    <       0.00006142 Ry

     iteration # 39     ecut=    80.00 Ry     beta= 0.30
     Davidson diagonalization with overlap

---- Real-time Memory Report at c_bands before calling an iterative solver
           190 MiB given to the printing process from OS
             0 MiB allocation reported by mallinfo(arena+hblkhd)
         57186 MiB available memory on the node where the printing process lives
------------------
     c_bands:  1 eigenvalues not converged
     c_bands:  1 eigenvalues not converged
     c_bands:  1 eigenvalues not converged
     c_bands:  1 eigenvalues not converged
     ethr =  1.21E-09,  avg # of iterations = 10.9

     total cpu time spent up to now is     1388.7 secs

     total energy              =    -885.11313763 Ry
     estimated scf accuracy    <       0.00001892 Ry

     iteration # 40     ecut=    80.00 Ry     beta= 0.30
     Davidson diagonalization with overlap

---- Real-time Memory Report at c_bands before calling an iterative solver
           190 MiB given to the printing process from OS
             0 MiB allocation reported by mallinfo(arena+hblkhd)
         57588 MiB available memory on the node where the printing process lives
------------------
     ethr =  1.21E-09,  avg # of iterations =  6.9

     total cpu time spent up to now is     1461.6 secs

     total energy              =    -885.11314126 Ry
     estimated scf accuracy    <       0.00000165 Ry

     iteration # 41     ecut=    80.00 Ry     beta= 0.30
     Davidson diagonalization with overlap

---- Real-time Memory Report at c_bands before calling an iterative solver
           190 MiB given to the printing process from OS
             0 MiB allocation reported by mallinfo(arena+hblkhd)
         57216 MiB available memory on the node where the printing process lives
------------------
     ethr =  1.21E-09,  avg # of iterations =  2.3

     total cpu time spent up to now is     1492.7 secs

     total energy              =    -885.11314161 Ry
     estimated scf accuracy    <       0.00000050 Ry

     iteration # 42     ecut=    80.00 Ry     beta= 0.30
     Davidson diagonalization with overlap

---- Real-time Memory Report at c_bands before calling an iterative solver
           190 MiB given to the printing process from OS
             0 MiB allocation reported by mallinfo(arena+hblkhd)
         57498 MiB available memory on the node where the printing process lives
------------------
     ethr =  1.21E-09,  avg # of iterations =  1.5

     total cpu time spent up to now is     1517.6 secs

     total energy              =    -885.11314168 Ry
     estimated scf accuracy    <       0.00000014 Ry

     iteration # 43     ecut=    80.00 Ry     beta= 0.30
     Davidson diagonalization with overlap

---- Real-time Memory Report at c_bands before calling an iterative solver
           190 MiB given to the printing process from OS
             0 MiB allocation reported by mallinfo(arena+hblkhd)
         57251 MiB available memory on the node where the printing process lives
------------------
     ethr =  3.45E-10,  avg # of iterations =  4.6

     total cpu time spent up to now is     1571.1 secs

     total energy              =    -885.11314170 Ry
     estimated scf accuracy    <       0.00000009 Ry

     iteration # 44     ecut=    80.00 Ry     beta= 0.30
     Davidson diagonalization with overlap

---- Real-time Memory Report at c_bands before calling an iterative solver
           190 MiB given to the printing process from OS
             0 MiB allocation reported by mallinfo(arena+hblkhd)
         57501 MiB available memory on the node where the printing process lives
------------------
     ethr =  2.21E-10,  avg # of iterations =  3.1

     total cpu time spent up to now is     1610.3 secs

     total energy              =    -885.11314172 Ry
     estimated scf accuracy    <       0.00000005 Ry

     iteration # 45     ecut=    80.00 Ry     beta= 0.30
     Davidson diagonalization with overlap

---- Real-time Memory Report at c_bands before calling an iterative solver
           190 MiB given to the printing process from OS
             0 MiB allocation reported by mallinfo(arena+hblkhd)
         57433 MiB available memory on the node where the printing process lives
------------------
     ethr =  1.36E-10,  avg # of iterations =  1.9

     total cpu time spent up to now is     1639.0 secs

     total energy              =    -885.11314172 Ry
     estimated scf accuracy    <          1.3E-09 Ry

     iteration # 46     ecut=    80.00 Ry     beta= 0.30
     Davidson diagonalization with overlap

---- Real-time Memory Report at c_bands before calling an iterative solver
           190 MiB given to the printing process from OS
             0 MiB allocation reported by mallinfo(arena+hblkhd)
         57289 MiB available memory on the node where the printing process lives
------------------
     c_bands:  1 eigenvalues not converged
     c_bands:  1 eigenvalues not converged
     c_bands:  1 eigenvalues not converged
     c_bands:  3 eigenvalues not converged
     ethr =  3.13E-12,  avg # of iterations = 13.8

     total cpu time spent up to now is     1776.2 secs

     total energy              =    -885.11314173 Ry
     estimated scf accuracy    <          9.0E-10 Ry

     iteration # 47     ecut=    80.00 Ry     beta= 0.30
     Davidson diagonalization with overlap

---- Real-time Memory Report at c_bands before calling an iterative solver
           190 MiB given to the printing process from OS
             0 MiB allocation reported by mallinfo(arena+hblkhd)
         57268 MiB available memory on the node where the printing process lives
------------------
     ethr =  2.26E-12,  avg # of iterations =  2.0

     total cpu time spent up to now is     1806.4 secs

     total energy              =    -885.11314173 Ry
     estimated scf accuracy    <          7.9E-10 Ry

     iteration # 48     ecut=    80.00 Ry     beta= 0.30
     Davidson diagonalization with overlap

---- Real-time Memory Report at c_bands before calling an iterative solver
           190 MiB given to the printing process from OS
             0 MiB allocation reported by mallinfo(arena+hblkhd)
         57270 MiB available memory on the node where the printing process lives
------------------
     ethr =  1.97E-12,  avg # of iterations =  3.7

     total cpu time spent up to now is     1851.5 secs

     total energy              =    -885.11314173 Ry
     estimated scf accuracy    <          1.2E-10 Ry

     iteration # 49     ecut=    80.00 Ry     beta= 0.30
     Davidson diagonalization with overlap

---- Real-time Memory Report at c_bands before calling an iterative solver
           190 MiB given to the printing process from OS
             0 MiB allocation reported by mallinfo(arena+hblkhd)
         57381 MiB available memory on the node where the printing process lives
------------------
     ethr =  2.99E-13,  avg # of iterations =  6.4

     total cpu time spent up to now is     1919.1 secs

     total energy              =    -885.11314173 Ry
     estimated scf accuracy    <          1.7E-10 Ry

     iteration # 50     ecut=    80.00 Ry     beta= 0.30
     Davidson diagonalization with overlap

---- Real-time Memory Report at c_bands before calling an iterative solver
           190 MiB given to the printing process from OS
             0 MiB allocation reported by mallinfo(arena+hblkhd)
         57274 MiB available memory on the node where the printing process lives
------------------
     ethr =  2.99E-13,  avg # of iterations =  1.8

     total cpu time spent up to now is     1945.7 secs

     End of self-consistent calculation

          k = 0.0000 0.0000 0.0000 ( 11995 PWs)   bands (ev):

   -53.7524 -33.6448 -29.9827 -29.9807 -29.9803 -14.8710 -14.8707 -14.8697
    -7.5909  -6.6765  -6.6743   2.2159   2.2256   2.2359   4.0471   4.0719
     4.0938   4.6033   4.6048   4.6871   4.6891   4.6899   4.9723   4.9907

     occupation numbers 
     1.0000   1.0000   1.0000   1.0000   1.0000   1.0000   1.0000   1.0000
     1.0000   1.0000   1.0000   1.0000   1.0000   1.0000   1.0000   1.0000
     1.0000   1.0000   1.0000   0.8279   0.8000   0.7886   0.0000   0.0000

          k = 0.0000 0.0000 0.2500 ( 12002 PWs)   bands (ev):

   -53.7524 -33.6447 -29.9827 -29.9808 -29.9803 -14.8971 -14.8702 -14.8691
    -7.4474  -6.6793  -6.6655   2.0719   2.3498   2.3746   3.5452   3.6023
     3.6113   3.6974   4.6833   4.6973   4.7036   4.7488   5.0530   5.0850

     occupation numbers 
     1.0000   1.0000   1.0000   1.0000   1.0000   1.0000   1.0000   1.0000
     1.0000   1.0000   1.0000   1.0000   1.0000   1.0000   1.0000   1.0000
     1.0000   1.0000   0.8740   0.6603   0.5345   0.0118   0.0000   0.0000

          k = 0.0000 0.0000-0.5000 ( 12036 PWs)   bands (ev):

   -53.7524 -33.6446 -29.9827 -29.9809 -29.9803 -14.9229 -14.8697 -14.8686
    -7.2892  -6.6935  -6.6567   2.2497   2.5906   2.5939   2.6399   3.1268
     3.1570   3.2432   4.5144   4.5832   4.7173   4.7649   5.2749   5.3620

     occupation numbers 
     1.0000   1.0000   1.0000   1.0000   1.0000   1.0000   1.0000   1.0000
     1.0000   1.0000   1.0000   1.0000   1.0000   1.0000   1.0000   1.0000
     1.0000   1.0000   1.0000   1.0000   0.2666   0.0010   0.0000   0.0000

          k = 0.0013 0.2500 0.0000 ( 11981 PWs)   bands (ev):

   -53.7524 -33.6447 -29.9827 -29.9807 -29.9804 -14.8964 -14.8704 -14.8697
    -7.4478  -6.6774  -6.6672   2.0723   2.3620   2.3621   3.5420   3.6069
     3.6079   3.7028   4.6820   4.6990   4.7240   4.7250   5.0529   5.0984

     occupation numbers 
     1.0000   1.0000   1.0000   1.0000   1.0000   1.0000   1.0000   1.0000
     1.0000   1.0000   1.0000   1.0000   1.0000   1.0000   1.0000   1.0000
     1.0000   1.0000   0.8867   0.6288   0.1651   0.1527   0.0000   0.0000

          k = 0.0013 0.2500 0.2500 ( 11996 PWs)   bands (ev):

   -53.7524 -33.6446 -29.9827 -29.9808 -29.9804 -14.8966 -14.8957 -14.8691
    -7.3009  -6.6690  -6.6639   1.7423   2.4926   2.6307   2.6990   3.3798
     3.4966   3.9815   4.4225   4.4374   4.7332   4.9186   5.0061   5.0845

     occupation numbers 
     1.0000   1.0000   1.0000   1.0000   1.0000   1.0000   1.0000   1.0000
     1.0000   1.0000   1.0000   1.0000   1.0000   1.0000   1.0000   1.0000
     1.0000   1.0000   1.0000   1.0000   0.0736   0.0000   0.0000   0.0000

          k = 0.0013 0.2500-0.5000 ( 12018 PWs)   bands (ev):

   -53.7524 -33.6444 -29.9827 -29.9808 -29.9803 -14.9222 -14.8952 -14.8686
    -7.1395  -6.6772  -6.6543   1.6479   2.1621   2.7500   2.9084   2.9544
     3.0530   3.9791   4.1778   4.2594   4.8414   4.9675   4.9969   5.2425

     occupation numbers 
     1.0000   1.0000   1.0000   1.0000   1.0000   1.0000   1.0000   1.0000
     1.0000   1.0000   1.0000   1.0000   1.0000   1.0000   1.0000   1.0000
     1.0000   1.0000   1.0000   1.0000   0.0000   0.0000   0.0000   0.0000

          k =-0.0025-0.5000 0.0000 ( 12020 PWs)   bands (ev):

   -53.7524 -33.6446 -29.9827 -29.9807 -29.9804 -14.9221 -14.8699 -14.8691
    -7.2903  -6.6909  -6.6584   2.2484   2.5971   2.6144   2.6154   3.1434
     3.1437   3.2425   4.5460   4.5484   4.7179   4.7636   5.2746   5.3737

     occupation numbers 
     1.0000   1.0000   1.0000   1.0000   1.0000   1.0000   1.0000   1.0000
     1.0000   1.0000   1.0000   1.0000   1.0000   1.0000   1.0000   1.0000
     1.0000   1.0000   1.0000   1.0000   0.2563   0.0012   0.0000   0.0000

          k =-0.0025-0.5000 0.2500 ( 12010 PWs)   bands (ev):

   -53.7524 -33.6444 -29.9827 -29.9808 -29.9804 -14.9214 -14.8959 -14.8686
    -7.1402  -6.6746  -6.6563   1.6478   2.1627   2.7505   2.9074   2.9551
     3.0550   3.9801   4.1723   4.2619   4.8402   4.9672   4.9969   5.2406

     occupation numbers 
     1.0000   1.0000   1.0000   1.0000   1.0000   1.0000   1.0000   1.0000
     1.0000   1.0000   1.0000   1.0000   1.0000   1.0000   1.0000   1.0000
     1.0000   1.0000   1.0000   1.0000   0.0000   0.0000   0.0000   0.0000

          k =-0.0025-0.5000-0.5000 ( 12016 PWs)   bands (ev):

   -53.7524 -33.6443 -29.9827 -29.9808 -29.9804 -14.9215 -14.9207 -14.8681
    -6.9775  -6.6607  -6.6581   1.2546   1.8899   2.9786   2.9805   3.1176
     3.1178   3.3644   3.7265   4.5365   4.7812   4.8151   5.2354   5.2361

     occupation numbers 
     1.0000   1.0000   1.0000   1.0000   1.0000   1.0000   1.0000   1.0000
     1.0000   1.0000   1.0000   1.0000   1.0000   1.0000   1.0000   1.0000
     1.0000   1.0000   1.0000   1.0000   0.0000   0.0000   0.0000   0.0000

          k = 0.2513 0.2513 0.0000 ( 11986 PWs)   bands (ev):

   -53.7524 -33.6446 -29.9827 -29.9807 -29.9804 -14.8964 -14.8951 -14.8699
    -7.2990  -6.6731  -6.6625   1.7497   2.4970   2.6373   2.7051   3.3739
     3.4854   3.9821   4.3955   4.4407   4.7377   4.9175   5.0003   5.0821

     occupation numbers 
     1.0000   1.0000   1.0000   1.0000   1.0000   1.0000   1.0000   1.0000
     1.0000   1.0000   1.0000   1.0000   1.0000   1.0000   1.0000   1.0000
     1.0000   1.0000   1.0000   1.0000   0.0461   0.0000   0.0000   0.0000

          k = 0.2513 0.2513 0.2500 ( 12010 PWs)   bands (ev):

   -53.7524 -33.6444 -29.9827 -29.9808 -29.9804 -14.8960 -14.8958 -14.8945
    -7.1465  -6.6633  -6.6577   1.5978   2.3259   2.3411   2.7130   3.1595
     3.1668   4.3255   4.3408   4.5651   4.7442   4.7470   4.7910   5.3249

     occupation numbers 
     1.0000   1.0000   1.0000   1.0000   1.0000   1.0000   1.0000   1.0000
     1.0000   1.0000   1.0000   1.0000   1.0000   1.0000   1.0000   1.0000
     1.0000   1.0000   1.0000   1.0000   0.0215   0.0151   0.0000   0.0000

          k = 0.2513 0.2513-0.5000 ( 12008 PWs)   bands (ev):

   -53.7524 -33.6443 -29.9827 -29.9808 -29.9804 -14.9216 -14.8952 -14.8939
    -6.9776  -6.6633  -6.6534   1.6559   1.8336   2.0435   2.4435   3.1894
     3.5338   4.0022   4.2853   4.4693   4.7750   4.9153   5.1354   5.2444

     occupation numbers 
     1.0000   1.0000   1.0000   1.0000   1.0000   1.0000   1.0000   1.0000
     1.0000   1.0000   1.0000   1.0000   1.0000   1.0000   1.0000   1.0000
     1.0000   1.0000   1.0000   1.0000   0.0001   0.0000   0.0000   0.0000

          k = 0.2475-0.4988 0.0000 ( 12015 PWs)   bands (ev):

   -53.7524 -33.6444 -29.9828 -29.9807 -29.9804 -14.9214 -14.8951 -14.8694
    -7.1411  -6.6765  -6.6535   1.6485   2.1632   2.7509   2.9046   2.9559
     3.0549   3.9808   4.1725   4.2609   4.8414   4.9672   4.9973   5.2430

     occupation numbers 
     1.0000   1.0000   1.0000   1.0000   1.0000   1.0000   1.0000   1.0000
     1.0000   1.0000   1.0000   1.0000   1.0000   1.0000   1.0000   1.0000
     1.0000   1.0000   1.0000   1.0000   0.0000   0.0000   0.0000   0.0000

          k = 0.2475-0.4988 0.2500 ( 11991 PWs)   bands (ev):

   -53.7524 -33.6443 -29.9828 -29.9808 -29.9804 -14.9208 -14.8954 -14.8945
    -6.9837  -6.6630  -6.6469   1.6604   1.8271   2.0461   2.4273   3.1875
     3.5318   4.0194   4.3154   4.4574   4.7705   4.9123   5.1415   5.2340

     occupation numbers 
     1.0000   1.0000   1.0000   1.0000   1.0000   1.0000   1.0000   1.0000
     1.0000   1.0000   1.0000   1.0000   1.0000   1.0000   1.0000   1.0000
     1.0000   1.0000   1.0000   1.0000   0.0004   0.0000   0.0000   0.0000

          k = 0.2475-0.4988-0.5000 ( 12006 PWs)   bands (ev):

   -53.7524 -33.6441 -29.9828 -29.9808 -29.9804 -14.9209 -14.9201 -14.8939
    -6.8119  -6.6498  -6.6468   1.4187   1.5844   2.0108   2.0115   3.3758
     3.4944   4.2169   4.2185   4.6408   4.7956   4.7967   5.2347   5.2355

     occupation numbers 
     1.0000   1.0000   1.0000   1.0000   1.0000   1.0000   1.0000   1.0000
     1.0000   1.0000   1.0000   1.0000   1.0000   1.0000   1.0000   1.0000
     1.0000   1.0000   1.0000   0.9996   0.0000   0.0000   0.0000   0.0000

          k = 0.2488-0.2488 0.0000 ( 12018 PWs)   bands (ev):

   -53.7524 -33.6446 -29.9827 -29.9807 -29.9804 -14.8968 -14.8947 -14.8699
    -7.3040  -6.6677  -6.6615   1.7355   2.4891   2.6241   2.6932   3.3911
     3.5037   3.9811   4.4278   4.4509   4.7303   4.9193   5.0131   5.0872

     occupation numbers 
     1.0000   1.0000   1.0000   1.0000   1.0000   1.0000   1.0000   1.0000
     1.0000   1.0000   1.0000   1.0000   1.0000   1.0000   1.0000   1.0000
     1.0000   1.0000   1.0000   1.0000   0.0964   0.0000   0.0000   0.0000

          k = 0.2488-0.2488 0.2500 ( 11985 PWs)   bands (ev):

   -53.7524 -33.6444 -29.9827 -29.9808 -29.9804 -14.8963 -14.8958 -14.8942
    -7.1530  -6.6613  -6.6517   1.5956   2.3114   2.3254   2.7039   3.1686
     3.1728   4.3543   4.3688   4.5819   4.7410   4.7419   4.7864   5.3199

     occupation numbers 
     1.0000   1.0000   1.0000   1.0000   1.0000   1.0000   1.0000   1.0000
     1.0000   1.0000   1.0000   1.0000   1.0000   1.0000   1.0000   1.0000
     1.0000   1.0000   1.0000   1.0000   0.0318   0.0287   0.0000   0.0000

          k = 0.2488-0.2488-0.5000 ( 11996 PWs)   bands (ev):

   -53.7524 -33.6443 -29.9827 -29.9808 -29.9804 -14.9216 -14.8956 -14.8936
    -6.9873  -6.6638  -6.6418   1.6643   1.8199   2.0482   2.4109   3.1888
     3.5291   4.0350   4.3491   4.4420   4.7679   4.9087   5.1457   5.2243

     occupation numbers 
     1.0000   1.0000   1.0000   1.0000   1.0000   1.0000   1.0000   1.0000
     1.0000   1.0000   1.0000   1.0000   1.0000   1.0000   1.0000   1.0000
     1.0000   1.0000   1.0000   1.0000   0.0006   0.0000   0.0000   0.0000

          k =-0.5025-0.5025 0.0000 ( 12016 PWs)   bands (ev):

   -53.7524 -33.6443 -29.9828 -29.9807 -29.9805 -14.9219 -14.9196 -14.8688
    -6.9802  -6.6693  -6.6468   1.2551   1.8912   2.9666   2.9940   3.1061
     3.1262   3.3658   3.7234   4.5364   4.7816   4.8165   5.2319   5.2402

     occupation numbers 
     1.0000   1.0000   1.0000   1.0000   1.0000   1.0000   1.0000   1.0000
     1.0000   1.0000   1.0000   1.0000   1.0000   1.0000   1.0000   1.0000
     1.0000   1.0000   1.0000   1.0000   0.0000   0.0000   0.0000   0.0000

          k =-0.5025-0.5025 0.2500 ( 12010 PWs)   bands (ev):

   -53.7524 -33.6441 -29.9828 -29.9808 -29.9805 -14.9212 -14.9190 -14.8948
    -6.8143  -6.6583  -6.6359   1.4188   1.5853   2.0052   2.0166   3.3773
     3.4922   4.2152   4.2188   4.6402   4.7919   4.8021   5.2333   5.2368

     occupation numbers 
     1.0000   1.0000   1.0000   1.0000   1.0000   1.0000   1.0000   1.0000
     1.0000   1.0000   1.0000   1.0000   1.0000   1.0000   1.0000   1.0000
     1.0000   1.0000   1.0000   0.9996   0.0000   0.0000   0.0000   0.0000

          k =-0.5025-0.5025-0.5000 ( 11988 PWs)   bands (ev):

   -53.7524 -33.6440 -29.9828 -29.9808 -29.9805 -14.9206 -14.9203 -14.9183
    -6.6473  -6.6387  -6.6249   1.2252   1.6096   1.6167   1.6228   3.3869
     3.3890   4.7460   4.7478   4.7491   4.8004   4.8024   5.1862   5.1952

     occupation numbers 
     1.0000   1.0000   1.0000   1.0000   1.0000   1.0000   1.0000   1.0000
     1.0000   1.0000   1.0000   1.0000   1.0000   1.0000   1.0000   1.0000
     1.0000   0.0171   0.0136   0.0114   0.0000   0.0000   0.0000   0.0000

     the Fermi energy is     4.7053 ev

!    total energy              =    -885.11314173 Ry
     total all-electron energy =    -17648.892439 Ry
     estimated scf accuracy    <          2.4E-11 Ry
     smearing contrib. (-TS)   =      -0.00047361 Ry
     internal energy E=F+TS    =    -885.11266812 Ry

     The total energy is F=E-TS. E is the sum of the following terms:
     one-electron contribution =    -106.61420903 Ry
     hartree contribution      =      65.56091921 Ry
     xc contribution           =     -49.77515810 Ry
     ewald contribution        =    -160.67218786 Ry
     one-center paw contrib.   =    -633.61203235 Ry
      -> PAW hartree energy AE =      48.04551306 Ry
      -> PAW hartree energy PS =     -47.82311309 Ry
      -> PAW xc energy AE      =     -71.56355581 Ry
      -> PAW xc energy PS      =      11.35443500 Ry
      -> total E_H with PAW    =      65.78331918 Ry
      -> total E_XC with PAW   =    -109.98427891 Ry

     convergence has been achieved in  50 iterations


     Computing stress (Cartesian axis) and pressure

          total   stress  (Ry/bohr**3)                   (kbar)     P=       -1.86
  -0.00001191  -0.00002032   0.00000000           -1.75       -2.99        0.00
  -0.00002032  -0.00001191   0.00000000           -2.99       -1.75        0.00
   0.00000000   0.00000000  -0.00001410            0.00        0.00       -2.07

     kinetic stress (kbar)   9056.94     -6.06      0.00
                               -6.06   9056.94      0.00
                                0.00      0.00   9056.25

     local   stress (kbar)  -3455.08    -24.02      0.00
                              -24.02  -3455.08      0.00
                                0.00      0.00  -3454.34

     nonloc. stress (kbar)   1205.80      0.21      0.00
                                0.21   1205.80      0.00
                                0.00      0.00   1205.77

     hartree stress (kbar)   3236.10     12.42     -0.00
                               12.42   3236.10     -0.00
                               -0.00     -0.00   3235.88

     exc-cor stress (kbar)   -161.97      0.02      0.00
                                0.02   -161.97     -0.00
                                0.00     -0.00   -161.97

     corecor stress (kbar)  -1952.97      0.22      0.00
                                0.22  -1952.97     -0.00
                                0.00     -0.00  -1952.94

     ewald   stress (kbar)  -7930.58     14.21     -0.00
                               14.21  -7930.58     -0.00
                               -0.00     -0.00  -7930.73

     hubbard stress (kbar)      0.00      0.00      0.00
                                0.00      0.00      0.00
                                0.00      0.00      0.00

     DFT-D   stress (kbar)      0.00      0.00      0.00
                                0.00      0.00      0.00
                                0.00      0.00      0.00

     XDM     stress (kbar)      0.00      0.00      0.00
                                0.00      0.00      0.00
                                0.00      0.00      0.00

     dft-nl  stress (kbar)      0.00      0.00      0.00
                                0.00      0.00      0.00
                                0.00      0.00      0.00

     TS-vdW  stress (kbar)      0.00      0.00      0.00
                                0.00      0.00      0.00
                                0.00      0.00      0.00

     MDB     stress (kbar)      0.00      0.00      0.00
                                0.00      0.00      0.00
                                0.00      0.00      0.00

     3D-RISM stress (kbar)      0.00      0.00      0.00
                                0.00      0.00      0.00
                                0.00      0.00      0.00


     Writing all to output data dir ./tmp_elastic_XYm/catis3_elastic_XYm.save/ :
     XML data file, charge density, pseudopotentials, collected wavefunctions

     init_run     :     11.27s CPU     11.56s WALL (       1 calls)
     electrons    :   1944.28s CPU   1933.75s WALL (       1 calls)
     stress       :     11.79s CPU      9.75s WALL (       1 calls)

     Called by init_run:
     wfcinit      :      9.42s CPU      9.56s WALL (       1 calls)
     wfcinit:atom :      0.04s CPU      0.03s WALL (      21 calls)
     wfcinit:wfcr :      9.14s CPU      9.30s WALL (      21 calls)
     potinit      :      0.49s CPU      0.51s WALL (       1 calls)
     hinit0       :      0.32s CPU      0.33s WALL (       1 calls)

     Called by electrons:
     c_bands      :   1786.44s CPU   1782.72s WALL (      50 calls)
     sum_band     :    101.41s CPU     90.65s WALL (      50 calls)
     v_of_rho     :      4.46s CPU      4.14s WALL (      51 calls)
     v_h          :      0.24s CPU      0.26s WALL (      51 calls)
     v_xc         :      4.29s CPU      3.94s WALL (      52 calls)
     newd         :     45.18s CPU     49.74s WALL (      51 calls)
     PAW_pot      :      5.91s CPU      5.96s WALL (      51 calls)
     mix_rho      :      1.25s CPU      1.10s WALL (      50 calls)

     Called by c_bands:
     init_us_2    :      6.16s CPU      4.81s WALL (    2142 calls)
     cegterg      :   1651.07s CPU   1653.02s WALL (    1051 calls)

     Called by sum_band:
     sum_band:wei :      0.06s CPU      0.05s WALL (      50 calls)
     sum_band:loo :     44.98s CPU     34.39s WALL (      50 calls)
     sum_band:buf :      0.45s CPU      0.34s WALL (    1050 calls)
     sum_band:ini :      3.20s CPU      2.28s WALL (    1050 calls)
     sum_band:cal :      3.63s CPU      2.29s WALL (    1050 calls)
     sum_band:bec :      0.06s CPU      0.05s WALL (    1050 calls)
     addusdens    :     45.14s CPU     46.14s WALL (      50 calls)
                                        0.00s GPU  (      50 calls)
     addusd:skk   :      0.08s CPU      0.35s WALL (     150 calls)
                                        0.00s GPU  (     150 calls)

     Called by *egterg:
     cdiaghg      :    117.49s CPU    108.40s WALL (    4265 calls)
     cegterg:over :    556.04s CPU    547.12s WALL (    3214 calls)
     cegterg:upda :     35.34s CPU     55.86s WALL (    3214 calls)
     cegterg:last :     31.97s CPU     49.05s WALL (    1848 calls)
     h_psi        :    335.69s CPU    342.79s WALL (    4286 calls)
     s_psi        :     16.50s CPU     21.20s WALL (    4286 calls)
     g_psi        :      1.01s CPU      0.70s WALL (    3214 calls)

     Called by h_psi:
     h_psi:calbec :    101.35s CPU    101.16s WALL (    4286 calls)
     vloc_psi     :    197.90s CPU    178.24s WALL (    4286 calls)
     add_vuspsi   :     35.88s CPU     62.77s WALL (    4286 calls)

     General routines
     calbec       :    105.53s CPU    103.81s WALL (    5357 calls)
     fft          :      2.93s CPU      2.89s WALL (     675 calls)
     ffts         :      0.43s CPU      0.41s WALL (     101 calls)
     fftw         :    212.76s CPU    187.51s WALL (  144164 calls)
     interpolate  :      0.48s CPU      0.50s WALL (      51 calls)

     Parallel routines

     PAW routines
     PAW_pot      :      5.91s CPU      5.96s WALL (      51 calls)
     PAW_symme    :      0.03s CPU      0.03s WALL (     101 calls)

     PWSCF        :  32m47.91s CPU  32m35.80s WALL


   This run was terminated on:  10:20:14  15Apr2025            

=------------------------------------------------------------------------------=
   JOB DONE.
=------------------------------------------------------------------------------=
