
     Program PWSCF v.7.3.1 starts on 15Apr2025 at 10:55:18 

     This program is part of the open-source Quantum ESPRESSO suite
     for quantum simulation of materials; please cite
         "P. Giannozzi et al., J. Phys.:Condens. Matter 21 395502 (2009);
         "P. Giannozzi et al., J. Phys.:Condens. Matter 29 465901 (2017);
         "P. Giannozzi et al., J. Chem. Phys. 152 154105 (2020);
          URL http://www.quantum-espresso.org", 
     in publications or presentations arising from this work. More details at
     http://www.quantum-espresso.org/quote

     Parallel version (MPI), running on     8 processors

     MPI processes distributed on     1 nodes
     58784 MiB available memory on the printing compute node when the environment starts

     Waiting for input...
     Reading input from standard input

     Current dimensions of program PWSCF are:
     Max number of different atomic species (ntypx) = 10
     Max number of k-points (npk) =  40000
     Max angular momentum in pseudopotentials (lmaxx) =  4
     file Ca.pbe-spn-kjpaw_psl.1.0.0.UPF: wavefunction(s)  3S renormalized
     file Ti.pbe-spn-kjpaw_psl.1.0.0.UPF: wavefunction(s)  3S 3P 3D renormalized
     file Se.pbe-n-kjpaw_psl.1.0.0.UPF: wavefunction(s)  4S renormalized

     IMPORTANT: XC functional enforced from input :
     Exchange-correlation= PBE
                           (   1   4   3   4   0   0   0)
     Any further DFT definition will be discarded
     Please, verify this is what you really want

     Message from routine setup:
     using ibrav=0 with symmetry is DISCOURAGED, use correct ibrav instead

     R & G space division:  proc/nbgrp/npool/nimage =       8
     Subspace diagonalization in iterative solution of the eigenvalue problem:
     a serial algorithm will be used


     Parallelization info
     --------------------
     sticks:   dense  smooth     PW     G-vecs:    dense   smooth      PW
     Min         633     317     89                33942    12012    1787
     Max         634     318     90                33944    12017    1789
     Sum        5065    2537    717               271541    96107   14307

     Using Slab Decomposition



     bravais-lattice index     =            0
     lattice parameter (alat)  =       9.9783  a.u.
     unit-cell volume          =     993.4351 (a.u.)^3
     number of atoms/cell      =            5
     number of atomic types    =            3
     number of electrons       =        40.00
     number of Kohn-Sham states=           24
     kinetic-energy cutoff     =      80.0000  Ry
     charge density cutoff     =     640.0000  Ry
     scf convergence threshold =      1.0E-10
     mixing beta               =       0.3000
     number of iterations used =            8  plain     mixing
     Exchange-correlation= PBE
                           (   1   4   3   4   0   0   0)

     celldm(1)=   9.978277  celldm(2)=   0.000000  celldm(3)=   0.000000
     celldm(4)=   0.000000  celldm(5)=   0.000000  celldm(6)=   0.000000

     crystal axes: (cart. coord. in units of alat)
               a(1) = (   0.999988   0.000000  -0.005000 )  
               a(2) = (   0.000000   0.999988   0.000000 )  
               a(3) = (  -0.005000   0.000000   0.999988 )  

     reciprocal axes: (cart. coord. in units 2 pi/alat)
               b(1) = (  1.000038 -0.000000  0.005000 )  
               b(2) = ( -0.000000  1.000012 -0.000000 )  
               b(3) = (  0.005000 -0.000000  1.000038 )  


     PseudoPot. # 1 for Ca read from file:
     /home/administrator/Downloads/BURAI/BURAI1.3/pseudopot/Ca.pbe-spn-kjpaw_psl.1.0.0.UPF
     MD5 check sum: b518bfa21c8e9f1b10ff1c7131b15729
     Pseudo is Projector augmented-wave + core cor, Zval = 10.0
     Generated using "atomic" code by A. Dal Corso  v.5.1.2
     Shape of augmentation charge: PSQ
     Using radial grid of 1169 points,  6 beta functions with: 
                l(1) =   0
                l(2) =   0
                l(3) =   1
                l(4) =   1
                l(5) =   2
                l(6) =   2
     Q(r) pseudized with 0 coefficients 


     PseudoPot. # 2 for Ti read from file:
     /home/administrator/Downloads/BURAI/BURAI1.3/pseudopot/Ti.pbe-spn-kjpaw_psl.1.0.0.UPF
     MD5 check sum: ea6c0241539b3211983c246a8902380f
     Pseudo is Projector augmented-wave + core cor, Zval = 12.0
     Generated using "atomic" code by A. Dal Corso  v.5.1.2
     Shape of augmentation charge: PSQ
     Using radial grid of 1177 points,  6 beta functions with: 
                l(1) =   0
                l(2) =   0
                l(3) =   1
                l(4) =   1
                l(5) =   2
                l(6) =   2
     Q(r) pseudized with 0 coefficients 


     PseudoPot. # 3 for Se read from file:
     /home/administrator/Downloads/BURAI/BURAI1.3/pseudopot/Se.pbe-n-kjpaw_psl.1.0.0.UPF
     MD5 check sum: a24196f260b4188fa853fb27ef2f7c98
     Pseudo is Projector augmented-wave + core cor, Zval =  6.0
     Generated using "atomic" code by A. Dal Corso  v.5.1.2
     Shape of augmentation charge: PSQ
     Using radial grid of 1211 points,  4 beta functions with: 
                l(1) =   0
                l(2) =   0
                l(3) =   1
                l(4) =   1
     Q(r) pseudized with 0 coefficients 


     atomic species   valence    mass     pseudopotential
     Ca               10.00    40.07800     Ca( 1.00)
     Ti               12.00    47.86700     Ti( 1.00)
     Se                6.00    78.97100     Se( 1.00)

      8 Sym. Ops., with inversion, found


                                    s                        frac. trans.

      isym =  1     identity                                     

 cryst.   s( 1) = (     1          0          0      )
                  (     0          1          0      )
                  (     0          0          1      )

 cart.    s( 1) = (  1.0000000  0.0000000 -0.0000000 )
                  (  0.0000000  1.0000000  0.0000000 )
                  ( -0.0000000  0.0000000  1.0000000 )


      isym =  2     180 deg rotation - cart. axis [0,1,0]        

 cryst.   s( 2) = (    -1          0          0      )
                  (     0          1          0      )
                  (     0          0         -1      )

 cart.    s( 2) = ( -1.0000000  0.0000000  0.0000000 )
                  (  0.0000000  1.0000000  0.0000000 )
                  (  0.0000000  0.0000000 -1.0000000 )


      isym =  3     180 deg rotation - cart. axis [1,0,1]        

 cryst.   s( 3) = (     0          0          1      )
                  (     0         -1          0      )
                  (     1          0          0      )

 cart.    s( 3) = ( -0.0000000  0.0000000  1.0000000 )
                  (  0.0000000 -1.0000000  0.0000000 )
                  (  1.0000000  0.0000000 -0.0000000 )


      isym =  4     180 deg rotation - cart. axis [-1,0,1]       

 cryst.   s( 4) = (     0          0         -1      )
                  (     0         -1          0      )
                  (    -1          0          0      )

 cart.    s( 4) = (  0.0000000  0.0000000 -1.0000000 )
                  (  0.0000000 -1.0000000  0.0000000 )
                  ( -1.0000000  0.0000000  0.0000000 )


      isym =  5     inversion                                    

 cryst.   s( 5) = (    -1          0          0      )
                  (     0         -1          0      )
                  (     0          0         -1      )

 cart.    s( 5) = ( -1.0000000  0.0000000  0.0000000 )
                  (  0.0000000 -1.0000000  0.0000000 )
                  (  0.0000000  0.0000000 -1.0000000 )


      isym =  6     inv. 180 deg rotation - cart. axis [0,1,0]   

 cryst.   s( 6) = (     1          0          0      )
                  (     0         -1          0      )
                  (     0          0          1      )

 cart.    s( 6) = (  1.0000000  0.0000000 -0.0000000 )
                  (  0.0000000 -1.0000000  0.0000000 )
                  ( -0.0000000  0.0000000  1.0000000 )


      isym =  7     inv. 180 deg rotation - cart. axis [1,0,1]   

 cryst.   s( 7) = (     0          0         -1      )
                  (     0          1          0      )
                  (    -1          0          0      )

 cart.    s( 7) = (  0.0000000  0.0000000 -1.0000000 )
                  (  0.0000000  1.0000000  0.0000000 )
                  ( -1.0000000  0.0000000  0.0000000 )


      isym =  8     inv. 180 deg rotation - cart. axis [-1,0,1]  

 cryst.   s( 8) = (     0          0          1      )
                  (     0          1          0      )
                  (     1          0          0      )

 cart.    s( 8) = ( -0.0000000  0.0000000  1.0000000 )
                  (  0.0000000  1.0000000  0.0000000 )
                  (  1.0000000  0.0000000 -0.0000000 )


   Cartesian axes

     site n.     atom                  positions (alat units)
         1        Ca     tau(   1) = (   0.0000000   0.0000000   0.0000000  )
         2        Ti     tau(   2) = (   0.4974938   0.4999938   0.4974938  )
         3        Se     tau(   3) = (   0.4999938   0.0000000  -0.0025000  )
         4        Se     tau(   4) = (   0.0000000   0.4999938   0.0000000  )
         5        Se     tau(   5) = (  -0.0025000   0.0000000   0.4999938  )

   Crystallographic axes

     site n.     atom                  positions (cryst. coord.)
         1        Ca     tau(   1) = (  0.0000000  0.0000000  0.0000000  )
         2        Ti     tau(   2) = (  0.5000000  0.5000000  0.5000000  )
         3        Se     tau(   3) = (  0.5000000  0.0000000 -0.0000000  )
         4        Se     tau(   4) = (  0.0000000  0.5000000  0.0000000  )
         5        Se     tau(   5) = ( -0.0000000  0.0000000  0.5000000  )

     number of k points=    21  Gaussian smearing, width (Ry)=  0.0020
                       cart. coord. in units 2pi/alat
        k(    1) = (   0.0000000   0.0000000   0.0000000), wk =   0.0312500
        k(    2) = (   0.0012500   0.0000000   0.2500094), wk =   0.1250000
        k(    3) = (  -0.0025001   0.0000000  -0.5000188), wk =   0.0625000
        k(    4) = (   0.0000000   0.2500031   0.0000000), wk =   0.0625000
        k(    5) = (   0.0012500   0.2500031   0.2500094), wk =   0.2500000
        k(    6) = (  -0.0025001   0.2500031  -0.5000188), wk =   0.1250000
        k(    7) = (   0.0000000  -0.5000062   0.0000000), wk =   0.0312500
        k(    8) = (   0.0012500  -0.5000062   0.2500094), wk =   0.1250000
        k(    9) = (  -0.0025001  -0.5000062  -0.5000188), wk =   0.0625000
        k(   10) = (   0.2512594   0.0000000   0.2512594), wk =   0.0625000
        k(   11) = (   0.2475093   0.0000000  -0.4987687), wk =   0.1250000
        k(   12) = (   0.2487593   0.0000000  -0.2487593), wk =   0.0625000
        k(   13) = (   0.2512594   0.2500031   0.2512594), wk =   0.1250000
        k(   14) = (   0.2475093   0.2500031  -0.4987687), wk =   0.2500000
        k(   15) = (   0.2487593   0.2500031  -0.2487593), wk =   0.1250000
        k(   16) = (   0.2512594  -0.5000062   0.2512594), wk =   0.0625000
        k(   17) = (   0.2475093  -0.5000062  -0.4987687), wk =   0.1250000
        k(   18) = (   0.2487593  -0.5000062  -0.2487593), wk =   0.0625000
        k(   19) = (  -0.5025188   0.0000000  -0.5025188), wk =   0.0312500
        k(   20) = (  -0.5025188   0.2500031  -0.5025188), wk =   0.0625000
        k(   21) = (  -0.5025188  -0.5000062  -0.5025188), wk =   0.0312500

                       cryst. coord.
        k(    1) = (   0.0000000   0.0000000   0.0000000), wk =   0.0312500
        k(    2) = (  -0.0000000   0.0000000   0.2500000), wk =   0.1250000
        k(    3) = (   0.0000000   0.0000000  -0.5000000), wk =   0.0625000
        k(    4) = (   0.0000000   0.2500000   0.0000000), wk =   0.0625000
        k(    5) = (  -0.0000000   0.2500000   0.2500000), wk =   0.2500000
        k(    6) = (   0.0000000   0.2500000  -0.5000000), wk =   0.1250000
        k(    7) = (   0.0000000  -0.5000000   0.0000000), wk =   0.0312500
        k(    8) = (  -0.0000000  -0.5000000   0.2500000), wk =   0.1250000
        k(    9) = (   0.0000000  -0.5000000  -0.5000000), wk =   0.0625000
        k(   10) = (   0.2500000   0.0000000   0.2500000), wk =   0.0625000
        k(   11) = (   0.2500000   0.0000000  -0.5000000), wk =   0.1250000
        k(   12) = (   0.2500000   0.0000000  -0.2500000), wk =   0.0625000
        k(   13) = (   0.2500000   0.2500000   0.2500000), wk =   0.1250000
        k(   14) = (   0.2500000   0.2500000  -0.5000000), wk =   0.2500000
        k(   15) = (   0.2500000   0.2500000  -0.2500000), wk =   0.1250000
        k(   16) = (   0.2500000  -0.5000000   0.2500000), wk =   0.0625000
        k(   17) = (   0.2500000  -0.5000000  -0.5000000), wk =   0.1250000
        k(   18) = (   0.2500000  -0.5000000  -0.2500000), wk =   0.0625000
        k(   19) = (  -0.5000000   0.0000000  -0.5000000), wk =   0.0312500
        k(   20) = (  -0.5000000   0.2500000  -0.5000000), wk =   0.0625000
        k(   21) = (  -0.5000000  -0.5000000  -0.5000000), wk =   0.0312500

     Dense  grid:   271541 G-vectors     FFT dimensions: (  81,  81,  81)

     Smooth grid:    96107 G-vectors     FFT dimensions: (  60,  60,  60)

     Dynamical RAM for                 wfc:       0.55 MB

     Dynamical RAM for     wfc (w. buffer):      12.08 MB

     Dynamical RAM for           str. fact:       1.55 MB

     Dynamical RAM for           local pot:       0.00 MB

     Dynamical RAM for          nlocal pot:       1.37 MB

     Dynamical RAM for                qrad:       6.09 MB

     Dynamical RAM for          rho,v,vnew:       3.21 MB

     Dynamical RAM for               rhoin:       1.07 MB

     Dynamical RAM for            rho*nmix:       8.29 MB

     Dynamical RAM for           G-vectors:       2.03 MB

     Dynamical RAM for          h,s,v(r/c):       0.11 MB

     Dynamical RAM for          <psi|beta>:       0.02 MB

     Dynamical RAM for                 psi:       1.10 MB

     Dynamical RAM for                hpsi:       1.10 MB

     Dynamical RAM for                spsi:       1.10 MB

     Dynamical RAM for      wfcinit/wfcrot:       1.39 MB

     Dynamical RAM for           addusdens:      97.89 MB

     Dynamical RAM for         addusstress:     104.11 MB

     Estimated static dynamical RAM per process >      32.23 MB

     Estimated max dynamical RAM per process >     144.63 MB

     Estimated total dynamical RAM >       1.13 GB

     Initial potential from superposition of free atoms

     starting charge      39.9934, renormalised to      40.0000
     Starting wfcs are   30 randomized atomic wfcs
     Checking if some PAW data can be deallocated... 
       PAW data deallocated on    6 nodes for type:  1
       PAW data deallocated on    6 nodes for type:  2
       PAW data deallocated on    4 nodes for type:  3

     total cpu time spent up to now is       12.1 secs

     Self-consistent Calculation

     iteration #  1     ecut=    80.00 Ry     beta= 0.30
     Davidson diagonalization with overlap

---- Real-time Memory Report at c_bands before calling an iterative solver
           150 MiB given to the printing process from OS
             0 MiB allocation reported by mallinfo(arena+hblkhd)
         58182 MiB available memory on the node where the printing process lives
------------------
     ethr =  1.00E-02,  avg # of iterations =  2.0

     total cpu time spent up to now is       39.7 secs

     total energy              =    -884.11253624 Ry
     estimated scf accuracy    <       2.81433807 Ry

     iteration #  2     ecut=    80.00 Ry     beta= 0.30
     Davidson diagonalization with overlap

---- Real-time Memory Report at c_bands before calling an iterative solver
           186 MiB given to the printing process from OS
             0 MiB allocation reported by mallinfo(arena+hblkhd)
         57318 MiB available memory on the node where the printing process lives
------------------
     ethr =  7.04E-03,  avg # of iterations =  2.3

     total cpu time spent up to now is       72.9 secs

     total energy              =    -884.08496454 Ry
     estimated scf accuracy    <      23.42996292 Ry

     iteration #  3     ecut=    80.00 Ry     beta= 0.30
     Davidson diagonalization with overlap

---- Real-time Memory Report at c_bands before calling an iterative solver
           187 MiB given to the printing process from OS
             0 MiB allocation reported by mallinfo(arena+hblkhd)
         57396 MiB available memory on the node where the printing process lives
------------------
     ethr =  7.04E-03,  avg # of iterations =  1.9

     total cpu time spent up to now is      100.2 secs

     total energy              =    -884.97560636 Ry
     estimated scf accuracy    <       0.93402905 Ry

     iteration #  4     ecut=    80.00 Ry     beta= 0.30
     Davidson diagonalization with overlap

---- Real-time Memory Report at c_bands before calling an iterative solver
           188 MiB given to the printing process from OS
             0 MiB allocation reported by mallinfo(arena+hblkhd)
         57275 MiB available memory on the node where the printing process lives
------------------
     ethr =  2.34E-03,  avg # of iterations =  1.4

     total cpu time spent up to now is      123.2 secs

     total energy              =    -885.09722689 Ry
     estimated scf accuracy    <       1.46754915 Ry

     iteration #  5     ecut=    80.00 Ry     beta= 0.30
     Davidson diagonalization with overlap

---- Real-time Memory Report at c_bands before calling an iterative solver
           188 MiB given to the printing process from OS
             0 MiB allocation reported by mallinfo(arena+hblkhd)
         57284 MiB available memory on the node where the printing process lives
------------------
     ethr =  2.34E-03,  avg # of iterations =  1.2

     total cpu time spent up to now is      144.8 secs

     total energy              =    -885.09193920 Ry
     estimated scf accuracy    <       1.04069310 Ry

     iteration #  6     ecut=    80.00 Ry     beta= 0.30
     Davidson diagonalization with overlap

---- Real-time Memory Report at c_bands before calling an iterative solver
           189 MiB given to the printing process from OS
             0 MiB allocation reported by mallinfo(arena+hblkhd)
         57340 MiB available memory on the node where the printing process lives
------------------
     ethr =  2.34E-03,  avg # of iterations =  1.0

     total cpu time spent up to now is      165.9 secs

     total energy              =    -885.08518924 Ry
     estimated scf accuracy    <       0.16625771 Ry

     iteration #  7     ecut=    80.00 Ry     beta= 0.30
     Davidson diagonalization with overlap

---- Real-time Memory Report at c_bands before calling an iterative solver
           189 MiB given to the printing process from OS
             0 MiB allocation reported by mallinfo(arena+hblkhd)
         57347 MiB available memory on the node where the printing process lives
------------------
     ethr =  4.16E-04,  avg # of iterations =  2.2

     total cpu time spent up to now is      195.1 secs

     total energy              =    -885.09969628 Ry
     estimated scf accuracy    <       0.00918939 Ry

     iteration #  8     ecut=    80.00 Ry     beta= 0.30
     Davidson diagonalization with overlap

---- Real-time Memory Report at c_bands before calling an iterative solver
           189 MiB given to the printing process from OS
             0 MiB allocation reported by mallinfo(arena+hblkhd)
         57215 MiB available memory on the node where the printing process lives
------------------
     ethr =  2.30E-05,  avg # of iterations = 12.6

     total cpu time spent up to now is      319.0 secs

     total energy              =    -885.12367227 Ry
     estimated scf accuracy    <       0.09951850 Ry

     iteration #  9     ecut=    80.00 Ry     beta= 0.30
     Davidson diagonalization with overlap

---- Real-time Memory Report at c_bands before calling an iterative solver
           190 MiB given to the printing process from OS
             0 MiB allocation reported by mallinfo(arena+hblkhd)
         57247 MiB available memory on the node where the printing process lives
------------------
     ethr =  2.30E-05,  avg # of iterations =  1.3

     total cpu time spent up to now is      342.2 secs

     total energy              =    -885.11580179 Ry
     estimated scf accuracy    <       0.31585887 Ry

     iteration # 10     ecut=    80.00 Ry     beta= 0.30
     Davidson diagonalization with overlap

---- Real-time Memory Report at c_bands before calling an iterative solver
           190 MiB given to the printing process from OS
             0 MiB allocation reported by mallinfo(arena+hblkhd)
         57246 MiB available memory on the node where the printing process lives
------------------
     ethr =  2.30E-05,  avg # of iterations =  1.9

     total cpu time spent up to now is      370.1 secs

     total energy              =    -885.11457890 Ry
     estimated scf accuracy    <       0.06486112 Ry

     iteration # 11     ecut=    80.00 Ry     beta= 0.30
     Davidson diagonalization with overlap

---- Real-time Memory Report at c_bands before calling an iterative solver
           190 MiB given to the printing process from OS
             0 MiB allocation reported by mallinfo(arena+hblkhd)
         57200 MiB available memory on the node where the printing process lives
------------------
     ethr =  2.30E-05,  avg # of iterations =  1.5

     total cpu time spent up to now is      394.0 secs

     total energy              =    -885.11211871 Ry
     estimated scf accuracy    <       0.04203013 Ry

     iteration # 12     ecut=    80.00 Ry     beta= 0.30
     Davidson diagonalization with overlap

---- Real-time Memory Report at c_bands before calling an iterative solver
           191 MiB given to the printing process from OS
             0 MiB allocation reported by mallinfo(arena+hblkhd)
         57313 MiB available memory on the node where the printing process lives
------------------
     ethr =  2.30E-05,  avg # of iterations =  2.9

     total cpu time spent up to now is      432.1 secs

     total energy              =    -885.11129529 Ry
     estimated scf accuracy    <       0.01627369 Ry

     iteration # 13     ecut=    80.00 Ry     beta= 0.30
     Davidson diagonalization with overlap

---- Real-time Memory Report at c_bands before calling an iterative solver
           191 MiB given to the printing process from OS
             0 MiB allocation reported by mallinfo(arena+hblkhd)
         57226 MiB available memory on the node where the printing process lives
------------------
     ethr =  2.30E-05,  avg # of iterations =  2.8

     total cpu time spent up to now is      468.3 secs

     total energy              =    -885.11236232 Ry
     estimated scf accuracy    <       0.00041247 Ry

     iteration # 14     ecut=    80.00 Ry     beta= 0.30
     Davidson diagonalization with overlap

---- Real-time Memory Report at c_bands before calling an iterative solver
           191 MiB given to the printing process from OS
             0 MiB allocation reported by mallinfo(arena+hblkhd)
         57146 MiB available memory on the node where the printing process lives
------------------
     c_bands:  1 eigenvalues not converged
     ethr =  1.03E-06,  avg # of iterations = 11.4

     total cpu time spent up to now is      581.7 secs

     total energy              =    -885.11272455 Ry
     estimated scf accuracy    <       0.01300732 Ry

     iteration # 15     ecut=    80.00 Ry     beta= 0.30
     Davidson diagonalization with overlap

---- Real-time Memory Report at c_bands before calling an iterative solver
           191 MiB given to the printing process from OS
             0 MiB allocation reported by mallinfo(arena+hblkhd)
         57408 MiB available memory on the node where the printing process lives
------------------
     ethr =  1.03E-06,  avg # of iterations =  2.0

     total cpu time spent up to now is      610.5 secs

     total energy              =    -885.11294424 Ry
     estimated scf accuracy    <       0.00019075 Ry

     iteration # 16     ecut=    80.00 Ry     beta= 0.30
     Davidson diagonalization with overlap

---- Real-time Memory Report at c_bands before calling an iterative solver
           191 MiB given to the printing process from OS
             0 MiB allocation reported by mallinfo(arena+hblkhd)
         57259 MiB available memory on the node where the printing process lives
------------------
     ethr =  4.77E-07,  avg # of iterations = 10.6

     total cpu time spent up to now is      719.5 secs

     total energy              =    -885.11321659 Ry
     estimated scf accuracy    <       0.00831968 Ry

     iteration # 17     ecut=    80.00 Ry     beta= 0.30
     Davidson diagonalization with overlap

---- Real-time Memory Report at c_bands before calling an iterative solver
           191 MiB given to the printing process from OS
             0 MiB allocation reported by mallinfo(arena+hblkhd)
         57426 MiB available memory on the node where the printing process lives
------------------
     ethr =  4.77E-07,  avg # of iterations =  1.1

     total cpu time spent up to now is      740.5 secs

     total energy              =    -885.11285646 Ry
     estimated scf accuracy    <       0.00534840 Ry

     iteration # 18     ecut=    80.00 Ry     beta= 0.30
     Davidson diagonalization with overlap

---- Real-time Memory Report at c_bands before calling an iterative solver
           191 MiB given to the printing process from OS
             0 MiB allocation reported by mallinfo(arena+hblkhd)
         57314 MiB available memory on the node where the printing process lives
------------------
     ethr =  4.77E-07,  avg # of iterations =  6.0

     total cpu time spent up to now is      808.7 secs

     total energy              =    -885.11302243 Ry
     estimated scf accuracy    <       0.00030157 Ry

     iteration # 19     ecut=    80.00 Ry     beta= 0.30
     Davidson diagonalization with overlap

---- Real-time Memory Report at c_bands before calling an iterative solver
           191 MiB given to the printing process from OS
             0 MiB allocation reported by mallinfo(arena+hblkhd)
         57430 MiB available memory on the node where the printing process lives
------------------
     ethr =  4.77E-07,  avg # of iterations =  1.5

     total cpu time spent up to now is      833.5 secs

     total energy              =    -885.11304707 Ry
     estimated scf accuracy    <       0.00035280 Ry

     iteration # 20     ecut=    80.00 Ry     beta= 0.30
     Davidson diagonalization with overlap

---- Real-time Memory Report at c_bands before calling an iterative solver
           191 MiB given to the printing process from OS
             0 MiB allocation reported by mallinfo(arena+hblkhd)
         57443 MiB available memory on the node where the printing process lives
------------------
     ethr =  4.77E-07,  avg # of iterations =  1.1

     total cpu time spent up to now is      854.7 secs

     total energy              =    -885.11304614 Ry
     estimated scf accuracy    <       0.00012612 Ry

     iteration # 21     ecut=    80.00 Ry     beta= 0.30
     Davidson diagonalization with overlap

---- Real-time Memory Report at c_bands before calling an iterative solver
           191 MiB given to the printing process from OS
             0 MiB allocation reported by mallinfo(arena+hblkhd)
         57267 MiB available memory on the node where the printing process lives
------------------
     ethr =  3.15E-07,  avg # of iterations =  1.0

     total cpu time spent up to now is      875.1 secs

     total energy              =    -885.11304793 Ry
     estimated scf accuracy    <       0.00003121 Ry

     iteration # 22     ecut=    80.00 Ry     beta= 0.30
     Davidson diagonalization with overlap

---- Real-time Memory Report at c_bands before calling an iterative solver
           191 MiB given to the printing process from OS
             0 MiB allocation reported by mallinfo(arena+hblkhd)
         57256 MiB available memory on the node where the printing process lives
------------------
     ethr =  7.80E-08,  avg # of iterations =  3.7

     total cpu time spent up to now is      919.4 secs

     total energy              =    -885.11305128 Ry
     estimated scf accuracy    <       0.00000322 Ry

     iteration # 23     ecut=    80.00 Ry     beta= 0.30
     Davidson diagonalization with overlap

---- Real-time Memory Report at c_bands before calling an iterative solver
           191 MiB given to the printing process from OS
             0 MiB allocation reported by mallinfo(arena+hblkhd)
         57277 MiB available memory on the node where the printing process lives
------------------
     c_bands:  1 eigenvalues not converged
     ethr =  8.05E-09,  avg # of iterations =  8.6

     total cpu time spent up to now is     1006.1 secs

     total energy              =    -885.11313697 Ry
     estimated scf accuracy    <       0.00011847 Ry

     iteration # 24     ecut=    80.00 Ry     beta= 0.30
     Davidson diagonalization with overlap

---- Real-time Memory Report at c_bands before calling an iterative solver
           191 MiB given to the printing process from OS
             0 MiB allocation reported by mallinfo(arena+hblkhd)
         57322 MiB available memory on the node where the printing process lives
------------------
     ethr =  8.05E-09,  avg # of iterations =  1.6

     total cpu time spent up to now is     1031.0 secs

     total energy              =    -885.11313736 Ry
     estimated scf accuracy    <       0.00010929 Ry

     iteration # 25     ecut=    80.00 Ry     beta= 0.30
     Davidson diagonalization with overlap

---- Real-time Memory Report at c_bands before calling an iterative solver
           191 MiB given to the printing process from OS
             0 MiB allocation reported by mallinfo(arena+hblkhd)
         57347 MiB available memory on the node where the printing process lives
------------------
     ethr =  8.05E-09,  avg # of iterations =  1.0

     total cpu time spent up to now is     1051.2 secs

     total energy              =    -885.11313778 Ry
     estimated scf accuracy    <       0.00009795 Ry

     iteration # 26     ecut=    80.00 Ry     beta= 0.30
     Davidson diagonalization with overlap

---- Real-time Memory Report at c_bands before calling an iterative solver
           191 MiB given to the printing process from OS
             0 MiB allocation reported by mallinfo(arena+hblkhd)
         57346 MiB available memory on the node where the printing process lives
------------------
     ethr =  8.05E-09,  avg # of iterations =  1.0

     total cpu time spent up to now is     1071.2 secs

     total energy              =    -885.11313836 Ry
     estimated scf accuracy    <       0.00009328 Ry

     iteration # 27     ecut=    80.00 Ry     beta= 0.30
     Davidson diagonalization with overlap

---- Real-time Memory Report at c_bands before calling an iterative solver
           191 MiB given to the printing process from OS
             0 MiB allocation reported by mallinfo(arena+hblkhd)
         57183 MiB available memory on the node where the printing process lives
------------------
     ethr =  8.05E-09,  avg # of iterations =  1.0

     total cpu time spent up to now is     1090.5 secs

     total energy              =    -885.11313899 Ry
     estimated scf accuracy    <       0.00007974 Ry

     iteration # 28     ecut=    80.00 Ry     beta= 0.30
     Davidson diagonalization with overlap

---- Real-time Memory Report at c_bands before calling an iterative solver
           191 MiB given to the printing process from OS
             0 MiB allocation reported by mallinfo(arena+hblkhd)
         57209 MiB available memory on the node where the printing process lives
------------------
     ethr =  8.05E-09,  avg # of iterations =  1.0

     total cpu time spent up to now is     1111.2 secs

     total energy              =    -885.11313967 Ry
     estimated scf accuracy    <       0.00005713 Ry

     iteration # 29     ecut=    80.00 Ry     beta= 0.30
     Davidson diagonalization with overlap

---- Real-time Memory Report at c_bands before calling an iterative solver
           191 MiB given to the printing process from OS
             0 MiB allocation reported by mallinfo(arena+hblkhd)
         57432 MiB available memory on the node where the printing process lives
------------------
     ethr =  8.05E-09,  avg # of iterations =  1.2

     total cpu time spent up to now is     1133.5 secs

     total energy              =    -885.11313924 Ry
     estimated scf accuracy    <       0.00003352 Ry

     iteration # 30     ecut=    80.00 Ry     beta= 0.30
     Davidson diagonalization with overlap

---- Real-time Memory Report at c_bands before calling an iterative solver
           191 MiB given to the printing process from OS
             0 MiB allocation reported by mallinfo(arena+hblkhd)
         57368 MiB available memory on the node where the printing process lives
------------------
     ethr =  8.05E-09,  avg # of iterations =  3.1

     total cpu time spent up to now is     1172.0 secs

     total energy              =    -885.11314126 Ry
     estimated scf accuracy    <       0.00000175 Ry

     iteration # 31     ecut=    80.00 Ry     beta= 0.30
     Davidson diagonalization with overlap

---- Real-time Memory Report at c_bands before calling an iterative solver
           191 MiB given to the printing process from OS
             0 MiB allocation reported by mallinfo(arena+hblkhd)
         57223 MiB available memory on the node where the printing process lives
------------------
     ethr =  4.37E-09,  avg # of iterations =  2.0

     total cpu time spent up to now is     1201.0 secs

     total energy              =    -885.11314106 Ry
     estimated scf accuracy    <       0.00000266 Ry

     iteration # 32     ecut=    80.00 Ry     beta= 0.30
     Davidson diagonalization with overlap

---- Real-time Memory Report at c_bands before calling an iterative solver
           191 MiB given to the printing process from OS
             0 MiB allocation reported by mallinfo(arena+hblkhd)
         57282 MiB available memory on the node where the printing process lives
------------------
     ethr =  4.37E-09,  avg # of iterations =  1.8

     total cpu time spent up to now is     1228.0 secs

     total energy              =    -885.11314162 Ry
     estimated scf accuracy    <       0.00000038 Ry

     iteration # 33     ecut=    80.00 Ry     beta= 0.30
     Davidson diagonalization with overlap

---- Real-time Memory Report at c_bands before calling an iterative solver
           191 MiB given to the printing process from OS
             0 MiB allocation reported by mallinfo(arena+hblkhd)
         57183 MiB available memory on the node where the printing process lives
------------------
     ethr =  9.38E-10,  avg # of iterations =  4.8

     total cpu time spent up to now is     1284.1 secs

     total energy              =    -885.11314171 Ry
     estimated scf accuracy    <       0.00000040 Ry

     iteration # 34     ecut=    80.00 Ry     beta= 0.30
     Davidson diagonalization with overlap

---- Real-time Memory Report at c_bands before calling an iterative solver
           191 MiB given to the printing process from OS
             0 MiB allocation reported by mallinfo(arena+hblkhd)
         57292 MiB available memory on the node where the printing process lives
------------------
     ethr =  9.38E-10,  avg # of iterations =  1.4

     total cpu time spent up to now is     1307.7 secs

     total energy              =    -885.11314171 Ry
     estimated scf accuracy    <       0.00000023 Ry

     iteration # 35     ecut=    80.00 Ry     beta= 0.30
     Davidson diagonalization with overlap

---- Real-time Memory Report at c_bands before calling an iterative solver
           191 MiB given to the printing process from OS
             0 MiB allocation reported by mallinfo(arena+hblkhd)
         57288 MiB available memory on the node where the printing process lives
------------------
     ethr =  5.83E-10,  avg # of iterations =  2.6

     total cpu time spent up to now is     1343.5 secs

     total energy              =    -885.11314172 Ry
     estimated scf accuracy    <       0.00000008 Ry

     iteration # 36     ecut=    80.00 Ry     beta= 0.30
     Davidson diagonalization with overlap

---- Real-time Memory Report at c_bands before calling an iterative solver
           191 MiB given to the printing process from OS
             0 MiB allocation reported by mallinfo(arena+hblkhd)
         57125 MiB available memory on the node where the printing process lives
------------------
     ethr =  2.04E-10,  avg # of iterations =  4.1

     total cpu time spent up to now is     1392.3 secs

     total energy              =    -885.11314173 Ry
     estimated scf accuracy    <       0.00000008 Ry

     iteration # 37     ecut=    80.00 Ry     beta= 0.30
     Davidson diagonalization with overlap

---- Real-time Memory Report at c_bands before calling an iterative solver
           191 MiB given to the printing process from OS
             0 MiB allocation reported by mallinfo(arena+hblkhd)
         57108 MiB available memory on the node where the printing process lives
------------------
     ethr =  1.97E-10,  avg # of iterations =  1.1

     total cpu time spent up to now is     1413.8 secs

     total energy              =    -885.11314173 Ry
     estimated scf accuracy    <       0.00000006 Ry

     iteration # 38     ecut=    80.00 Ry     beta= 0.30
     Davidson diagonalization with overlap

---- Real-time Memory Report at c_bands before calling an iterative solver
           191 MiB given to the printing process from OS
             0 MiB allocation reported by mallinfo(arena+hblkhd)
         57248 MiB available memory on the node where the printing process lives
------------------
     ethr =  1.60E-10,  avg # of iterations =  1.2

     total cpu time spent up to now is     1435.9 secs

     total energy              =    -885.11314173 Ry
     estimated scf accuracy    <       0.00000002 Ry

     iteration # 39     ecut=    80.00 Ry     beta= 0.30
     Davidson diagonalization with overlap

---- Real-time Memory Report at c_bands before calling an iterative solver
           191 MiB given to the printing process from OS
             0 MiB allocation reported by mallinfo(arena+hblkhd)
         57162 MiB available memory on the node where the printing process lives
------------------
     ethr =  4.60E-11,  avg # of iterations =  1.7

     total cpu time spent up to now is     1462.7 secs

     total energy              =    -885.11314173 Ry
     estimated scf accuracy    <          8.5E-09 Ry

     iteration # 40     ecut=    80.00 Ry     beta= 0.30
     Davidson diagonalization with overlap

---- Real-time Memory Report at c_bands before calling an iterative solver
           191 MiB given to the printing process from OS
             0 MiB allocation reported by mallinfo(arena+hblkhd)
         57285 MiB available memory on the node where the printing process lives
------------------
     ethr =  2.13E-11,  avg # of iterations =  4.6

     total cpu time spent up to now is     1516.1 secs

     total energy              =    -885.11314173 Ry
     estimated scf accuracy    <          1.2E-09 Ry

     iteration # 41     ecut=    80.00 Ry     beta= 0.30
     Davidson diagonalization with overlap

---- Real-time Memory Report at c_bands before calling an iterative solver
           191 MiB given to the printing process from OS
             0 MiB allocation reported by mallinfo(arena+hblkhd)
         57150 MiB available memory on the node where the printing process lives
------------------
     ethr =  3.07E-12,  avg # of iterations =  7.9

     total cpu time spent up to now is     1597.5 secs

     total energy              =    -885.11314173 Ry
     estimated scf accuracy    <          1.3E-10 Ry

     iteration # 42     ecut=    80.00 Ry     beta= 0.30
     Davidson diagonalization with overlap

---- Real-time Memory Report at c_bands before calling an iterative solver
           191 MiB given to the printing process from OS
             0 MiB allocation reported by mallinfo(arena+hblkhd)
         57388 MiB available memory on the node where the printing process lives
------------------
     ethr =  3.26E-13,  avg # of iterations =  5.3

     total cpu time spent up to now is     1656.0 secs

     total energy              =    -885.11314173 Ry
     estimated scf accuracy    <          1.8E-09 Ry

     iteration # 43     ecut=    80.00 Ry     beta= 0.30
     Davidson diagonalization with overlap

---- Real-time Memory Report at c_bands before calling an iterative solver
           191 MiB given to the printing process from OS
             0 MiB allocation reported by mallinfo(arena+hblkhd)
         57130 MiB available memory on the node where the printing process lives
------------------
     ethr =  3.26E-13,  avg # of iterations =  1.2

     total cpu time spent up to now is     1677.5 secs

     total energy              =    -885.11314173 Ry
     estimated scf accuracy    <          1.6E-09 Ry

     iteration # 44     ecut=    80.00 Ry     beta= 0.30
     Davidson diagonalization with overlap

---- Real-time Memory Report at c_bands before calling an iterative solver
           191 MiB given to the printing process from OS
             0 MiB allocation reported by mallinfo(arena+hblkhd)
         57375 MiB available memory on the node where the printing process lives
------------------
     ethr =  3.26E-13,  avg # of iterations =  2.0

     total cpu time spent up to now is     1707.0 secs

     End of self-consistent calculation

          k = 0.0000 0.0000 0.0000 ( 11995 PWs)   bands (ev):

   -53.7524 -33.6448 -29.9827 -29.9807 -29.9803 -14.8709 -14.8707 -14.8697
    -7.5909  -6.6765  -6.6743   2.2159   2.2257   2.2359   4.0471   4.0719
     4.0938   4.6033   4.6048   4.6871   4.6891   4.6899   4.9723   4.9907

     occupation numbers 
     1.0000   1.0000   1.0000   1.0000   1.0000   1.0000   1.0000   1.0000
     1.0000   1.0000   1.0000   1.0000   1.0000   1.0000   1.0000   1.0000
     1.0000   1.0000   1.0000   0.8280   0.8000   0.7886   0.0000   0.0000

          k = 0.0013 0.0000 0.2500 ( 11981 PWs)   bands (ev):

   -53.7524 -33.6447 -29.9827 -29.9807 -29.9804 -14.8964 -14.8704 -14.8696
    -7.4478  -6.6774  -6.6672   2.0723   2.3620   2.3621   3.5420   3.6069
     3.6079   3.7028   4.6820   4.6990   4.7240   4.7250   5.0529   5.0994

     occupation numbers 
     1.0000   1.0000   1.0000   1.0000   1.0000   1.0000   1.0000   1.0000
     1.0000   1.0000   1.0000   1.0000   1.0000   1.0000   1.0000   1.0000
     1.0000   1.0000   0.8867   0.6289   0.1651   0.1526   0.0000   0.0000

          k =-0.0025 0.0000-0.5000 ( 12020 PWs)   bands (ev):

   -53.7524 -33.6445 -29.9827 -29.9807 -29.9804 -14.9221 -14.8699 -14.8691
    -7.2903  -6.6909  -6.6584   2.2484   2.5971   2.6144   2.6154   3.1434
     3.1437   3.2425   4.5460   4.5484   4.7179   4.7636   5.2746   5.3743

     occupation numbers 
     1.0000   1.0000   1.0000   1.0000   1.0000   1.0000   1.0000   1.0000
     1.0000   1.0000   1.0000   1.0000   1.0000   1.0000   1.0000   1.0000
     1.0000   1.0000   1.0000   1.0000   0.2564   0.0012   0.0000   0.0000

          k = 0.0000 0.2500 0.0000 ( 12002 PWs)   bands (ev):

   -53.7524 -33.6447 -29.9827 -29.9808 -29.9803 -14.8971 -14.8702 -14.8691
    -7.4474  -6.6793  -6.6655   2.0719   2.3498   2.3746   3.5452   3.6022
     3.6113   3.6974   4.6833   4.6973   4.7036   4.7488   5.0530   5.0849

     occupation numbers 
     1.0000   1.0000   1.0000   1.0000   1.0000   1.0000   1.0000   1.0000
     1.0000   1.0000   1.0000   1.0000   1.0000   1.0000   1.0000   1.0000
     1.0000   1.0000   0.8740   0.6603   0.5345   0.0118   0.0000   0.0000

          k = 0.0013 0.2500 0.2500 ( 11996 PWs)   bands (ev):

   -53.7524 -33.6445 -29.9827 -29.9808 -29.9804 -14.8966 -14.8957 -14.8691
    -7.3009  -6.6690  -6.6639   1.7423   2.4926   2.6307   2.6990   3.3798
     3.4967   3.9815   4.4225   4.4374   4.7332   4.9186   5.0061   5.0845

     occupation numbers 
     1.0000   1.0000   1.0000   1.0000   1.0000   1.0000   1.0000   1.0000
     1.0000   1.0000   1.0000   1.0000   1.0000   1.0000   1.0000   1.0000
     1.0000   1.0000   1.0000   1.0000   0.0736   0.0000   0.0000   0.0000

          k =-0.0025 0.2500-0.5000 ( 12010 PWs)   bands (ev):

   -53.7524 -33.6444 -29.9827 -29.9808 -29.9804 -14.9214 -14.8959 -14.8686
    -7.1402  -6.6746  -6.6563   1.6478   2.1627   2.7505   2.9074   2.9551
     3.0550   3.9801   4.1723   4.2619   4.8402   4.9672   4.9969   5.2406

     occupation numbers 
     1.0000   1.0000   1.0000   1.0000   1.0000   1.0000   1.0000   1.0000
     1.0000   1.0000   1.0000   1.0000   1.0000   1.0000   1.0000   1.0000
     1.0000   1.0000   1.0000   1.0000   0.0000   0.0000   0.0000   0.0000

          k = 0.0000-0.5000 0.0000 ( 12036 PWs)   bands (ev):

   -53.7524 -33.6446 -29.9827 -29.9809 -29.9803 -14.9229 -14.8697 -14.8686
    -7.2892  -6.6935  -6.6567   2.2497   2.5906   2.5939   2.6399   3.1268
     3.1570   3.2432   4.5144   4.5832   4.7173   4.7649   5.2749   5.3620

     occupation numbers 
     1.0000   1.0000   1.0000   1.0000   1.0000   1.0000   1.0000   1.0000
     1.0000   1.0000   1.0000   1.0000   1.0000   1.0000   1.0000   1.0000
     1.0000   1.0000   1.0000   1.0000   0.2666   0.0010   0.0000   0.0000

          k = 0.0013-0.5000 0.2500 ( 12018 PWs)   bands (ev):

   -53.7524 -33.6444 -29.9827 -29.9808 -29.9803 -14.9222 -14.8952 -14.8686
    -7.1395  -6.6772  -6.6543   1.6479   2.1621   2.7500   2.9084   2.9544
     3.0530   3.9791   4.1778   4.2594   4.8414   4.9675   4.9969   5.2425

     occupation numbers 
     1.0000   1.0000   1.0000   1.0000   1.0000   1.0000   1.0000   1.0000
     1.0000   1.0000   1.0000   1.0000   1.0000   1.0000   1.0000   1.0000
     1.0000   1.0000   1.0000   1.0000   0.0000   0.0000   0.0000   0.0000

          k =-0.0025-0.5000-0.5000 ( 12016 PWs)   bands (ev):

   -53.7524 -33.6443 -29.9827 -29.9808 -29.9804 -14.9215 -14.9207 -14.8681
    -6.9775  -6.6607  -6.6581   1.2546   1.8899   2.9786   2.9805   3.1176
     3.1178   3.3644   3.7265   4.5365   4.7812   4.8151   5.2354   5.2361

     occupation numbers 
     1.0000   1.0000   1.0000   1.0000   1.0000   1.0000   1.0000   1.0000
     1.0000   1.0000   1.0000   1.0000   1.0000   1.0000   1.0000   1.0000
     1.0000   1.0000   1.0000   1.0000   0.0000   0.0000   0.0000   0.0000

          k = 0.2513 0.0000 0.2513 ( 11986 PWs)   bands (ev):

   -53.7524 -33.6445 -29.9827 -29.9807 -29.9804 -14.8964 -14.8951 -14.8699
    -7.2990  -6.6731  -6.6625   1.7497   2.4970   2.6373   2.7051   3.3739
     3.4854   3.9821   4.3955   4.4407   4.7377   4.9175   5.0003   5.0821

     occupation numbers 
     1.0000   1.0000   1.0000   1.0000   1.0000   1.0000   1.0000   1.0000
     1.0000   1.0000   1.0000   1.0000   1.0000   1.0000   1.0000   1.0000
     1.0000   1.0000   1.0000   1.0000   0.0460   0.0000   0.0000   0.0000

          k = 0.2475 0.0000-0.4988 ( 12015 PWs)   bands (ev):

   -53.7524 -33.6444 -29.9828 -29.9807 -29.9804 -14.9214 -14.8951 -14.8694
    -7.1411  -6.6765  -6.6535   1.6485   2.1632   2.7509   2.9046   2.9559
     3.0549   3.9808   4.1725   4.2609   4.8414   4.9672   4.9973   5.2430

     occupation numbers 
     1.0000   1.0000   1.0000   1.0000   1.0000   1.0000   1.0000   1.0000
     1.0000   1.0000   1.0000   1.0000   1.0000   1.0000   1.0000   1.0000
     1.0000   1.0000   1.0000   1.0000   0.0000   0.0000   0.0000   0.0000

          k = 0.2488 0.0000-0.2488 ( 12018 PWs)   bands (ev):

   -53.7524 -33.6445 -29.9827 -29.9807 -29.9804 -14.8968 -14.8947 -14.8699
    -7.3040  -6.6677  -6.6615   1.7355   2.4891   2.6241   2.6932   3.3911
     3.5037   3.9811   4.4278   4.4509   4.7303   4.9193   5.0131   5.0872

     occupation numbers 
     1.0000   1.0000   1.0000   1.0000   1.0000   1.0000   1.0000   1.0000
     1.0000   1.0000   1.0000   1.0000   1.0000   1.0000   1.0000   1.0000
     1.0000   1.0000   1.0000   1.0000   0.0964   0.0000   0.0000   0.0000

          k = 0.2513 0.2500 0.2513 ( 12010 PWs)   bands (ev):

   -53.7524 -33.6444 -29.9827 -29.9808 -29.9804 -14.8960 -14.8958 -14.8945
    -7.1465  -6.6633  -6.6577   1.5978   2.3259   2.3411   2.7130   3.1595
     3.1668   4.3255   4.3408   4.5651   4.7442   4.7470   4.7910   5.3249

     occupation numbers 
     1.0000   1.0000   1.0000   1.0000   1.0000   1.0000   1.0000   1.0000
     1.0000   1.0000   1.0000   1.0000   1.0000   1.0000   1.0000   1.0000
     1.0000   1.0000   1.0000   1.0000   0.0215   0.0150   0.0000   0.0000

          k = 0.2475 0.2500-0.4988 ( 11991 PWs)   bands (ev):

   -53.7524 -33.6443 -29.9828 -29.9808 -29.9804 -14.9208 -14.8954 -14.8945
    -6.9837  -6.6630  -6.6469   1.6604   1.8271   2.0461   2.4273   3.1875
     3.5318   4.0194   4.3154   4.4574   4.7705   4.9123   5.1415   5.2340

     occupation numbers 
     1.0000   1.0000   1.0000   1.0000   1.0000   1.0000   1.0000   1.0000
     1.0000   1.0000   1.0000   1.0000   1.0000   1.0000   1.0000   1.0000
     1.0000   1.0000   1.0000   1.0000   0.0004   0.0000   0.0000   0.0000

          k = 0.2488 0.2500-0.2488 ( 11985 PWs)   bands (ev):

   -53.7524 -33.6444 -29.9827 -29.9808 -29.9804 -14.8963 -14.8958 -14.8941
    -7.1530  -6.6613  -6.6517   1.5956   2.3114   2.3254   2.7039   3.1686
     3.1728   4.3543   4.3688   4.5819   4.7410   4.7419   4.7864   5.3199

     occupation numbers 
     1.0000   1.0000   1.0000   1.0000   1.0000   1.0000   1.0000   1.0000
     1.0000   1.0000   1.0000   1.0000   1.0000   1.0000   1.0000   1.0000
     1.0000   1.0000   1.0000   1.0000   0.0318   0.0287   0.0000   0.0000

          k = 0.2513-0.5000 0.2513 ( 12008 PWs)   bands (ev):

   -53.7524 -33.6443 -29.9827 -29.9808 -29.9804 -14.9215 -14.8952 -14.8939
    -6.9776  -6.6634  -6.6533   1.6559   1.8336   2.0435   2.4435   3.1894
     3.5338   4.0022   4.2853   4.4693   4.7750   4.9154   5.1354   5.2444

     occupation numbers 
     1.0000   1.0000   1.0000   1.0000   1.0000   1.0000   1.0000   1.0000
     1.0000   1.0000   1.0000   1.0000   1.0000   1.0000   1.0000   1.0000
     1.0000   1.0000   1.0000   1.0000   0.0001   0.0000   0.0000   0.0000

          k = 0.2475-0.5000-0.4988 ( 12006 PWs)   bands (ev):

   -53.7524 -33.6441 -29.9828 -29.9808 -29.9804 -14.9209 -14.9201 -14.8939
    -6.8119  -6.6498  -6.6468   1.4187   1.5844   2.0108   2.0115   3.3758
     3.4944   4.2169   4.2185   4.6408   4.7955   4.7967   5.2347   5.2355

     occupation numbers 
     1.0000   1.0000   1.0000   1.0000   1.0000   1.0000   1.0000   1.0000
     1.0000   1.0000   1.0000   1.0000   1.0000   1.0000   1.0000   1.0000
     1.0000   1.0000   1.0000   0.9996   0.0000   0.0000   0.0000   0.0000

          k = 0.2488-0.5000-0.2488 ( 11996 PWs)   bands (ev):

   -53.7524 -33.6443 -29.9827 -29.9808 -29.9804 -14.9215 -14.8955 -14.8936
    -6.9873  -6.6638  -6.6418   1.6643   1.8199   2.0482   2.4109   3.1888
     3.5291   4.0350   4.3491   4.4420   4.7679   4.9087   5.1457   5.2243

     occupation numbers 
     1.0000   1.0000   1.0000   1.0000   1.0000   1.0000   1.0000   1.0000
     1.0000   1.0000   1.0000   1.0000   1.0000   1.0000   1.0000   1.0000
     1.0000   1.0000   1.0000   1.0000   0.0006   0.0000   0.0000   0.0000

          k =-0.5025 0.0000-0.5025 ( 12016 PWs)   bands (ev):

   -53.7524 -33.6443 -29.9828 -29.9807 -29.9805 -14.9218 -14.9196 -14.8688
    -6.9802  -6.6693  -6.6468   1.2551   1.8912   2.9666   2.9940   3.1061
     3.1262   3.3658   3.7234   4.5364   4.7816   4.8165   5.2319   5.2402

     occupation numbers 
     1.0000   1.0000   1.0000   1.0000   1.0000   1.0000   1.0000   1.0000
     1.0000   1.0000   1.0000   1.0000   1.0000   1.0000   1.0000   1.0000
     1.0000   1.0000   1.0000   1.0000   0.0000   0.0000   0.0000   0.0000

          k =-0.5025 0.2500-0.5025 ( 12010 PWs)   bands (ev):

   -53.7524 -33.6441 -29.9828 -29.9808 -29.9805 -14.9212 -14.9190 -14.8947
    -6.8143  -6.6583  -6.6359   1.4188   1.5853   2.0052   2.0166   3.3773
     3.4922   4.2152   4.2188   4.6402   4.7919   4.8021   5.2333   5.2368

     occupation numbers 
     1.0000   1.0000   1.0000   1.0000   1.0000   1.0000   1.0000   1.0000
     1.0000   1.0000   1.0000   1.0000   1.0000   1.0000   1.0000   1.0000
     1.0000   1.0000   1.0000   0.9996   0.0000   0.0000   0.0000   0.0000

          k =-0.5025-0.5000-0.5025 ( 11988 PWs)   bands (ev):

   -53.7524 -33.6440 -29.9828 -29.9808 -29.9805 -14.9206 -14.9202 -14.9183
    -6.6473  -6.6387  -6.6249   1.2252   1.6096   1.6167   1.6228   3.3869
     3.3890   4.7460   4.7478   4.7491   4.8003   4.8024   5.1862   5.1952

     occupation numbers 
     1.0000   1.0000   1.0000   1.0000   1.0000   1.0000   1.0000   1.0000
     1.0000   1.0000   1.0000   1.0000   1.0000   1.0000   1.0000   1.0000
     1.0000   0.0171   0.0136   0.0114   0.0000   0.0000   0.0000   0.0000

     the Fermi energy is     4.7053 ev

!    total energy              =    -885.11314173 Ry
     total all-electron energy =    -17648.892439 Ry
     estimated scf accuracy    <          9.1E-12 Ry
     smearing contrib. (-TS)   =      -0.00047360 Ry
     internal energy E=F+TS    =    -885.11266813 Ry

     The total energy is F=E-TS. E is the sum of the following terms:
     one-electron contribution =    -106.61418627 Ry
     hartree contribution      =      65.56089586 Ry
     xc contribution           =     -49.77515662 Ry
     ewald contribution        =    -160.67218786 Ry
     one-center paw contrib.   =    -633.61203324 Ry
      -> PAW hartree energy AE =      48.04550723 Ry
      -> PAW hartree energy PS =     -47.82310754 Ry
      -> PAW xc energy AE      =     -71.56355348 Ry
      -> PAW xc energy PS      =      11.35443349 Ry
      -> total E_H with PAW    =      65.78329554 Ry
      -> total E_XC with PAW   =    -109.98427661 Ry

     convergence has been achieved in  44 iterations


     Computing stress (Cartesian axis) and pressure

          total   stress  (Ry/bohr**3)                   (kbar)     P=       -1.86
  -0.00001191   0.00000000  -0.00002032           -1.75        0.00       -2.99
   0.00000000  -0.00001411   0.00000000            0.00       -2.08        0.00
  -0.00002032   0.00000000  -0.00001191           -2.99        0.00       -1.75

     kinetic stress (kbar)   9056.94      0.00     -6.06
                                0.00   9056.25      0.00
                               -6.06      0.00   9056.94

     local   stress (kbar)  -3455.07      0.00    -24.01
                                0.00  -3454.34     -0.00
                              -24.01     -0.00  -3455.07

     nonloc. stress (kbar)   1205.80      0.00      0.21
                                0.00   1205.77      0.00
                                0.21      0.00   1205.80

     hartree stress (kbar)   3236.10     -0.00     12.42
                               -0.00   3235.88     -0.00
                               12.42     -0.00   3236.10

     exc-cor stress (kbar)   -161.97      0.00      0.02
                                0.00   -161.97     -0.00
                                0.02     -0.00   -161.97

     corecor stress (kbar)  -1952.97     -0.00      0.22
                               -0.00  -1952.94     -0.00
                                0.22     -0.00  -1952.97

     ewald   stress (kbar)  -7930.58     -0.00     14.21
                               -0.00  -7930.73      0.00
                               14.21      0.00  -7930.58

     hubbard stress (kbar)      0.00      0.00      0.00
                                0.00      0.00      0.00
                                0.00      0.00      0.00

     DFT-D   stress (kbar)      0.00      0.00      0.00
                                0.00      0.00      0.00
                                0.00      0.00      0.00

     XDM     stress (kbar)      0.00      0.00      0.00
                                0.00      0.00      0.00
                                0.00      0.00      0.00

     dft-nl  stress (kbar)      0.00      0.00      0.00
                                0.00      0.00      0.00
                                0.00      0.00      0.00

     TS-vdW  stress (kbar)      0.00      0.00      0.00
                                0.00      0.00      0.00
                                0.00      0.00      0.00

     MDB     stress (kbar)      0.00      0.00      0.00
                                0.00      0.00      0.00
                                0.00      0.00      0.00

     3D-RISM stress (kbar)      0.00      0.00      0.00
                                0.00      0.00      0.00
                                0.00      0.00      0.00


     Writing all to output data dir ./tmp_elastic_XZm/catis3_elastic_XZm.save/ :
     XML data file, charge density, pseudopotentials, collected wavefunctions

     init_run     :     11.66s CPU     11.61s WALL (       1 calls)
     electrons    :   1678.06s CPU   1694.94s WALL (       1 calls)
     stress       :     11.11s CPU      9.79s WALL (       1 calls)

     Called by init_run:
     wfcinit      :      9.75s CPU      9.50s WALL (       1 calls)
     wfcinit:atom :      0.04s CPU      0.02s WALL (      21 calls)
     wfcinit:wfcr :      9.46s CPU      9.30s WALL (      21 calls)
     potinit      :      0.46s CPU      0.47s WALL (       1 calls)
     hinit0       :      0.31s CPU      0.32s WALL (       1 calls)

     Called by electrons:
     c_bands      :   1539.16s CPU   1562.56s WALL (      44 calls)
     sum_band     :     88.32s CPU     78.84s WALL (      44 calls)
     v_of_rho     :      4.38s CPU      3.73s WALL (      45 calls)
     v_h          :      0.21s CPU      0.22s WALL (      45 calls)
     v_xc         :      4.23s CPU      3.58s WALL (      46 calls)
     newd         :     40.20s CPU     44.20s WALL (      45 calls)
     PAW_pot      :      5.24s CPU      5.29s WALL (      45 calls)
     mix_rho      :      1.21s CPU      0.96s WALL (      44 calls)

     Called by c_bands:
     init_us_2    :      5.65s CPU      4.56s WALL (    1890 calls)
     cegterg      :   1423.11s CPU   1449.84s WALL (     924 calls)

     Called by sum_band:
     sum_band:wei :      0.10s CPU      0.13s WALL (      44 calls)
     sum_band:loo :     37.46s CPU     28.37s WALL (      44 calls)
     sum_band:buf :      0.43s CPU      0.31s WALL (     924 calls)
     sum_band:ini :      3.03s CPU      2.16s WALL (     924 calls)
     sum_band:cal :      3.59s CPU      2.17s WALL (     924 calls)
     sum_band:bec :      0.06s CPU      0.04s WALL (     924 calls)
     addusdens    :     41.12s CPU     42.29s WALL (      44 calls)
                                        0.00s GPU  (      44 calls)
     addusd:skk   :      0.07s CPU      0.17s WALL (     132 calls)
                                        0.00s GPU  (     132 calls)

     Called by *egterg:
     cdiaghg      :    101.95s CPU     95.88s WALL (    3734 calls)
     cegterg:over :    474.24s CPU    471.48s WALL (    2810 calls)
     cegterg:upda :     29.62s CPU     48.60s WALL (    2810 calls)
     cegterg:last :     25.01s CPU     37.88s WALL (    1597 calls)
     h_psi        :    300.16s CPU    316.85s WALL (    3755 calls)
     s_psi        :     14.90s CPU     19.51s WALL (    3755 calls)
     g_psi        :      0.83s CPU      0.59s WALL (    2810 calls)

     Called by h_psi:
     h_psi:calbec :    103.08s CPU    108.21s WALL (    3755 calls)
     vloc_psi     :    164.17s CPU    150.52s WALL (    3755 calls)
     add_vuspsi   :     32.42s CPU     57.54s WALL (    3755 calls)

     General routines
     calbec       :    107.04s CPU    110.58s WALL (    4700 calls)
     fft          :      2.66s CPU      2.45s WALL (     597 calls)
     ffts         :      0.40s CPU      0.37s WALL (      89 calls)
     fftw         :    174.78s CPU    156.68s WALL (  124750 calls)
     interpolate  :      0.43s CPU      0.45s WALL (      45 calls)

     Parallel routines

     PAW routines
     PAW_pot      :      5.24s CPU      5.29s WALL (      45 calls)
     PAW_symme    :      0.02s CPU      0.02s WALL (      89 calls)

     PWSCF        :  28m21.38s CPU  28m37.08s WALL


   This run was terminated on:  11:23:55  15Apr2025            

=------------------------------------------------------------------------------=
   JOB DONE.
=------------------------------------------------------------------------------=
