
     Program PWSCF v.7.3.1 starts on 14Apr2025 at 15: 7:20 

     This program is part of the open-source Quantum ESPRESSO suite
     for quantum simulation of materials; please cite
         "P. Giannozzi et al., J. Phys.:Condens. Matter 21 395502 (2009);
         "P. Giannozzi et al., J. Phys.:Condens. Matter 29 465901 (2017);
         "P. Giannozzi et al., J. Chem. Phys. 152 154105 (2020);
          URL http://www.quantum-espresso.org", 
     in publications or presentations arising from this work. More details at
     http://www.quantum-espresso.org/quote

     Parallel version (MPI), running on     8 processors

     MPI processes distributed on     1 nodes
     59423 MiB available memory on the printing compute node when the environment starts

     Waiting for input...
     Reading input from standard input

     Current dimensions of program PWSCF are:
     Max number of different atomic species (ntypx) = 10
     Max number of k-points (npk) =  40000
     Max angular momentum in pseudopotentials (lmaxx) =  4
     file Ca.pbe-spn-kjpaw_psl.1.0.0.UPF: wavefunction(s)  3S renormalized
     file Ti.pbe-spn-kjpaw_psl.1.0.0.UPF: wavefunction(s)  3S 3P 3D renormalized
     file Se.pbe-n-kjpaw_psl.1.0.0.UPF: wavefunction(s)  4S renormalized

     IMPORTANT: XC functional enforced from input :
     Exchange-correlation= PBE
                           (   1   4   3   4   0   0   0)
     Any further DFT definition will be discarded
     Please, verify this is what you really want

     Message from routine setup:
     using ibrav=0 with symmetry is DISCOURAGED, use correct ibrav instead

     R & G space division:  proc/nbgrp/npool/nimage =       8
     Subspace diagonalization in iterative solution of the eigenvalue problem:
     a serial algorithm will be used


     Parallelization info
     --------------------
     sticks:   dense  smooth     PW     G-vecs:    dense   smooth      PW
     Min         637     319     90                34125    12079    1798
     Max         638     320     91                34128    12080    1800
     Sum        5097    2553    721               273009    96633   14387

     Using Slab Decomposition



     bravais-lattice index     =            0
     lattice parameter (alat)  =       9.9782  a.u.
     unit-cell volume          =     998.4272 (a.u.)^3
     number of atoms/cell      =            5
     number of atomic types    =            3
     number of electrons       =        40.00
     number of Kohn-Sham states=           24
     kinetic-energy cutoff     =      80.0000  Ry
     charge density cutoff     =     640.0000  Ry
     scf convergence threshold =      1.0E-10
     mixing beta               =       0.3000
     number of iterations used =            8  plain     mixing
     Exchange-correlation= PBE
                           (   1   4   3   4   0   0   0)

     celldm(1)=   9.978152  celldm(2)=   0.000000  celldm(3)=   0.000000
     celldm(4)=   0.000000  celldm(5)=   0.000000  celldm(6)=   0.000000

     crystal axes: (cart. coord. in units of alat)
               a(1) = (   1.000000   0.000000   0.000000 )  
               a(2) = (   0.000000   1.005000   0.000000 )  
               a(3) = (   0.000000   0.000000   1.000000 )  

     reciprocal axes: (cart. coord. in units 2 pi/alat)
               b(1) = (  1.000000  0.000000  0.000000 )  
               b(2) = (  0.000000  0.995025  0.000000 )  
               b(3) = (  0.000000  0.000000  1.000000 )  


     PseudoPot. # 1 for Ca read from file:
     /home/administrator/Downloads/BURAI/BURAI1.3/pseudopot/Ca.pbe-spn-kjpaw_psl.1.0.0.UPF
     MD5 check sum: b518bfa21c8e9f1b10ff1c7131b15729
     Pseudo is Projector augmented-wave + core cor, Zval = 10.0
     Generated using "atomic" code by A. Dal Corso  v.5.1.2
     Shape of augmentation charge: PSQ
     Using radial grid of 1169 points,  6 beta functions with: 
                l(1) =   0
                l(2) =   0
                l(3) =   1
                l(4) =   1
                l(5) =   2
                l(6) =   2
     Q(r) pseudized with 0 coefficients 


     PseudoPot. # 2 for Ti read from file:
     /home/administrator/Downloads/BURAI/BURAI1.3/pseudopot/Ti.pbe-spn-kjpaw_psl.1.0.0.UPF
     MD5 check sum: ea6c0241539b3211983c246a8902380f
     Pseudo is Projector augmented-wave + core cor, Zval = 12.0
     Generated using "atomic" code by A. Dal Corso  v.5.1.2
     Shape of augmentation charge: PSQ
     Using radial grid of 1177 points,  6 beta functions with: 
                l(1) =   0
                l(2) =   0
                l(3) =   1
                l(4) =   1
                l(5) =   2
                l(6) =   2
     Q(r) pseudized with 0 coefficients 


     PseudoPot. # 3 for Se read from file:
     /home/administrator/Downloads/BURAI/BURAI1.3/pseudopot/Se.pbe-n-kjpaw_psl.1.0.0.UPF
     MD5 check sum: a24196f260b4188fa853fb27ef2f7c98
     Pseudo is Projector augmented-wave + core cor, Zval =  6.0
     Generated using "atomic" code by A. Dal Corso  v.5.1.2
     Shape of augmentation charge: PSQ
     Using radial grid of 1211 points,  4 beta functions with: 
                l(1) =   0
                l(2) =   0
                l(3) =   1
                l(4) =   1
     Q(r) pseudized with 0 coefficients 


     atomic species   valence    mass     pseudopotential
     Ca               10.00    40.07800     Ca( 1.00)
     Ti               12.00    47.86700     Ti( 1.00)
     Se                6.00    78.97100     Se( 1.00)

     16 Sym. Ops., with inversion, found


                                    s                        frac. trans.

      isym =  1     identity                                     

 cryst.   s( 1) = (     1          0          0      )
                  (     0          1          0      )
                  (     0          0          1      )

 cart.    s( 1) = (  1.0000000  0.0000000  0.0000000 )
                  (  0.0000000  1.0000000  0.0000000 )
                  (  0.0000000  0.0000000  1.0000000 )


      isym =  2     180 deg rotation - cart. axis [0,0,1]        

 cryst.   s( 2) = (    -1          0          0      )
                  (     0         -1          0      )
                  (     0          0          1      )

 cart.    s( 2) = ( -1.0000000  0.0000000  0.0000000 )
                  (  0.0000000 -1.0000000  0.0000000 )
                  (  0.0000000  0.0000000  1.0000000 )


      isym =  3     180 deg rotation - cart. axis [0,1,0]        

 cryst.   s( 3) = (    -1          0          0      )
                  (     0          1          0      )
                  (     0          0         -1      )

 cart.    s( 3) = ( -1.0000000  0.0000000  0.0000000 )
                  (  0.0000000  1.0000000  0.0000000 )
                  (  0.0000000  0.0000000 -1.0000000 )


      isym =  4     180 deg rotation - cart. axis [1,0,0]        

 cryst.   s( 4) = (     1          0          0      )
                  (     0         -1          0      )
                  (     0          0         -1      )

 cart.    s( 4) = (  1.0000000  0.0000000  0.0000000 )
                  (  0.0000000 -1.0000000  0.0000000 )
                  (  0.0000000  0.0000000 -1.0000000 )


      isym =  5     180 deg rotation - cart. axis [1,0,1]        

 cryst.   s( 5) = (     0          0          1      )
                  (     0         -1          0      )
                  (     1          0          0      )

 cart.    s( 5) = (  0.0000000  0.0000000  1.0000000 )
                  (  0.0000000 -1.0000000  0.0000000 )
                  (  1.0000000  0.0000000  0.0000000 )


      isym =  6     180 deg rotation - cart. axis [-1,0,1]       

 cryst.   s( 6) = (     0          0         -1      )
                  (     0         -1          0      )
                  (    -1          0          0      )

 cart.    s( 6) = (  0.0000000  0.0000000 -1.0000000 )
                  (  0.0000000 -1.0000000  0.0000000 )
                  ( -1.0000000  0.0000000  0.0000000 )


      isym =  7      90 deg rotation - cart. axis [0,1,0]        

 cryst.   s( 7) = (     0          0         -1      )
                  (     0          1          0      )
                  (     1          0          0      )

 cart.    s( 7) = (  0.0000000  0.0000000  1.0000000 )
                  (  0.0000000  1.0000000  0.0000000 )
                  ( -1.0000000  0.0000000  0.0000000 )


      isym =  8      90 deg rotation - cart. axis [0,-1,0]       

 cryst.   s( 8) = (     0          0          1      )
                  (     0          1          0      )
                  (    -1          0          0      )

 cart.    s( 8) = (  0.0000000  0.0000000 -1.0000000 )
                  (  0.0000000  1.0000000  0.0000000 )
                  (  1.0000000  0.0000000  0.0000000 )


      isym =  9     inversion                                    

 cryst.   s( 9) = (    -1          0          0      )
                  (     0         -1          0      )
                  (     0          0         -1      )

 cart.    s( 9) = ( -1.0000000  0.0000000  0.0000000 )
                  (  0.0000000 -1.0000000  0.0000000 )
                  (  0.0000000  0.0000000 -1.0000000 )


      isym = 10     inv. 180 deg rotation - cart. axis [0,0,1]   

 cryst.   s(10) = (     1          0          0      )
                  (     0          1          0      )
                  (     0          0         -1      )

 cart.    s(10) = (  1.0000000  0.0000000  0.0000000 )
                  (  0.0000000  1.0000000  0.0000000 )
                  (  0.0000000  0.0000000 -1.0000000 )


      isym = 11     inv. 180 deg rotation - cart. axis [0,1,0]   

 cryst.   s(11) = (     1          0          0      )
                  (     0         -1          0      )
                  (     0          0          1      )

 cart.    s(11) = (  1.0000000  0.0000000  0.0000000 )
                  (  0.0000000 -1.0000000  0.0000000 )
                  (  0.0000000  0.0000000  1.0000000 )


      isym = 12     inv. 180 deg rotation - cart. axis [1,0,0]   

 cryst.   s(12) = (    -1          0          0      )
                  (     0          1          0      )
                  (     0          0          1      )

 cart.    s(12) = ( -1.0000000  0.0000000  0.0000000 )
                  (  0.0000000  1.0000000  0.0000000 )
                  (  0.0000000  0.0000000  1.0000000 )


      isym = 13     inv. 180 deg rotation - cart. axis [1,0,1]   

 cryst.   s(13) = (     0          0         -1      )
                  (     0          1          0      )
                  (    -1          0          0      )

 cart.    s(13) = (  0.0000000  0.0000000 -1.0000000 )
                  (  0.0000000  1.0000000  0.0000000 )
                  ( -1.0000000  0.0000000  0.0000000 )


      isym = 14     inv. 180 deg rotation - cart. axis [-1,0,1]  

 cryst.   s(14) = (     0          0          1      )
                  (     0          1          0      )
                  (     1          0          0      )

 cart.    s(14) = (  0.0000000  0.0000000  1.0000000 )
                  (  0.0000000  1.0000000  0.0000000 )
                  (  1.0000000  0.0000000  0.0000000 )


      isym = 15     inv.  90 deg rotation - cart. axis [0,1,0]   

 cryst.   s(15) = (     0          0          1      )
                  (     0         -1          0      )
                  (    -1          0          0      )

 cart.    s(15) = (  0.0000000  0.0000000 -1.0000000 )
                  (  0.0000000 -1.0000000  0.0000000 )
                  (  1.0000000  0.0000000  0.0000000 )


      isym = 16     inv.  90 deg rotation - cart. axis [0,-1,0]  

 cryst.   s(16) = (     0          0         -1      )
                  (     0         -1          0      )
                  (     1          0          0      )

 cart.    s(16) = (  0.0000000  0.0000000  1.0000000 )
                  (  0.0000000 -1.0000000  0.0000000 )
                  ( -1.0000000  0.0000000  0.0000000 )


   Cartesian axes

     site n.     atom                  positions (alat units)
         1        Ca     tau(   1) = (   0.0000000   0.0000000   0.0000000  )
         2        Ti     tau(   2) = (   0.5000000   0.5025000   0.5000000  )
         3        Se     tau(   3) = (   0.5000000   0.0000000   0.0000000  )
         4        Se     tau(   4) = (   0.0000000   0.5025000   0.0000000  )
         5        Se     tau(   5) = (   0.0000000   0.0000000   0.5000000  )

   Crystallographic axes

     site n.     atom                  positions (cryst. coord.)
         1        Ca     tau(   1) = (  0.0000000  0.0000000  0.0000000  )
         2        Ti     tau(   2) = (  0.5000000  0.5000000  0.5000000  )
         3        Se     tau(   3) = (  0.5000000  0.0000000  0.0000000  )
         4        Se     tau(   4) = (  0.0000000  0.5000000  0.0000000  )
         5        Se     tau(   5) = (  0.0000000  0.0000000  0.5000000  )

     number of k points=    18  Gaussian smearing, width (Ry)=  0.0020
                       cart. coord. in units 2pi/alat
        k(    1) = (   0.0000000   0.0000000   0.0000000), wk =   0.0312500
        k(    2) = (   0.0000000   0.0000000   0.2500000), wk =   0.1250000
        k(    3) = (   0.0000000   0.0000000  -0.5000000), wk =   0.0625000
        k(    4) = (   0.0000000   0.2487562   0.0000000), wk =   0.0625000
        k(    5) = (   0.0000000   0.2487562   0.2500000), wk =   0.2500000
        k(    6) = (   0.0000000   0.2487562  -0.5000000), wk =   0.1250000
        k(    7) = (   0.0000000  -0.4975124   0.0000000), wk =   0.0312500
        k(    8) = (   0.0000000  -0.4975124   0.2500000), wk =   0.1250000
        k(    9) = (   0.0000000  -0.4975124  -0.5000000), wk =   0.0625000
        k(   10) = (   0.2500000   0.0000000   0.2500000), wk =   0.1250000
        k(   11) = (   0.2500000   0.0000000  -0.5000000), wk =   0.1250000
        k(   12) = (   0.2500000   0.2487562   0.2500000), wk =   0.2500000
        k(   13) = (   0.2500000   0.2487562  -0.5000000), wk =   0.2500000
        k(   14) = (   0.2500000  -0.4975124   0.2500000), wk =   0.1250000
        k(   15) = (   0.2500000  -0.4975124  -0.5000000), wk =   0.1250000
        k(   16) = (  -0.5000000   0.0000000  -0.5000000), wk =   0.0312500
        k(   17) = (  -0.5000000   0.2487562  -0.5000000), wk =   0.0625000
        k(   18) = (  -0.5000000  -0.4975124  -0.5000000), wk =   0.0312500

                       cryst. coord.
        k(    1) = (   0.0000000   0.0000000   0.0000000), wk =   0.0312500
        k(    2) = (   0.0000000   0.0000000   0.2500000), wk =   0.1250000
        k(    3) = (   0.0000000   0.0000000  -0.5000000), wk =   0.0625000
        k(    4) = (   0.0000000   0.2500000   0.0000000), wk =   0.0625000
        k(    5) = (   0.0000000   0.2500000   0.2500000), wk =   0.2500000
        k(    6) = (   0.0000000   0.2500000  -0.5000000), wk =   0.1250000
        k(    7) = (   0.0000000  -0.5000000   0.0000000), wk =   0.0312500
        k(    8) = (   0.0000000  -0.5000000   0.2500000), wk =   0.1250000
        k(    9) = (   0.0000000  -0.5000000  -0.5000000), wk =   0.0625000
        k(   10) = (   0.2500000   0.0000000   0.2500000), wk =   0.1250000
        k(   11) = (   0.2500000   0.0000000  -0.5000000), wk =   0.1250000
        k(   12) = (   0.2500000   0.2500000   0.2500000), wk =   0.2500000
        k(   13) = (   0.2500000   0.2500000  -0.5000000), wk =   0.2500000
        k(   14) = (   0.2500000  -0.5000000   0.2500000), wk =   0.1250000
        k(   15) = (   0.2500000  -0.5000000  -0.5000000), wk =   0.1250000
        k(   16) = (  -0.5000000   0.0000000  -0.5000000), wk =   0.0312500
        k(   17) = (  -0.5000000   0.2500000  -0.5000000), wk =   0.0625000
        k(   18) = (  -0.5000000  -0.5000000  -0.5000000), wk =   0.0312500

     Dense  grid:   273009 G-vectors     FFT dimensions: (  81,  81,  81)

     Smooth grid:    96633 G-vectors     FFT dimensions: (  60,  60,  60)

     Dynamical RAM for                 wfc:       0.55 MB

     Dynamical RAM for     wfc (w. buffer):      10.49 MB

     Dynamical RAM for           str. fact:       1.56 MB

     Dynamical RAM for           local pot:       0.00 MB

     Dynamical RAM for          nlocal pot:       1.38 MB

     Dynamical RAM for                qrad:       6.09 MB

     Dynamical RAM for          rho,v,vnew:       3.21 MB

     Dynamical RAM for               rhoin:       1.07 MB

     Dynamical RAM for            rho*nmix:       8.33 MB

     Dynamical RAM for           G-vectors:       2.04 MB

     Dynamical RAM for          h,s,v(r/c):       0.11 MB

     Dynamical RAM for          <psi|beta>:       0.02 MB

     Dynamical RAM for                 psi:       1.10 MB

     Dynamical RAM for                hpsi:       1.10 MB

     Dynamical RAM for                spsi:       1.10 MB

     Dynamical RAM for      wfcinit/wfcrot:       1.40 MB

     Dynamical RAM for           addusdens:      98.42 MB

     Dynamical RAM for         addusstress:     104.67 MB

     Estimated static dynamical RAM per process >      30.69 MB

     Estimated max dynamical RAM per process >     143.69 MB

     Estimated total dynamical RAM >       1.12 GB

     Initial potential from superposition of free atoms

     starting charge      39.9934, renormalised to      40.0000
     Starting wfcs are   30 randomized atomic wfcs
     Checking if some PAW data can be deallocated... 
       PAW data deallocated on    6 nodes for type:  1
       PAW data deallocated on    6 nodes for type:  2
       PAW data deallocated on    4 nodes for type:  3

     total cpu time spent up to now is       10.6 secs

     Self-consistent Calculation

     iteration #  1     ecut=    80.00 Ry     beta= 0.30
     Davidson diagonalization with overlap

---- Real-time Memory Report at c_bands before calling an iterative solver
           150 MiB given to the printing process from OS
             0 MiB allocation reported by mallinfo(arena+hblkhd)
         58718 MiB available memory on the node where the printing process lives
------------------
     ethr =  1.00E-02,  avg # of iterations =  2.0

     total cpu time spent up to now is       34.9 secs

     total energy              =    -884.10982126 Ry
     estimated scf accuracy    <       2.82203479 Ry

     iteration #  2     ecut=    80.00 Ry     beta= 0.30
     Davidson diagonalization with overlap

---- Real-time Memory Report at c_bands before calling an iterative solver
           184 MiB given to the printing process from OS
             0 MiB allocation reported by mallinfo(arena+hblkhd)
         58033 MiB available memory on the node where the printing process lives
------------------
     ethr =  7.06E-03,  avg # of iterations =  2.3

     total cpu time spent up to now is       60.9 secs

     total energy              =    -884.08956096 Ry
     estimated scf accuracy    <      23.47459366 Ry

     iteration #  3     ecut=    80.00 Ry     beta= 0.30
     Davidson diagonalization with overlap

---- Real-time Memory Report at c_bands before calling an iterative solver
           185 MiB given to the printing process from OS
             0 MiB allocation reported by mallinfo(arena+hblkhd)
         57762 MiB available memory on the node where the printing process lives
------------------
     ethr =  7.06E-03,  avg # of iterations =  1.7

     total cpu time spent up to now is       83.3 secs

     total energy              =    -884.97672879 Ry
     estimated scf accuracy    <       0.93489422 Ry

     iteration #  4     ecut=    80.00 Ry     beta= 0.30
     Davidson diagonalization with overlap

---- Real-time Memory Report at c_bands before calling an iterative solver
           186 MiB given to the printing process from OS
             0 MiB allocation reported by mallinfo(arena+hblkhd)
         57815 MiB available memory on the node where the printing process lives
------------------
     ethr =  2.34E-03,  avg # of iterations =  1.6

     total cpu time spent up to now is      106.5 secs

     total energy              =    -885.09795912 Ry
     estimated scf accuracy    <       1.60149793 Ry

     iteration #  5     ecut=    80.00 Ry     beta= 0.30
     Davidson diagonalization with overlap

---- Real-time Memory Report at c_bands before calling an iterative solver
           186 MiB given to the printing process from OS
             0 MiB allocation reported by mallinfo(arena+hblkhd)
         57996 MiB available memory on the node where the printing process lives
------------------
     ethr =  2.34E-03,  avg # of iterations =  1.2

     total cpu time spent up to now is      125.9 secs

     total energy              =    -885.08075795 Ry
     estimated scf accuracy    <       1.01776825 Ry

     iteration #  6     ecut=    80.00 Ry     beta= 0.30
     Davidson diagonalization with overlap

---- Real-time Memory Report at c_bands before calling an iterative solver
           186 MiB given to the printing process from OS
             0 MiB allocation reported by mallinfo(arena+hblkhd)
         58064 MiB available memory on the node where the printing process lives
------------------
     ethr =  2.34E-03,  avg # of iterations =  1.0

     total cpu time spent up to now is      143.4 secs

     total energy              =    -885.09124525 Ry
     estimated scf accuracy    <       0.05228279 Ry

     iteration #  7     ecut=    80.00 Ry     beta= 0.30
     Davidson diagonalization with overlap

---- Real-time Memory Report at c_bands before calling an iterative solver
           187 MiB given to the printing process from OS
             0 MiB allocation reported by mallinfo(arena+hblkhd)
         57774 MiB available memory on the node where the printing process lives
------------------
     ethr =  1.31E-04,  avg # of iterations =  8.1

     total cpu time spent up to now is      213.9 secs

     total energy              =    -885.07957852 Ry
     estimated scf accuracy    <       0.43197129 Ry

     iteration #  8     ecut=    80.00 Ry     beta= 0.30
     Davidson diagonalization with overlap

---- Real-time Memory Report at c_bands before calling an iterative solver
           187 MiB given to the printing process from OS
             0 MiB allocation reported by mallinfo(arena+hblkhd)
         57986 MiB available memory on the node where the printing process lives
------------------
     ethr =  1.31E-04,  avg # of iterations =  6.1

     total cpu time spent up to now is      272.1 secs

     total energy              =    -885.11399769 Ry
     estimated scf accuracy    <       0.26919219 Ry

     iteration #  9     ecut=    80.00 Ry     beta= 0.30
     Davidson diagonalization with overlap

---- Real-time Memory Report at c_bands before calling an iterative solver
           188 MiB given to the printing process from OS
             0 MiB allocation reported by mallinfo(arena+hblkhd)
         58105 MiB available memory on the node where the printing process lives
------------------
     ethr =  1.31E-04,  avg # of iterations =  2.6

     total cpu time spent up to now is      301.3 secs

     total energy              =    -885.14934308 Ry
     estimated scf accuracy    <       1.54890271 Ry

     iteration # 10     ecut=    80.00 Ry     beta= 0.30
     Davidson diagonalization with overlap

---- Real-time Memory Report at c_bands before calling an iterative solver
           188 MiB given to the printing process from OS
             0 MiB allocation reported by mallinfo(arena+hblkhd)
         57707 MiB available memory on the node where the printing process lives
------------------
     ethr =  1.31E-04,  avg # of iterations =  1.2

     total cpu time spent up to now is      320.7 secs

     total energy              =    -885.11750034 Ry
     estimated scf accuracy    <       1.17598480 Ry

     iteration # 11     ecut=    80.00 Ry     beta= 0.30
     Davidson diagonalization with overlap

---- Real-time Memory Report at c_bands before calling an iterative solver
           188 MiB given to the printing process from OS
             0 MiB allocation reported by mallinfo(arena+hblkhd)
         58094 MiB available memory on the node where the printing process lives
------------------
     ethr =  1.31E-04,  avg # of iterations =  1.1

     total cpu time spent up to now is      338.9 secs

     total energy              =    -885.11642808 Ry
     estimated scf accuracy    <       0.11268669 Ry

     iteration # 12     ecut=    80.00 Ry     beta= 0.30
     Davidson diagonalization with overlap

---- Real-time Memory Report at c_bands before calling an iterative solver
           188 MiB given to the printing process from OS
             0 MiB allocation reported by mallinfo(arena+hblkhd)
         57806 MiB available memory on the node where the printing process lives
------------------
     ethr =  1.31E-04,  avg # of iterations =  2.1

     total cpu time spent up to now is      365.0 secs

     total energy              =    -885.09092694 Ry
     estimated scf accuracy    <       0.79989612 Ry

     iteration # 13     ecut=    80.00 Ry     beta= 0.30
     Davidson diagonalization with overlap

---- Real-time Memory Report at c_bands before calling an iterative solver
           189 MiB given to the printing process from OS
             0 MiB allocation reported by mallinfo(arena+hblkhd)
         57971 MiB available memory on the node where the printing process lives
------------------
     ethr =  1.31E-04,  avg # of iterations =  2.7

     total cpu time spent up to now is      395.8 secs

     total energy              =    -885.11154854 Ry
     estimated scf accuracy    <       0.00632051 Ry

     iteration # 14     ecut=    80.00 Ry     beta= 0.30
     Davidson diagonalization with overlap

---- Real-time Memory Report at c_bands before calling an iterative solver
           189 MiB given to the printing process from OS
             0 MiB allocation reported by mallinfo(arena+hblkhd)
         57858 MiB available memory on the node where the printing process lives
------------------
     ethr =  1.58E-05,  avg # of iterations =  6.7

     total cpu time spent up to now is      455.3 secs

     total energy              =    -885.11304709 Ry
     estimated scf accuracy    <       0.01670281 Ry

     iteration # 15     ecut=    80.00 Ry     beta= 0.30
     Davidson diagonalization with overlap

---- Real-time Memory Report at c_bands before calling an iterative solver
           189 MiB given to the printing process from OS
             0 MiB allocation reported by mallinfo(arena+hblkhd)
         57894 MiB available memory on the node where the printing process lives
------------------
     ethr =  1.58E-05,  avg # of iterations =  1.2

     total cpu time spent up to now is      474.7 secs

     total energy              =    -885.11080193 Ry
     estimated scf accuracy    <       0.01430599 Ry

     iteration # 16     ecut=    80.00 Ry     beta= 0.30
     Davidson diagonalization with overlap

---- Real-time Memory Report at c_bands before calling an iterative solver
           189 MiB given to the printing process from OS
             0 MiB allocation reported by mallinfo(arena+hblkhd)
         57730 MiB available memory on the node where the printing process lives
------------------
     ethr =  1.58E-05,  avg # of iterations =  5.3

     total cpu time spent up to now is      523.7 secs

     total energy              =    -885.11349675 Ry
     estimated scf accuracy    <       0.01000729 Ry

     iteration # 17     ecut=    80.00 Ry     beta= 0.30
     Davidson diagonalization with overlap

---- Real-time Memory Report at c_bands before calling an iterative solver
           189 MiB given to the printing process from OS
             0 MiB allocation reported by mallinfo(arena+hblkhd)
         57978 MiB available memory on the node where the printing process lives
------------------
     ethr =  1.58E-05,  avg # of iterations =  1.3

     total cpu time spent up to now is      544.0 secs

     total energy              =    -885.11448728 Ry
     estimated scf accuracy    <       0.00422299 Ry

     iteration # 18     ecut=    80.00 Ry     beta= 0.30
     Davidson diagonalization with overlap

---- Real-time Memory Report at c_bands before calling an iterative solver
           189 MiB given to the printing process from OS
             0 MiB allocation reported by mallinfo(arena+hblkhd)
         57885 MiB available memory on the node where the printing process lives
------------------
     ethr =  1.06E-05,  avg # of iterations =  1.2

     total cpu time spent up to now is      562.8 secs

     total energy              =    -885.11156173 Ry
     estimated scf accuracy    <       0.00609441 Ry

     iteration # 19     ecut=    80.00 Ry     beta= 0.30
     Davidson diagonalization with overlap

---- Real-time Memory Report at c_bands before calling an iterative solver
           189 MiB given to the printing process from OS
             0 MiB allocation reported by mallinfo(arena+hblkhd)
         57729 MiB available memory on the node where the printing process lives
------------------
     ethr =  1.06E-05,  avg # of iterations =  4.2

     total cpu time spent up to now is      607.3 secs

     total energy              =    -885.11287929 Ry
     estimated scf accuracy    <       0.00466412 Ry

     iteration # 20     ecut=    80.00 Ry     beta= 0.30
     Davidson diagonalization with overlap

---- Real-time Memory Report at c_bands before calling an iterative solver
           189 MiB given to the printing process from OS
             0 MiB allocation reported by mallinfo(arena+hblkhd)
         57928 MiB available memory on the node where the printing process lives
------------------
     ethr =  1.06E-05,  avg # of iterations =  2.2

     total cpu time spent up to now is      634.6 secs

     total energy              =    -885.11254203 Ry
     estimated scf accuracy    <       0.00173472 Ry

     iteration # 21     ecut=    80.00 Ry     beta= 0.30
     Davidson diagonalization with overlap

---- Real-time Memory Report at c_bands before calling an iterative solver
           189 MiB given to the printing process from OS
             0 MiB allocation reported by mallinfo(arena+hblkhd)
         57736 MiB available memory on the node where the printing process lives
------------------
     ethr =  4.34E-06,  avg # of iterations =  1.9

     total cpu time spent up to now is      658.8 secs

     total energy              =    -885.11275399 Ry
     estimated scf accuracy    <       0.00013681 Ry

     iteration # 22     ecut=    80.00 Ry     beta= 0.30
     Davidson diagonalization with overlap

---- Real-time Memory Report at c_bands before calling an iterative solver
           189 MiB given to the printing process from OS
             0 MiB allocation reported by mallinfo(arena+hblkhd)
         57873 MiB available memory on the node where the printing process lives
------------------
     ethr =  3.42E-07,  avg # of iterations =  6.2

     total cpu time spent up to now is      716.2 secs

     total energy              =    -885.11278287 Ry
     estimated scf accuracy    <       0.00009943 Ry

     iteration # 23     ecut=    80.00 Ry     beta= 0.30
     Davidson diagonalization with overlap

---- Real-time Memory Report at c_bands before calling an iterative solver
           189 MiB given to the printing process from OS
             0 MiB allocation reported by mallinfo(arena+hblkhd)
         57764 MiB available memory on the node where the printing process lives
------------------
     ethr =  2.49E-07,  avg # of iterations =  4.7

     total cpu time spent up to now is      763.3 secs

     total energy              =    -885.11281775 Ry
     estimated scf accuracy    <       0.00002823 Ry

     iteration # 24     ecut=    80.00 Ry     beta= 0.30
     Davidson diagonalization with overlap

---- Real-time Memory Report at c_bands before calling an iterative solver
           189 MiB given to the printing process from OS
             0 MiB allocation reported by mallinfo(arena+hblkhd)
         57854 MiB available memory on the node where the printing process lives
------------------
     ethr =  7.06E-08,  avg # of iterations =  4.9

     total cpu time spent up to now is      810.4 secs

     total energy              =    -885.11281994 Ry
     estimated scf accuracy    <       0.00001104 Ry

     iteration # 25     ecut=    80.00 Ry     beta= 0.30
     Davidson diagonalization with overlap

---- Real-time Memory Report at c_bands before calling an iterative solver
           189 MiB given to the printing process from OS
             0 MiB allocation reported by mallinfo(arena+hblkhd)
         57863 MiB available memory on the node where the printing process lives
------------------
     ethr =  2.76E-08,  avg # of iterations =  4.5

     total cpu time spent up to now is      855.9 secs

     total energy              =    -885.11282284 Ry
     estimated scf accuracy    <       0.00000114 Ry

     iteration # 26     ecut=    80.00 Ry     beta= 0.30
     Davidson diagonalization with overlap

---- Real-time Memory Report at c_bands before calling an iterative solver
           189 MiB given to the printing process from OS
             0 MiB allocation reported by mallinfo(arena+hblkhd)
         57947 MiB available memory on the node where the printing process lives
------------------
     c_bands:  1 eigenvalues not converged
     ethr =  2.86E-09,  avg # of iterations =  9.2

     total cpu time spent up to now is      932.1 secs

     total energy              =    -885.11286827 Ry
     estimated scf accuracy    <       0.00002552 Ry

     iteration # 27     ecut=    80.00 Ry     beta= 0.30
     Davidson diagonalization with overlap

---- Real-time Memory Report at c_bands before calling an iterative solver
           189 MiB given to the printing process from OS
             0 MiB allocation reported by mallinfo(arena+hblkhd)
         57843 MiB available memory on the node where the printing process lives
------------------
     c_bands:  1 eigenvalues not converged
     ethr =  2.86E-09,  avg # of iterations =  3.2

     total cpu time spent up to now is      965.2 secs

     total energy              =    -885.11290927 Ry
     estimated scf accuracy    <       0.00005298 Ry

     iteration # 28     ecut=    80.00 Ry     beta= 0.30
     Davidson diagonalization with overlap

---- Real-time Memory Report at c_bands before calling an iterative solver
           189 MiB given to the printing process from OS
             0 MiB allocation reported by mallinfo(arena+hblkhd)
         57751 MiB available memory on the node where the printing process lives
------------------
     ethr =  2.86E-09,  avg # of iterations =  2.0

     total cpu time spent up to now is      990.2 secs

     total energy              =    -885.11290909 Ry
     estimated scf accuracy    <       0.00006649 Ry

     iteration # 29     ecut=    80.00 Ry     beta= 0.30
     Davidson diagonalization with overlap

---- Real-time Memory Report at c_bands before calling an iterative solver
           189 MiB given to the printing process from OS
             0 MiB allocation reported by mallinfo(arena+hblkhd)
         58013 MiB available memory on the node where the printing process lives
------------------
     ethr =  2.86E-09,  avg # of iterations =  1.1

     total cpu time spent up to now is     1008.4 secs

     total energy              =    -885.11290918 Ry
     estimated scf accuracy    <       0.00007997 Ry

     iteration # 30     ecut=    80.00 Ry     beta= 0.30
     Davidson diagonalization with overlap

---- Real-time Memory Report at c_bands before calling an iterative solver
           189 MiB given to the printing process from OS
             0 MiB allocation reported by mallinfo(arena+hblkhd)
         57817 MiB available memory on the node where the printing process lives
------------------
     ethr =  2.86E-09,  avg # of iterations =  1.1

     total cpu time spent up to now is     1027.1 secs

     total energy              =    -885.11290911 Ry
     estimated scf accuracy    <       0.00006634 Ry

     iteration # 31     ecut=    80.00 Ry     beta= 0.30
     Davidson diagonalization with overlap

---- Real-time Memory Report at c_bands before calling an iterative solver
           189 MiB given to the printing process from OS
             0 MiB allocation reported by mallinfo(arena+hblkhd)
         57931 MiB available memory on the node where the printing process lives
------------------
     ethr =  2.86E-09,  avg # of iterations =  1.1

     total cpu time spent up to now is     1045.5 secs

     total energy              =    -885.11290938 Ry
     estimated scf accuracy    <       0.00007768 Ry

     iteration # 32     ecut=    80.00 Ry     beta= 0.30
     Davidson diagonalization with overlap

---- Real-time Memory Report at c_bands before calling an iterative solver
           189 MiB given to the printing process from OS
             0 MiB allocation reported by mallinfo(arena+hblkhd)
         58134 MiB available memory on the node where the printing process lives
------------------
     ethr =  2.86E-09,  avg # of iterations =  1.0

     total cpu time spent up to now is     1062.7 secs

     total energy              =    -885.11290924 Ry
     estimated scf accuracy    <       0.00005802 Ry

     iteration # 33     ecut=    80.00 Ry     beta= 0.30
     Davidson diagonalization with overlap

---- Real-time Memory Report at c_bands before calling an iterative solver
           189 MiB given to the printing process from OS
             0 MiB allocation reported by mallinfo(arena+hblkhd)
         57875 MiB available memory on the node where the printing process lives
------------------
     ethr =  2.86E-09,  avg # of iterations =  1.3

     total cpu time spent up to now is     1083.1 secs

     total energy              =    -885.11290934 Ry
     estimated scf accuracy    <       0.00006029 Ry

     iteration # 34     ecut=    80.00 Ry     beta= 0.30
     Davidson diagonalization with overlap

---- Real-time Memory Report at c_bands before calling an iterative solver
           189 MiB given to the printing process from OS
             0 MiB allocation reported by mallinfo(arena+hblkhd)
         57792 MiB available memory on the node where the printing process lives
------------------
     ethr =  2.86E-09,  avg # of iterations =  1.6

     total cpu time spent up to now is     1105.6 secs

     total energy              =    -885.11290925 Ry
     estimated scf accuracy    <       0.00006865 Ry

     iteration # 35     ecut=    80.00 Ry     beta= 0.30
     Davidson diagonalization with overlap

---- Real-time Memory Report at c_bands before calling an iterative solver
           189 MiB given to the printing process from OS
             0 MiB allocation reported by mallinfo(arena+hblkhd)
         57949 MiB available memory on the node where the printing process lives
------------------
     ethr =  2.86E-09,  avg # of iterations =  3.7

     total cpu time spent up to now is     1145.0 secs

     total energy              =    -885.11291018 Ry
     estimated scf accuracy    <       0.00001498 Ry

     iteration # 36     ecut=    80.00 Ry     beta= 0.30
     Davidson diagonalization with overlap

---- Real-time Memory Report at c_bands before calling an iterative solver
           189 MiB given to the printing process from OS
             0 MiB allocation reported by mallinfo(arena+hblkhd)
         57922 MiB available memory on the node where the printing process lives
------------------
     ethr =  2.86E-09,  avg # of iterations =  3.7

     total cpu time spent up to now is     1186.3 secs

     total energy              =    -885.11291099 Ry
     estimated scf accuracy    <       0.00000016 Ry

     iteration # 37     ecut=    80.00 Ry     beta= 0.30
     Davidson diagonalization with overlap

---- Real-time Memory Report at c_bands before calling an iterative solver
           189 MiB given to the printing process from OS
             0 MiB allocation reported by mallinfo(arena+hblkhd)
         57825 MiB available memory on the node where the printing process lives
------------------
     ethr =  4.12E-10,  avg # of iterations =  4.4

     total cpu time spent up to now is     1231.1 secs

     total energy              =    -885.11291102 Ry
     estimated scf accuracy    <       0.00000026 Ry

     iteration # 38     ecut=    80.00 Ry     beta= 0.30
     Davidson diagonalization with overlap

---- Real-time Memory Report at c_bands before calling an iterative solver
           189 MiB given to the printing process from OS
             0 MiB allocation reported by mallinfo(arena+hblkhd)
         58058 MiB available memory on the node where the printing process lives
------------------
     ethr =  4.12E-10,  avg # of iterations =  1.4

     total cpu time spent up to now is     1251.1 secs

     total energy              =    -885.11291104 Ry
     estimated scf accuracy    <       0.00000001 Ry

     iteration # 39     ecut=    80.00 Ry     beta= 0.30
     Davidson diagonalization with overlap

---- Real-time Memory Report at c_bands before calling an iterative solver
           189 MiB given to the printing process from OS
             0 MiB allocation reported by mallinfo(arena+hblkhd)
         58090 MiB available memory on the node where the printing process lives
------------------
     ethr =  3.51E-11,  avg # of iterations =  7.9

     total cpu time spent up to now is     1322.7 secs

     total energy              =    -885.11291106 Ry
     estimated scf accuracy    <          5.7E-09 Ry

     iteration # 40     ecut=    80.00 Ry     beta= 0.30
     Davidson diagonalization with overlap

---- Real-time Memory Report at c_bands before calling an iterative solver
           189 MiB given to the printing process from OS
             0 MiB allocation reported by mallinfo(arena+hblkhd)
         57850 MiB available memory on the node where the printing process lives
------------------
     ethr =  1.42E-11,  avg # of iterations =  2.3

     total cpu time spent up to now is     1349.4 secs

     total energy              =    -885.11291106 Ry
     estimated scf accuracy    <          2.2E-09 Ry

     iteration # 41     ecut=    80.00 Ry     beta= 0.30
     Davidson diagonalization with overlap

---- Real-time Memory Report at c_bands before calling an iterative solver
           189 MiB given to the printing process from OS
             0 MiB allocation reported by mallinfo(arena+hblkhd)
         57760 MiB available memory on the node where the printing process lives
------------------
     ethr =  5.55E-12,  avg # of iterations =  3.6

     total cpu time spent up to now is     1387.3 secs

     total energy              =    -885.11291106 Ry
     estimated scf accuracy    <          1.4E-10 Ry

     iteration # 42     ecut=    80.00 Ry     beta= 0.30
     Davidson diagonalization with overlap

---- Real-time Memory Report at c_bands before calling an iterative solver
           189 MiB given to the printing process from OS
             0 MiB allocation reported by mallinfo(arena+hblkhd)
         58027 MiB available memory on the node where the printing process lives
------------------
     ethr =  3.59E-13,  avg # of iterations =  8.6

     total cpu time spent up to now is     1461.3 secs

     End of self-consistent calculation

          k = 0.0000 0.0000 0.0000 ( 12045 PWs)   bands (ev):

   -53.8025 -33.7076 -30.0317 -30.0317 -30.0316 -14.9319 -14.9319 -14.9232
    -7.6237  -6.7179  -6.7175   2.1749   2.1968   2.1968   4.0263   4.0269
     4.0269   4.5541   4.5564   4.6380   4.6406   4.6406   4.9310   4.9394

     occupation numbers 
     1.0000   1.0000   1.0000   1.0000   1.0000   1.0000   1.0000   1.0000
     1.0000   1.0000   1.0000   1.0000   1.0000   1.0000   1.0000   1.0000
     1.0000   1.0000   1.0000   0.8186   0.7803   0.7803   0.0000   0.0000

          k = 0.0000 0.0000 0.2500 ( 12046 PWs)   bands (ev):

   -53.8025 -33.7074 -30.0318 -30.0317 -30.0316 -14.9579 -14.9314 -14.9227
    -7.4803  -6.7201  -6.7088   2.0392   2.3121   2.3327   3.5017   3.5632
     3.5687   3.6505   4.6336   4.6547   4.6656   4.6663   5.0018   5.0441

     occupation numbers 
     1.0000   1.0000   1.0000   1.0000   1.0000   1.0000   1.0000   1.0000
     1.0000   1.0000   1.0000   1.0000   1.0000   1.0000   1.0000   1.0000
     1.0000   1.0000   0.8725   0.5167   0.3000   0.2876   0.0000   0.0000

          k = 0.0000 0.0000-0.5000 ( 12096 PWs)   bands (ev):

   -53.8025 -33.7073 -30.0319 -30.0317 -30.0316 -14.9835 -14.9309 -14.9222
    -7.3225  -6.7336  -6.7000   2.2132   2.5495   2.5658   2.5845   3.0974
     3.1085   3.2014   4.4868   4.4937   4.6689   4.7148   5.2214   5.3162

     occupation numbers 
     1.0000   1.0000   1.0000   1.0000   1.0000   1.0000   1.0000   1.0000
     1.0000   1.0000   1.0000   1.0000   1.0000   1.0000   1.0000   1.0000
     1.0000   1.0000   1.0000   1.0000   0.2436   0.0010   0.0000   0.0000

          k = 0.0000 0.2488 0.0000 ( 12073 PWs)   bands (ev):

   -53.8025 -33.7074 -30.0317 -30.0317 -30.0317 -14.9476 -14.9314 -14.9314
    -7.4854  -6.7230  -6.7096   2.0333   2.3316   2.3316   3.5103   3.5699
     3.5699   3.6529   4.6318   4.6516   4.6750   4.6750   4.9972   5.0465

     occupation numbers 
     1.0000   1.0000   1.0000   1.0000   1.0000   1.0000   1.0000   1.0000
     1.0000   1.0000   1.0000   1.0000   1.0000   1.0000   1.0000   1.0000
     1.0000   1.0000   0.8914   0.5817   0.1558   0.1558   0.0000   0.0000

          k = 0.0000 0.2488 0.2500 ( 12063 PWs)   bands (ev):

   -53.8025 -33.7073 -30.0318 -30.0317 -30.0316 -14.9574 -14.9470 -14.9309
    -7.3391  -6.7126  -6.7078   1.7106   2.4626   2.5911   2.6595   3.3457
     3.4558   3.9408   4.3703   4.3870   4.6839   4.8684   4.9534   5.0317

     occupation numbers 
     1.0000   1.0000   1.0000   1.0000   1.0000   1.0000   1.0000   1.0000
     1.0000   1.0000   1.0000   1.0000   1.0000   1.0000   1.0000   1.0000
     1.0000   1.0000   1.0000   1.0000   0.0701   0.0000   0.0000   0.0000

          k = 0.0000 0.2488-0.5000 ( 12072 PWs)   bands (ev):

   -53.8025 -33.7071 -30.0319 -30.0317 -30.0316 -14.9829 -14.9464 -14.9304
    -7.1785  -6.7181  -6.6999   1.6173   2.1207   2.7204   2.8640   2.9210
     3.0209   3.9392   4.1214   4.2014   4.7893   4.9141   4.9454   5.1886

     occupation numbers 
     1.0000   1.0000   1.0000   1.0000   1.0000   1.0000   1.0000   1.0000
     1.0000   1.0000   1.0000   1.0000   1.0000   1.0000   1.0000   1.0000
     1.0000   1.0000   1.0000   1.0000   0.0000   0.0000   0.0000   0.0000

          k = 0.0000-0.4975 0.0000 ( 12076 PWs)   bands (ev):

   -53.8025 -33.7073 -30.0317 -30.0317 -30.0317 -14.9717 -14.9309 -14.9309
    -7.3324  -6.7404  -6.7012   2.2142   2.5688   2.5787   2.5787   3.1144
     3.1144   3.2141   4.5056   4.5056   4.6652   4.7090   5.2175   5.3156

     occupation numbers 
     1.0000   1.0000   1.0000   1.0000   1.0000   1.0000   1.0000   1.0000
     1.0000   1.0000   1.0000   1.0000   1.0000   1.0000   1.0000   1.0000
     1.0000   1.0000   1.0000   1.0000   0.3073   0.0027   0.0000   0.0000

          k = 0.0000-0.4975 0.2500 ( 12066 PWs)   bands (ev):

   -53.8025 -33.7072 -30.0318 -30.0317 -30.0317 -14.9710 -14.9568 -14.9304
    -7.1828  -6.7242  -6.6987   1.6209   2.1301   2.7161   2.8740   2.9219
     3.0236   3.9400   4.1319   4.2146   4.7895   4.9176   4.9438   5.1864

     occupation numbers 
     1.0000   1.0000   1.0000   1.0000   1.0000   1.0000   1.0000   1.0000
     1.0000   1.0000   1.0000   1.0000   1.0000   1.0000   1.0000   1.0000
     1.0000   1.0000   1.0000   1.0000   0.0000   0.0000   0.0000   0.0000

          k = 0.0000-0.4975-0.5000 ( 12092 PWs)   bands (ev):

   -53.8025 -33.7070 -30.0318 -30.0317 -30.0317 -14.9822 -14.9704 -14.9299
    -7.0211  -6.7078  -6.7023   1.2300   1.8564   2.9473   2.9478   3.0810
     3.0831   3.3266   3.6808   4.4811   4.7309   4.7655   5.1766   5.1880

     occupation numbers 
     1.0000   1.0000   1.0000   1.0000   1.0000   1.0000   1.0000   1.0000
     1.0000   1.0000   1.0000   1.0000   1.0000   1.0000   1.0000   1.0000
     1.0000   1.0000   1.0000   1.0000   0.0000   0.0000   0.0000   0.0000

          k = 0.2500 0.0000 0.2500 ( 12062 PWs)   bands (ev):

   -53.8025 -33.7073 -30.0318 -30.0318 -30.0316 -14.9575 -14.9571 -14.9221
    -7.3336  -6.7107  -6.7063   1.7107   2.4442   2.5971   2.6637   3.3395
     3.4382   3.9308   4.3783   4.3823   4.6823   4.8666   4.9545   5.0322

     occupation numbers 
     1.0000   1.0000   1.0000   1.0000   1.0000   1.0000   1.0000   1.0000
     1.0000   1.0000   1.0000   1.0000   1.0000   1.0000   1.0000   1.0000
     1.0000   1.0000   1.0000   1.0000   0.0817   0.0000   0.0000   0.0000

          k = 0.2500 0.0000-0.5000 ( 12084 PWs)   bands (ev):

   -53.8025 -33.7071 -30.0319 -30.0318 -30.0316 -14.9828 -14.9567 -14.9216
    -7.1725  -6.7175  -6.6974   1.6186   2.1207   2.7042   2.8667   2.9087
     3.0108   3.9258   4.1175   4.2248   4.7905   4.9157   4.9451   5.1896

     occupation numbers 
     1.0000   1.0000   1.0000   1.0000   1.0000   1.0000   1.0000   1.0000
     1.0000   1.0000   1.0000   1.0000   1.0000   1.0000   1.0000   1.0000
     1.0000   1.0000   1.0000   1.0000   0.0000   0.0000   0.0000   0.0000

          k = 0.2500 0.2488 0.2500 ( 12064 PWs)   bands (ev):

   -53.8025 -33.7071 -30.0318 -30.0318 -30.0316 -14.9569 -14.9566 -14.9464
    -7.1879  -6.7031  -6.7013   1.5655   2.2901   2.2971   2.6651   3.1250
     3.1277   4.2958   4.3037   4.5241   4.6916   4.6947   4.7381   5.2741

     occupation numbers 
     1.0000   1.0000   1.0000   1.0000   1.0000   1.0000   1.0000   1.0000
     1.0000   1.0000   1.0000   1.0000   1.0000   1.0000   1.0000   1.0000
     1.0000   1.0000   1.0000   1.0000   0.0304   0.0209   0.0000   0.0000

          k = 0.2500 0.2488-0.5000 ( 12064 PWs)   bands (ev):

   -53.8025 -33.7070 -30.0318 -30.0318 -30.0316 -14.9822 -14.9562 -14.9459
    -7.0219  -6.7045  -6.6927   1.6304   1.7884   2.0138   2.3909   3.1460
     3.4866   3.9758   4.2646   4.4060   4.7216   4.8605   5.0894   5.2182

     occupation numbers 
     1.0000   1.0000   1.0000   1.0000   1.0000   1.0000   1.0000   1.0000
     1.0000   1.0000   1.0000   1.0000   1.0000   1.0000   1.0000   1.0000
     1.0000   1.0000   1.0000   1.0000   0.0003   0.0000   0.0000   0.0000

          k = 0.2500-0.4975 0.2500 ( 12052 PWs)   bands (ev):

   -53.8025 -33.7070 -30.0318 -30.0318 -30.0317 -14.9704 -14.9564 -14.9560
    -7.0261  -6.7107  -6.6919   1.6331   1.7932   2.0221   2.3946   3.1472
     3.4918   3.9706   4.2762   4.4151   4.7167   4.8603   5.0837   5.1854

     occupation numbers 
     1.0000   1.0000   1.0000   1.0000   1.0000   1.0000   1.0000   1.0000
     1.0000   1.0000   1.0000   1.0000   1.0000   1.0000   1.0000   1.0000
     1.0000   1.0000   1.0000   1.0000   0.0007   0.0000   0.0000   0.0000

          k = 0.2500-0.4975-0.5000 ( 12076 PWs)   bands (ev):

   -53.8025 -33.7069 -30.0318 -30.0318 -30.0317 -14.9816 -14.9697 -14.9556
    -6.8555  -6.6969  -6.6913   1.3947   1.5500   1.9761   1.9859   3.3381
     3.4493   4.1696   4.1803   4.5856   4.7458   4.7467   5.1805   5.1842

     occupation numbers 
     1.0000   1.0000   1.0000   1.0000   1.0000   1.0000   1.0000   1.0000
     1.0000   1.0000   1.0000   1.0000   1.0000   1.0000   1.0000   1.0000
     1.0000   1.0000   1.0000   0.9999   0.0000   0.0000   0.0000   0.0000

          k =-0.5000 0.0000-0.5000 ( 12096 PWs)   bands (ev):

   -53.8025 -33.7070 -30.0318 -30.0318 -30.0316 -14.9822 -14.9822 -14.9211
    -7.0100  -6.7012  -6.7012   1.2267   1.8433   2.9381   2.9381   3.0728
     3.0728   3.3194   3.6637   4.4988   4.7316   4.7613   5.1814   5.1814

     occupation numbers 
     1.0000   1.0000   1.0000   1.0000   1.0000   1.0000   1.0000   1.0000
     1.0000   1.0000   1.0000   1.0000   1.0000   1.0000   1.0000   1.0000
     1.0000   1.0000   1.0000   1.0000   0.0000   0.0000   0.0000   0.0000

          k =-0.5000 0.2488-0.5000 ( 12068 PWs)   bands (ev):

   -53.8025 -33.7069 -30.0318 -30.0318 -30.0316 -14.9816 -14.9816 -14.9453
    -6.8524  -6.6908  -6.6908   1.3876   1.5403   1.9822   1.9822   3.3304
     3.4501   4.1645   4.1645   4.5995   4.7423   4.7456   5.1783   5.1783

     occupation numbers 
     1.0000   1.0000   1.0000   1.0000   1.0000   1.0000   1.0000   1.0000
     1.0000   1.0000   1.0000   1.0000   1.0000   1.0000   1.0000   1.0000
     1.0000   1.0000   1.0000   0.9982   0.0000   0.0000   0.0000   0.0000

          k =-0.5000-0.4975-0.5000 ( 12040 PWs)   bands (ev):

   -53.8025 -33.7067 -30.0318 -30.0318 -30.0317 -14.9810 -14.9810 -14.9691
    -6.6860  -6.6803  -6.6803   1.1898   1.5809   1.5933   1.5933   3.3414
     3.3527   4.6961   4.6978   4.6978   4.7470   4.7531   5.1390   5.1390

     occupation numbers 
     1.0000   1.0000   1.0000   1.0000   1.0000   1.0000   1.0000   1.0000
     1.0000   1.0000   1.0000   1.0000   1.0000   1.0000   1.0000   1.0000
     1.0000   0.0175   0.0140   0.0140   0.0000   0.0000   0.0000   0.0000

     the Fermi energy is     4.6555 ev

!    total energy              =    -885.11291106 Ry
     total all-electron energy =    -17648.892208 Ry
     estimated scf accuracy    <          8.3E-11 Ry
     smearing contrib. (-TS)   =      -0.00052695 Ry
     internal energy E=F+TS    =    -885.11238411 Ry

     The total energy is F=E-TS. E is the sum of the following terms:
     one-electron contribution =    -107.02126064 Ry
     hartree contribution      =      65.68971929 Ry
     xc contribution           =     -49.76585743 Ry
     ewald contribution        =    -160.40378368 Ry
     one-center paw contrib.   =    -633.61120163 Ry
      -> PAW hartree energy AE =      48.01150222 Ry
      -> PAW hartree energy PS =     -47.78913285 Ry
      -> PAW xc energy AE      =     -71.55971856 Ry
      -> PAW xc energy PS      =      11.35066102 Ry
      -> total E_H with PAW    =      65.91208865 Ry
      -> total E_XC with PAW   =    -109.97491497 Ry

     convergence has been achieved in  42 iterations


     Computing stress (Cartesian axis) and pressure

          total   stress  (Ry/bohr**3)                   (kbar)     P=       -3.63
  -0.00001602   0.00000000   0.00000000           -2.36        0.00        0.00
   0.00000000  -0.00004192   0.00000000            0.00       -6.17        0.00
   0.00000000   0.00000000  -0.00001602            0.00        0.00       -2.36

     kinetic stress (kbar)   9009.78      0.00      0.00
                                0.00   9008.76      0.00
                                0.00      0.00   9009.78

     local   stress (kbar)  -3482.98      0.00     -0.00
                                0.00  -3405.18     -0.00
                               -0.00     -0.00  -3482.98

     nonloc. stress (kbar)   1199.23      0.00      0.00
                                0.00   1200.17      0.00
                                0.00      0.00   1199.23

     hartree stress (kbar)   3234.11      0.00      0.00
                                0.00   3210.29      0.00
                                0.00      0.00   3234.11

     exc-cor stress (kbar)   -160.74     -0.00      0.00
                               -0.00   -160.93     -0.00
                                0.00     -0.00   -160.74

     corecor stress (kbar)  -1943.13      0.00      0.00
                                0.00  -1943.15      0.00
                                0.00      0.00  -1943.13

     ewald   stress (kbar)  -7858.63     -0.00     -0.00
                               -0.00  -7916.12     -0.00
                               -0.00     -0.00  -7858.63

     hubbard stress (kbar)      0.00      0.00      0.00
                                0.00      0.00      0.00
                                0.00      0.00      0.00

     DFT-D   stress (kbar)      0.00      0.00      0.00
                                0.00      0.00      0.00
                                0.00      0.00      0.00

     XDM     stress (kbar)      0.00      0.00      0.00
                                0.00      0.00      0.00
                                0.00      0.00      0.00

     dft-nl  stress (kbar)      0.00      0.00      0.00
                                0.00      0.00      0.00
                                0.00      0.00      0.00

     TS-vdW  stress (kbar)      0.00      0.00      0.00
                                0.00      0.00      0.00
                                0.00      0.00      0.00

     MDB     stress (kbar)      0.00      0.00      0.00
                                0.00      0.00      0.00
                                0.00      0.00      0.00

     3D-RISM stress (kbar)      0.00      0.00      0.00
                                0.00      0.00      0.00
                                0.00      0.00      0.00


     Writing all to output data dir ./tmp_elastic_YYp/catis3_elastic_YYp.save/ :
     XML data file, charge density, pseudopotentials, collected wavefunctions

     init_run     :      9.49s CPU     10.08s WALL (       1 calls)
     electrons    :   1458.92s CPU   1450.74s WALL (       1 calls)
     stress       :     10.42s CPU      9.06s WALL (       1 calls)

     Called by init_run:
     wfcinit      :      7.81s CPU      8.06s WALL (       1 calls)
     wfcinit:atom :      0.03s CPU      0.02s WALL (      18 calls)
     wfcinit:wfcr :      7.50s CPU      7.80s WALL (      18 calls)
     potinit      :      0.48s CPU      0.49s WALL (       1 calls)
     hinit0       :      0.31s CPU      0.32s WALL (       1 calls)

     Called by electrons:
     c_bands      :   1331.38s CPU   1329.46s WALL (      42 calls)
     sum_band     :     78.90s CPU     71.46s WALL (      42 calls)
     v_of_rho     :      4.12s CPU      3.52s WALL (      43 calls)
     v_h          :      0.21s CPU      0.22s WALL (      43 calls)
     v_xc         :      3.98s CPU      3.38s WALL (      44 calls)
     newd         :     38.87s CPU     41.31s WALL (      43 calls)
     PAW_pot      :      4.80s CPU      4.84s WALL (      43 calls)
     mix_rho      :      1.25s CPU      0.86s WALL (      42 calls)

     Called by c_bands:
     init_us_2    :      4.56s CPU      3.49s WALL (    1548 calls)
     cegterg      :   1235.89s CPU   1237.87s WALL (     756 calls)

     Called by sum_band:
     sum_band:wei :      0.10s CPU      0.12s WALL (      42 calls)
     sum_band:loo :     30.94s CPU     23.90s WALL (      42 calls)
     sum_band:buf :      0.35s CPU      0.25s WALL (     756 calls)
     sum_band:ini :      2.39s CPU      1.68s WALL (     756 calls)
     sum_band:cal :      2.49s CPU      1.47s WALL (     756 calls)
     sum_band:bec :      0.05s CPU      0.03s WALL (     756 calls)
     addusdens    :     39.10s CPU     40.29s WALL (      42 calls)
                                        0.00s GPU  (      42 calls)
     addusd:skk   :      0.07s CPU      0.22s WALL (     126 calls)
                                        0.00s GPU  (     126 calls)

     Called by *egterg:
     cdiaghg      :     84.08s CPU     79.17s WALL (    3189 calls)
     cegterg:over :    421.04s CPU    415.20s WALL (    2433 calls)
     cegterg:upda :     26.19s CPU     42.73s WALL (    2433 calls)
     cegterg:last :     25.37s CPU     37.82s WALL (    1401 calls)
     h_psi        :    241.89s CPU    249.58s WALL (    3207 calls)
     s_psi        :     11.79s CPU     15.40s WALL (    3207 calls)
     g_psi        :      0.75s CPU      0.56s WALL (    2433 calls)

     Called by h_psi:
     h_psi:calbec :     75.70s CPU     75.04s WALL (    3207 calls)
     vloc_psi     :    138.61s CPU    127.00s WALL (    3207 calls)
     add_vuspsi   :     27.13s CPU     47.09s WALL (    3207 calls)

     General routines
     calbec       :     78.53s CPU     76.75s WALL (    3981 calls)
     fft          :      2.55s CPU      2.30s WALL (     571 calls)
     ffts         :      0.39s CPU      0.36s WALL (      85 calls)
     fftw         :    147.74s CPU    132.88s WALL (  105558 calls)
     interpolate  :      0.41s CPU      0.43s WALL (      43 calls)

     Parallel routines

     PAW routines
     PAW_pot      :      4.80s CPU      4.84s WALL (      43 calls)
     PAW_symme    :      0.04s CPU      0.03s WALL (      85 calls)

     PWSCF        :  24m39.42s CPU  24m30.62s WALL


   This run was terminated on:  15:31:51  14Apr2025            

=------------------------------------------------------------------------------=
   JOB DONE.
=------------------------------------------------------------------------------=
