
     Program PWSCF v.7.3.1 starts on 14Apr2025 at 18:41:13 

     This program is part of the open-source Quantum ESPRESSO suite
     for quantum simulation of materials; please cite
         "P. Giannozzi et al., J. Phys.:Condens. Matter 21 395502 (2009);
         "P. Giannozzi et al., J. Phys.:Condens. Matter 29 465901 (2017);
         "P. Giannozzi et al., J. Chem. Phys. 152 154105 (2020);
          URL http://www.quantum-espresso.org", 
     in publications or presentations arising from this work. More details at
     http://www.quantum-espresso.org/quote

     Parallel version (MPI), running on     8 processors

     MPI processes distributed on     1 nodes
     59064 MiB available memory on the printing compute node when the environment starts

     Waiting for input...
     Reading input from standard input

     Current dimensions of program PWSCF are:
     Max number of different atomic species (ntypx) = 10
     Max number of k-points (npk) =  40000
     Max angular momentum in pseudopotentials (lmaxx) =  4
     file Ca.pbe-spn-kjpaw_psl.1.0.0.UPF: wavefunction(s)  3S renormalized
     file Ti.pbe-spn-kjpaw_psl.1.0.0.UPF: wavefunction(s)  3S 3P 3D renormalized
     file Se.pbe-n-kjpaw_psl.1.0.0.UPF: wavefunction(s)  4S renormalized

     IMPORTANT: XC functional enforced from input :
     Exchange-correlation= PBE
                           (   1   4   3   4   0   0   0)
     Any further DFT definition will be discarded
     Please, verify this is what you really want

     Message from routine setup:
     using ibrav=0 with symmetry is DISCOURAGED, use correct ibrav instead

     R & G space division:  proc/nbgrp/npool/nimage =       8
     Subspace diagonalization in iterative solution of the eigenvalue problem:
     a serial algorithm will be used


     Parallelization info
     --------------------
     sticks:   dense  smooth     PW     G-vecs:    dense   smooth      PW
     Min         633     317     89                33785    11939    1779
     Max         634     318     90                33788    11944    1782
     Sum        5065    2537    717               270287    95529   14249

     Using Slab Decomposition



     bravais-lattice index     =            0
     lattice parameter (alat)  =       9.9782  a.u.
     unit-cell volume          =     988.4926 (a.u.)^3
     number of atoms/cell      =            5
     number of atomic types    =            3
     number of electrons       =        40.00
     number of Kohn-Sham states=           24
     kinetic-energy cutoff     =      80.0000  Ry
     charge density cutoff     =     640.0000  Ry
     scf convergence threshold =      1.0E-10
     mixing beta               =       0.3000
     number of iterations used =            8  plain     mixing
     Exchange-correlation= PBE
                           (   1   4   3   4   0   0   0)

     celldm(1)=   9.978152  celldm(2)=   0.000000  celldm(3)=   0.000000
     celldm(4)=   0.000000  celldm(5)=   0.000000  celldm(6)=   0.000000

     crystal axes: (cart. coord. in units of alat)
               a(1) = (   1.000000   0.000000   0.000000 )  
               a(2) = (   0.000000   1.000000   0.000000 )  
               a(3) = (   0.000000   0.000000   0.995000 )  

     reciprocal axes: (cart. coord. in units 2 pi/alat)
               b(1) = (  1.000000  0.000000  0.000000 )  
               b(2) = (  0.000000  1.000000  0.000000 )  
               b(3) = (  0.000000  0.000000  1.005025 )  


     PseudoPot. # 1 for Ca read from file:
     /home/administrator/Downloads/BURAI/BURAI1.3/pseudopot/Ca.pbe-spn-kjpaw_psl.1.0.0.UPF
     MD5 check sum: b518bfa21c8e9f1b10ff1c7131b15729
     Pseudo is Projector augmented-wave + core cor, Zval = 10.0
     Generated using "atomic" code by A. Dal Corso  v.5.1.2
     Shape of augmentation charge: PSQ
     Using radial grid of 1169 points,  6 beta functions with: 
                l(1) =   0
                l(2) =   0
                l(3) =   1
                l(4) =   1
                l(5) =   2
                l(6) =   2
     Q(r) pseudized with 0 coefficients 


     PseudoPot. # 2 for Ti read from file:
     /home/administrator/Downloads/BURAI/BURAI1.3/pseudopot/Ti.pbe-spn-kjpaw_psl.1.0.0.UPF
     MD5 check sum: ea6c0241539b3211983c246a8902380f
     Pseudo is Projector augmented-wave + core cor, Zval = 12.0
     Generated using "atomic" code by A. Dal Corso  v.5.1.2
     Shape of augmentation charge: PSQ
     Using radial grid of 1177 points,  6 beta functions with: 
                l(1) =   0
                l(2) =   0
                l(3) =   1
                l(4) =   1
                l(5) =   2
                l(6) =   2
     Q(r) pseudized with 0 coefficients 


     PseudoPot. # 3 for Se read from file:
     /home/administrator/Downloads/BURAI/BURAI1.3/pseudopot/Se.pbe-n-kjpaw_psl.1.0.0.UPF
     MD5 check sum: a24196f260b4188fa853fb27ef2f7c98
     Pseudo is Projector augmented-wave + core cor, Zval =  6.0
     Generated using "atomic" code by A. Dal Corso  v.5.1.2
     Shape of augmentation charge: PSQ
     Using radial grid of 1211 points,  4 beta functions with: 
                l(1) =   0
                l(2) =   0
                l(3) =   1
                l(4) =   1
     Q(r) pseudized with 0 coefficients 


     atomic species   valence    mass     pseudopotential
     Ca               10.00    40.07800     Ca( 1.00)
     Ti               12.00    47.86700     Ti( 1.00)
     Se                6.00    78.97100     Se( 1.00)

     16 Sym. Ops., with inversion, found


                                    s                        frac. trans.

      isym =  1     identity                                     

 cryst.   s( 1) = (     1          0          0      )
                  (     0          1          0      )
                  (     0          0          1      )

 cart.    s( 1) = (  1.0000000  0.0000000  0.0000000 )
                  (  0.0000000  1.0000000  0.0000000 )
                  (  0.0000000  0.0000000  1.0000000 )


      isym =  2     180 deg rotation - cart. axis [0,0,1]        

 cryst.   s( 2) = (    -1          0          0      )
                  (     0         -1          0      )
                  (     0          0          1      )

 cart.    s( 2) = ( -1.0000000  0.0000000  0.0000000 )
                  (  0.0000000 -1.0000000  0.0000000 )
                  (  0.0000000  0.0000000  1.0000000 )


      isym =  3     180 deg rotation - cart. axis [0,1,0]        

 cryst.   s( 3) = (    -1          0          0      )
                  (     0          1          0      )
                  (     0          0         -1      )

 cart.    s( 3) = ( -1.0000000  0.0000000  0.0000000 )
                  (  0.0000000  1.0000000  0.0000000 )
                  (  0.0000000  0.0000000 -1.0000000 )


      isym =  4     180 deg rotation - cart. axis [1,0,0]        

 cryst.   s( 4) = (     1          0          0      )
                  (     0         -1          0      )
                  (     0          0         -1      )

 cart.    s( 4) = (  1.0000000  0.0000000  0.0000000 )
                  (  0.0000000 -1.0000000  0.0000000 )
                  (  0.0000000  0.0000000 -1.0000000 )


      isym =  5     180 deg rotation - cart. axis [1,1,0]        

 cryst.   s( 5) = (     0          1          0      )
                  (     1          0          0      )
                  (     0          0         -1      )

 cart.    s( 5) = (  0.0000000  1.0000000  0.0000000 )
                  (  1.0000000  0.0000000  0.0000000 )
                  (  0.0000000  0.0000000 -1.0000000 )


      isym =  6     180 deg rotation - cart. axis [1,-1,0]       

 cryst.   s( 6) = (     0         -1          0      )
                  (    -1          0          0      )
                  (     0          0         -1      )

 cart.    s( 6) = (  0.0000000 -1.0000000  0.0000000 )
                  ( -1.0000000  0.0000000  0.0000000 )
                  (  0.0000000  0.0000000 -1.0000000 )


      isym =  7      90 deg rotation - cart. axis [0,0,-1]       

 cryst.   s( 7) = (     0         -1          0      )
                  (     1          0          0      )
                  (     0          0          1      )

 cart.    s( 7) = (  0.0000000  1.0000000  0.0000000 )
                  ( -1.0000000  0.0000000  0.0000000 )
                  (  0.0000000  0.0000000  1.0000000 )


      isym =  8      90 deg rotation - cart. axis [0,0,1]        

 cryst.   s( 8) = (     0          1          0      )
                  (    -1          0          0      )
                  (     0          0          1      )

 cart.    s( 8) = (  0.0000000 -1.0000000  0.0000000 )
                  (  1.0000000  0.0000000  0.0000000 )
                  (  0.0000000  0.0000000  1.0000000 )


      isym =  9     inversion                                    

 cryst.   s( 9) = (    -1          0          0      )
                  (     0         -1          0      )
                  (     0          0         -1      )

 cart.    s( 9) = ( -1.0000000  0.0000000  0.0000000 )
                  (  0.0000000 -1.0000000  0.0000000 )
                  (  0.0000000  0.0000000 -1.0000000 )


      isym = 10     inv. 180 deg rotation - cart. axis [0,0,1]   

 cryst.   s(10) = (     1          0          0      )
                  (     0          1          0      )
                  (     0          0         -1      )

 cart.    s(10) = (  1.0000000  0.0000000  0.0000000 )
                  (  0.0000000  1.0000000  0.0000000 )
                  (  0.0000000  0.0000000 -1.0000000 )


      isym = 11     inv. 180 deg rotation - cart. axis [0,1,0]   

 cryst.   s(11) = (     1          0          0      )
                  (     0         -1          0      )
                  (     0          0          1      )

 cart.    s(11) = (  1.0000000  0.0000000  0.0000000 )
                  (  0.0000000 -1.0000000  0.0000000 )
                  (  0.0000000  0.0000000  1.0000000 )


      isym = 12     inv. 180 deg rotation - cart. axis [1,0,0]   

 cryst.   s(12) = (    -1          0          0      )
                  (     0          1          0      )
                  (     0          0          1      )

 cart.    s(12) = ( -1.0000000  0.0000000  0.0000000 )
                  (  0.0000000  1.0000000  0.0000000 )
                  (  0.0000000  0.0000000  1.0000000 )


      isym = 13     inv. 180 deg rotation - cart. axis [1,1,0]   

 cryst.   s(13) = (     0         -1          0      )
                  (    -1          0          0      )
                  (     0          0          1      )

 cart.    s(13) = (  0.0000000 -1.0000000  0.0000000 )
                  ( -1.0000000  0.0000000  0.0000000 )
                  (  0.0000000  0.0000000  1.0000000 )


      isym = 14     inv. 180 deg rotation - cart. axis [1,-1,0]  

 cryst.   s(14) = (     0          1          0      )
                  (     1          0          0      )
                  (     0          0          1      )

 cart.    s(14) = (  0.0000000  1.0000000  0.0000000 )
                  (  1.0000000  0.0000000  0.0000000 )
                  (  0.0000000  0.0000000  1.0000000 )


      isym = 15     inv.  90 deg rotation - cart. axis [0,0,-1]  

 cryst.   s(15) = (     0          1          0      )
                  (    -1          0          0      )
                  (     0          0         -1      )

 cart.    s(15) = (  0.0000000 -1.0000000  0.0000000 )
                  (  1.0000000  0.0000000  0.0000000 )
                  (  0.0000000  0.0000000 -1.0000000 )


      isym = 16     inv.  90 deg rotation - cart. axis [0,0,1]   

 cryst.   s(16) = (     0         -1          0      )
                  (     1          0          0      )
                  (     0          0         -1      )

 cart.    s(16) = (  0.0000000  1.0000000  0.0000000 )
                  ( -1.0000000  0.0000000  0.0000000 )
                  (  0.0000000  0.0000000 -1.0000000 )


   Cartesian axes

     site n.     atom                  positions (alat units)
         1        Ca     tau(   1) = (   0.0000000   0.0000000   0.0000000  )
         2        Ti     tau(   2) = (   0.5000000   0.5000000   0.4975000  )
         3        Se     tau(   3) = (   0.5000000   0.0000000   0.0000000  )
         4        Se     tau(   4) = (   0.0000000   0.5000000   0.0000000  )
         5        Se     tau(   5) = (   0.0000000   0.0000000   0.4975000  )

   Crystallographic axes

     site n.     atom                  positions (cryst. coord.)
         1        Ca     tau(   1) = (  0.0000000  0.0000000  0.0000000  )
         2        Ti     tau(   2) = (  0.5000000  0.5000000  0.5000000  )
         3        Se     tau(   3) = (  0.5000000  0.0000000  0.0000000  )
         4        Se     tau(   4) = (  0.0000000  0.5000000  0.0000000  )
         5        Se     tau(   5) = (  0.0000000  0.0000000  0.5000000  )

     number of k points=    18  Gaussian smearing, width (Ry)=  0.0020
                       cart. coord. in units 2pi/alat
        k(    1) = (   0.0000000   0.0000000   0.0000000), wk =   0.0312500
        k(    2) = (   0.0000000   0.0000000   0.2512563), wk =   0.0625000
        k(    3) = (   0.0000000   0.0000000  -0.5025126), wk =   0.0312500
        k(    4) = (   0.0000000   0.2500000   0.0000000), wk =   0.1250000
        k(    5) = (   0.0000000   0.2500000   0.2512563), wk =   0.2500000
        k(    6) = (   0.0000000   0.2500000  -0.5025126), wk =   0.1250000
        k(    7) = (   0.0000000  -0.5000000   0.0000000), wk =   0.0625000
        k(    8) = (   0.0000000  -0.5000000   0.2512563), wk =   0.1250000
        k(    9) = (   0.0000000  -0.5000000  -0.5025126), wk =   0.0625000
        k(   10) = (   0.2500000   0.2500000   0.0000000), wk =   0.1250000
        k(   11) = (   0.2500000   0.2500000   0.2512563), wk =   0.2500000
        k(   12) = (   0.2500000   0.2500000  -0.5025126), wk =   0.1250000
        k(   13) = (   0.2500000  -0.5000000   0.0000000), wk =   0.1250000
        k(   14) = (   0.2500000  -0.5000000   0.2512563), wk =   0.2500000
        k(   15) = (   0.2500000  -0.5000000  -0.5025126), wk =   0.1250000
        k(   16) = (  -0.5000000  -0.5000000   0.0000000), wk =   0.0312500
        k(   17) = (  -0.5000000  -0.5000000   0.2512563), wk =   0.0625000
        k(   18) = (  -0.5000000  -0.5000000  -0.5025126), wk =   0.0312500

                       cryst. coord.
        k(    1) = (   0.0000000   0.0000000   0.0000000), wk =   0.0312500
        k(    2) = (   0.0000000   0.0000000   0.2500000), wk =   0.0625000
        k(    3) = (   0.0000000   0.0000000  -0.5000000), wk =   0.0312500
        k(    4) = (   0.0000000   0.2500000   0.0000000), wk =   0.1250000
        k(    5) = (   0.0000000   0.2500000   0.2500000), wk =   0.2500000
        k(    6) = (   0.0000000   0.2500000  -0.5000000), wk =   0.1250000
        k(    7) = (   0.0000000  -0.5000000   0.0000000), wk =   0.0625000
        k(    8) = (   0.0000000  -0.5000000   0.2500000), wk =   0.1250000
        k(    9) = (   0.0000000  -0.5000000  -0.5000000), wk =   0.0625000
        k(   10) = (   0.2500000   0.2500000   0.0000000), wk =   0.1250000
        k(   11) = (   0.2500000   0.2500000   0.2500000), wk =   0.2500000
        k(   12) = (   0.2500000   0.2500000  -0.5000000), wk =   0.1250000
        k(   13) = (   0.2500000  -0.5000000   0.0000000), wk =   0.1250000
        k(   14) = (   0.2500000  -0.5000000   0.2500000), wk =   0.2500000
        k(   15) = (   0.2500000  -0.5000000  -0.5000000), wk =   0.1250000
        k(   16) = (  -0.5000000  -0.5000000   0.0000000), wk =   0.0312500
        k(   17) = (  -0.5000000  -0.5000000   0.2500000), wk =   0.0625000
        k(   18) = (  -0.5000000  -0.5000000  -0.5000000), wk =   0.0312500

     Dense  grid:   270287 G-vectors     FFT dimensions: (  81,  81,  80)

     Smooth grid:    95529 G-vectors     FFT dimensions: (  60,  60,  60)

     Dynamical RAM for                 wfc:       0.55 MB

     Dynamical RAM for     wfc (w. buffer):      10.39 MB

     Dynamical RAM for           str. fact:       1.55 MB

     Dynamical RAM for           local pot:       0.00 MB

     Dynamical RAM for          nlocal pot:       1.37 MB

     Dynamical RAM for                qrad:       6.09 MB

     Dynamical RAM for          rho,v,vnew:       3.05 MB

     Dynamical RAM for               rhoin:       1.02 MB

     Dynamical RAM for            rho*nmix:       8.25 MB

     Dynamical RAM for           G-vectors:       2.02 MB

     Dynamical RAM for          h,s,v(r/c):       0.11 MB

     Dynamical RAM for          <psi|beta>:       0.02 MB

     Dynamical RAM for                 psi:       1.09 MB

     Dynamical RAM for                hpsi:       1.09 MB

     Dynamical RAM for                spsi:       1.09 MB

     Dynamical RAM for      wfcinit/wfcrot:       1.39 MB

     Dynamical RAM for           addusdens:      97.44 MB

     Dynamical RAM for         addusstress:     103.63 MB

     Estimated static dynamical RAM per process >      30.04 MB

     Estimated max dynamical RAM per process >     141.92 MB

     Estimated total dynamical RAM >       1.11 GB

     Initial potential from superposition of free atoms

     starting charge      39.9934, renormalised to      40.0000
     Starting wfcs are   30 randomized atomic wfcs
     Checking if some PAW data can be deallocated... 
       PAW data deallocated on    6 nodes for type:  1
       PAW data deallocated on    6 nodes for type:  2
       PAW data deallocated on    4 nodes for type:  3

     total cpu time spent up to now is       11.1 secs

     Self-consistent Calculation

     iteration #  1     ecut=    80.00 Ry     beta= 0.30
     Davidson diagonalization with overlap

---- Real-time Memory Report at c_bands before calling an iterative solver
           149 MiB given to the printing process from OS
             0 MiB allocation reported by mallinfo(arena+hblkhd)
         58506 MiB available memory on the node where the printing process lives
------------------
     ethr =  1.00E-02,  avg # of iterations =  2.2

     total cpu time spent up to now is       35.8 secs

     total energy              =    -884.11548033 Ry
     estimated scf accuracy    <       2.80859892 Ry

     iteration #  2     ecut=    80.00 Ry     beta= 0.30
     Davidson diagonalization with overlap

---- Real-time Memory Report at c_bands before calling an iterative solver
           183 MiB given to the printing process from OS
             0 MiB allocation reported by mallinfo(arena+hblkhd)
         57602 MiB available memory on the node where the printing process lives
------------------
     ethr =  7.02E-03,  avg # of iterations =  2.3

     total cpu time spent up to now is       62.8 secs

     total energy              =    -884.08225111 Ry
     estimated scf accuracy    <      23.35682924 Ry

     iteration #  3     ecut=    80.00 Ry     beta= 0.30
     Davidson diagonalization with overlap

---- Real-time Memory Report at c_bands before calling an iterative solver
           184 MiB given to the printing process from OS
             0 MiB allocation reported by mallinfo(arena+hblkhd)
         57693 MiB available memory on the node where the printing process lives
------------------
     ethr =  7.02E-03,  avg # of iterations =  1.7

     total cpu time spent up to now is       85.3 secs

     total energy              =    -884.97293875 Ry
     estimated scf accuracy    <       0.94533695 Ry

     iteration #  4     ecut=    80.00 Ry     beta= 0.30
     Davidson diagonalization with overlap

---- Real-time Memory Report at c_bands before calling an iterative solver
           184 MiB given to the printing process from OS
             0 MiB allocation reported by mallinfo(arena+hblkhd)
         57639 MiB available memory on the node where the printing process lives
------------------
     ethr =  2.36E-03,  avg # of iterations =  1.6

     total cpu time spent up to now is      107.2 secs

     total energy              =    -885.09318133 Ry
     estimated scf accuracy    <       1.48129272 Ry

     iteration #  5     ecut=    80.00 Ry     beta= 0.30
     Davidson diagonalization with overlap

---- Real-time Memory Report at c_bands before calling an iterative solver
           184 MiB given to the printing process from OS
             0 MiB allocation reported by mallinfo(arena+hblkhd)
         57671 MiB available memory on the node where the printing process lives
------------------
     ethr =  2.36E-03,  avg # of iterations =  1.1

     total cpu time spent up to now is      126.0 secs

     total energy              =    -885.09472783 Ry
     estimated scf accuracy    <       0.97406330 Ry

     iteration #  6     ecut=    80.00 Ry     beta= 0.30
     Davidson diagonalization with overlap

---- Real-time Memory Report at c_bands before calling an iterative solver
           185 MiB given to the printing process from OS
             0 MiB allocation reported by mallinfo(arena+hblkhd)
         57510 MiB available memory on the node where the printing process lives
------------------
     ethr =  2.36E-03,  avg # of iterations =  1.0

     total cpu time spent up to now is      143.4 secs

     total energy              =    -885.10902386 Ry
     estimated scf accuracy    <       0.24172647 Ry

     iteration #  7     ecut=    80.00 Ry     beta= 0.30
     Davidson diagonalization with overlap

---- Real-time Memory Report at c_bands before calling an iterative solver
           185 MiB given to the printing process from OS
             0 MiB allocation reported by mallinfo(arena+hblkhd)
         57659 MiB available memory on the node where the printing process lives
------------------
     ethr =  6.04E-04,  avg # of iterations =  1.9

     total cpu time spent up to now is      167.7 secs

     total energy              =    -885.05467642 Ry
     estimated scf accuracy    <       1.20503230 Ry

     iteration #  8     ecut=    80.00 Ry     beta= 0.30
     Davidson diagonalization with overlap

---- Real-time Memory Report at c_bands before calling an iterative solver
           186 MiB given to the printing process from OS
             0 MiB allocation reported by mallinfo(arena+hblkhd)
         57494 MiB available memory on the node where the printing process lives
------------------
     ethr =  6.04E-04,  avg # of iterations =  1.4

     total cpu time spent up to now is      188.4 secs

     total energy              =    -885.10325954 Ry
     estimated scf accuracy    <       0.07239051 Ry

     iteration #  9     ecut=    80.00 Ry     beta= 0.30
     Davidson diagonalization with overlap

---- Real-time Memory Report at c_bands before calling an iterative solver
           186 MiB given to the printing process from OS
             0 MiB allocation reported by mallinfo(arena+hblkhd)
         57636 MiB available memory on the node where the printing process lives
------------------
     ethr =  1.81E-04,  avg # of iterations =  2.4

     total cpu time spent up to now is      216.6 secs

     total energy              =    -885.10532010 Ry
     estimated scf accuracy    <       0.06350307 Ry

     iteration # 10     ecut=    80.00 Ry     beta= 0.30
     Davidson diagonalization with overlap

---- Real-time Memory Report at c_bands before calling an iterative solver
           187 MiB given to the printing process from OS
             0 MiB allocation reported by mallinfo(arena+hblkhd)
         57566 MiB available memory on the node where the printing process lives
------------------
     ethr =  1.59E-04,  avg # of iterations =  1.8

     total cpu time spent up to now is      240.6 secs

     total energy              =    -885.10584133 Ry
     estimated scf accuracy    <       0.05349914 Ry

     iteration # 11     ecut=    80.00 Ry     beta= 0.30
     Davidson diagonalization with overlap

---- Real-time Memory Report at c_bands before calling an iterative solver
           187 MiB given to the printing process from OS
             0 MiB allocation reported by mallinfo(arena+hblkhd)
         57631 MiB available memory on the node where the printing process lives
------------------
     ethr =  1.34E-04,  avg # of iterations =  1.3

     total cpu time spent up to now is      261.9 secs

     total energy              =    -885.10619672 Ry
     estimated scf accuracy    <       0.01030086 Ry

     iteration # 12     ecut=    80.00 Ry     beta= 0.30
     Davidson diagonalization with overlap

---- Real-time Memory Report at c_bands before calling an iterative solver
           187 MiB given to the printing process from OS
             0 MiB allocation reported by mallinfo(arena+hblkhd)
         57750 MiB available memory on the node where the printing process lives
------------------
     ethr =  2.58E-05,  avg # of iterations =  8.7

     total cpu time spent up to now is      337.7 secs

     total energy              =    -885.11308202 Ry
     estimated scf accuracy    <       0.02084260 Ry

     iteration # 13     ecut=    80.00 Ry     beta= 0.30
     Davidson diagonalization with overlap

---- Real-time Memory Report at c_bands before calling an iterative solver
           187 MiB given to the printing process from OS
             0 MiB allocation reported by mallinfo(arena+hblkhd)
         57649 MiB available memory on the node where the printing process lives
------------------
     ethr =  2.58E-05,  avg # of iterations =  1.4

     total cpu time spent up to now is      358.8 secs

     total energy              =    -885.11324911 Ry
     estimated scf accuracy    <       0.00916830 Ry

     iteration # 14     ecut=    80.00 Ry     beta= 0.30
     Davidson diagonalization with overlap

---- Real-time Memory Report at c_bands before calling an iterative solver
           187 MiB given to the printing process from OS
             0 MiB allocation reported by mallinfo(arena+hblkhd)
         57652 MiB available memory on the node where the printing process lives
------------------
     ethr =  2.29E-05,  avg # of iterations =  1.1

     total cpu time spent up to now is      376.9 secs

     total energy              =    -885.11278963 Ry
     estimated scf accuracy    <       0.00900350 Ry

     iteration # 15     ecut=    80.00 Ry     beta= 0.30
     Davidson diagonalization with overlap

---- Real-time Memory Report at c_bands before calling an iterative solver
           187 MiB given to the printing process from OS
             0 MiB allocation reported by mallinfo(arena+hblkhd)
         57614 MiB available memory on the node where the printing process lives
------------------
     ethr =  2.25E-05,  avg # of iterations =  1.1

     total cpu time spent up to now is      395.6 secs

     total energy              =    -885.11256240 Ry
     estimated scf accuracy    <       0.00366957 Ry

     iteration # 16     ecut=    80.00 Ry     beta= 0.30
     Davidson diagonalization with overlap

---- Real-time Memory Report at c_bands before calling an iterative solver
           187 MiB given to the printing process from OS
             0 MiB allocation reported by mallinfo(arena+hblkhd)
         57593 MiB available memory on the node where the printing process lives
------------------
     ethr =  9.17E-06,  avg # of iterations =  1.7

     total cpu time spent up to now is      419.6 secs

     total energy              =    -885.11292429 Ry
     estimated scf accuracy    <       0.00255354 Ry

     iteration # 17     ecut=    80.00 Ry     beta= 0.30
     Davidson diagonalization with overlap

---- Real-time Memory Report at c_bands before calling an iterative solver
           187 MiB given to the printing process from OS
             0 MiB allocation reported by mallinfo(arena+hblkhd)
         57592 MiB available memory on the node where the printing process lives
------------------
     ethr =  6.38E-06,  avg # of iterations =  1.1

     total cpu time spent up to now is      437.8 secs

     total energy              =    -885.11254421 Ry
     estimated scf accuracy    <       0.00275447 Ry

     iteration # 18     ecut=    80.00 Ry     beta= 0.30
     Davidson diagonalization with overlap

---- Real-time Memory Report at c_bands before calling an iterative solver
           187 MiB given to the printing process from OS
             0 MiB allocation reported by mallinfo(arena+hblkhd)
         57737 MiB available memory on the node where the printing process lives
------------------
     ethr =  6.38E-06,  avg # of iterations =  1.1

     total cpu time spent up to now is      455.7 secs

     total energy              =    -885.11276914 Ry
     estimated scf accuracy    <       0.00304007 Ry

     iteration # 19     ecut=    80.00 Ry     beta= 0.30
     Davidson diagonalization with overlap

---- Real-time Memory Report at c_bands before calling an iterative solver
           187 MiB given to the printing process from OS
             0 MiB allocation reported by mallinfo(arena+hblkhd)
         57699 MiB available memory on the node where the printing process lives
------------------
     ethr =  6.38E-06,  avg # of iterations =  1.0

     total cpu time spent up to now is      472.7 secs

     total energy              =    -885.11284938 Ry
     estimated scf accuracy    <       0.00009473 Ry

     iteration # 20     ecut=    80.00 Ry     beta= 0.30
     Davidson diagonalization with overlap

---- Real-time Memory Report at c_bands before calling an iterative solver
           187 MiB given to the printing process from OS
             0 MiB allocation reported by mallinfo(arena+hblkhd)
         57528 MiB available memory on the node where the printing process lives
------------------
     ethr =  2.37E-07,  avg # of iterations =  9.8

     total cpu time spent up to now is      556.2 secs

     total energy              =    -885.11290325 Ry
     estimated scf accuracy    <       0.00080834 Ry

     iteration # 21     ecut=    80.00 Ry     beta= 0.30
     Davidson diagonalization with overlap

---- Real-time Memory Report at c_bands before calling an iterative solver
           187 MiB given to the printing process from OS
             0 MiB allocation reported by mallinfo(arena+hblkhd)
         57511 MiB available memory on the node where the printing process lives
------------------
     ethr =  2.37E-07,  avg # of iterations =  1.5

     total cpu time spent up to now is      577.7 secs

     total energy              =    -885.11291605 Ry
     estimated scf accuracy    <       0.00007326 Ry

     iteration # 22     ecut=    80.00 Ry     beta= 0.30
     Davidson diagonalization with overlap

---- Real-time Memory Report at c_bands before calling an iterative solver
           187 MiB given to the printing process from OS
             0 MiB allocation reported by mallinfo(arena+hblkhd)
         57526 MiB available memory on the node where the printing process lives
------------------
     ethr =  1.83E-07,  avg # of iterations =  1.3

     total cpu time spent up to now is      598.6 secs

     total energy              =    -885.11291460 Ry
     estimated scf accuracy    <       0.00002279 Ry

     iteration # 23     ecut=    80.00 Ry     beta= 0.30
     Davidson diagonalization with overlap

---- Real-time Memory Report at c_bands before calling an iterative solver
           187 MiB given to the printing process from OS
             0 MiB allocation reported by mallinfo(arena+hblkhd)
         57443 MiB available memory on the node where the printing process lives
------------------
     ethr =  5.70E-08,  avg # of iterations =  4.3

     total cpu time spent up to now is      640.5 secs

     total energy              =    -885.11291954 Ry
     estimated scf accuracy    <       0.00002374 Ry

     iteration # 24     ecut=    80.00 Ry     beta= 0.30
     Davidson diagonalization with overlap

---- Real-time Memory Report at c_bands before calling an iterative solver
           187 MiB given to the printing process from OS
             0 MiB allocation reported by mallinfo(arena+hblkhd)
         57566 MiB available memory on the node where the printing process lives
------------------
     ethr =  5.70E-08,  avg # of iterations =  2.1

     total cpu time spent up to now is      666.4 secs

     total energy              =    -885.11292080 Ry
     estimated scf accuracy    <       0.00001056 Ry

     iteration # 25     ecut=    80.00 Ry     beta= 0.30
     Davidson diagonalization with overlap

---- Real-time Memory Report at c_bands before calling an iterative solver
           187 MiB given to the printing process from OS
             0 MiB allocation reported by mallinfo(arena+hblkhd)
         57687 MiB available memory on the node where the printing process lives
------------------
     ethr =  2.64E-08,  avg # of iterations =  5.3

     total cpu time spent up to now is      715.4 secs

     total energy              =    -885.11292517 Ry
     estimated scf accuracy    <       0.00001790 Ry

     iteration # 26     ecut=    80.00 Ry     beta= 0.30
     Davidson diagonalization with overlap

---- Real-time Memory Report at c_bands before calling an iterative solver
           187 MiB given to the printing process from OS
             0 MiB allocation reported by mallinfo(arena+hblkhd)
         57588 MiB available memory on the node where the printing process lives
------------------
     ethr =  2.64E-08,  avg # of iterations =  4.8

     total cpu time spent up to now is      763.6 secs

     total energy              =    -885.11292001 Ry
     estimated scf accuracy    <       0.00021921 Ry

     iteration # 27     ecut=    80.00 Ry     beta= 0.30
     Davidson diagonalization with overlap

---- Real-time Memory Report at c_bands before calling an iterative solver
           187 MiB given to the printing process from OS
             0 MiB allocation reported by mallinfo(arena+hblkhd)
         57338 MiB available memory on the node where the printing process lives
------------------
     ethr =  2.64E-08,  avg # of iterations =  3.3

     total cpu time spent up to now is      799.1 secs

     total energy              =    -885.11292408 Ry
     estimated scf accuracy    <       0.00001316 Ry

     iteration # 28     ecut=    80.00 Ry     beta= 0.30
     Davidson diagonalization with overlap

---- Real-time Memory Report at c_bands before calling an iterative solver
           187 MiB given to the printing process from OS
             0 MiB allocation reported by mallinfo(arena+hblkhd)
         57454 MiB available memory on the node where the printing process lives
------------------
     ethr =  2.64E-08,  avg # of iterations =  1.3

     total cpu time spent up to now is      818.9 secs

     total energy              =    -885.11292330 Ry
     estimated scf accuracy    <       0.00001088 Ry

     iteration # 29     ecut=    80.00 Ry     beta= 0.30
     Davidson diagonalization with overlap

---- Real-time Memory Report at c_bands before calling an iterative solver
           187 MiB given to the printing process from OS
             0 MiB allocation reported by mallinfo(arena+hblkhd)
         57555 MiB available memory on the node where the printing process lives
------------------
     ethr =  2.64E-08,  avg # of iterations =  1.0

     total cpu time spent up to now is      836.3 secs

     total energy              =    -885.11292311 Ry
     estimated scf accuracy    <       0.00003086 Ry

     iteration # 30     ecut=    80.00 Ry     beta= 0.30
     Davidson diagonalization with overlap

---- Real-time Memory Report at c_bands before calling an iterative solver
           187 MiB given to the printing process from OS
             0 MiB allocation reported by mallinfo(arena+hblkhd)
         57494 MiB available memory on the node where the printing process lives
------------------
     ethr =  2.64E-08,  avg # of iterations =  1.0

     total cpu time spent up to now is      853.6 secs

     total energy              =    -885.11292233 Ry
     estimated scf accuracy    <       0.00003276 Ry

     iteration # 31     ecut=    80.00 Ry     beta= 0.30
     Davidson diagonalization with overlap

---- Real-time Memory Report at c_bands before calling an iterative solver
           187 MiB given to the printing process from OS
             0 MiB allocation reported by mallinfo(arena+hblkhd)
         57607 MiB available memory on the node where the printing process lives
------------------
     ethr =  2.64E-08,  avg # of iterations =  1.1

     total cpu time spent up to now is      871.1 secs

     total energy              =    -885.11292302 Ry
     estimated scf accuracy    <       0.00002491 Ry

     iteration # 32     ecut=    80.00 Ry     beta= 0.30
     Davidson diagonalization with overlap

---- Real-time Memory Report at c_bands before calling an iterative solver
           187 MiB given to the printing process from OS
             0 MiB allocation reported by mallinfo(arena+hblkhd)
         57606 MiB available memory on the node where the printing process lives
------------------
     ethr =  2.64E-08,  avg # of iterations =  1.0

     total cpu time spent up to now is      888.4 secs

     total energy              =    -885.11292282 Ry
     estimated scf accuracy    <       0.00003147 Ry

     iteration # 33     ecut=    80.00 Ry     beta= 0.30
     Davidson diagonalization with overlap

---- Real-time Memory Report at c_bands before calling an iterative solver
           187 MiB given to the printing process from OS
             0 MiB allocation reported by mallinfo(arena+hblkhd)
         57647 MiB available memory on the node where the printing process lives
------------------
     ethr =  2.64E-08,  avg # of iterations =  1.0

     total cpu time spent up to now is      905.8 secs

     total energy              =    -885.11291792 Ry
     estimated scf accuracy    <       0.00002576 Ry

     iteration # 34     ecut=    80.00 Ry     beta= 0.30
     Davidson diagonalization with overlap

---- Real-time Memory Report at c_bands before calling an iterative solver
           187 MiB given to the printing process from OS
             0 MiB allocation reported by mallinfo(arena+hblkhd)
         57555 MiB available memory on the node where the printing process lives
------------------
     ethr =  2.64E-08,  avg # of iterations =  2.3

     total cpu time spent up to now is      934.6 secs

     total energy              =    -885.11291976 Ry
     estimated scf accuracy    <       0.00000035 Ry

     iteration # 35     ecut=    80.00 Ry     beta= 0.30
     Davidson diagonalization with overlap

---- Real-time Memory Report at c_bands before calling an iterative solver
           187 MiB given to the printing process from OS
             0 MiB allocation reported by mallinfo(arena+hblkhd)
         57586 MiB available memory on the node where the printing process lives
------------------
     c_bands:  2 eigenvalues not converged
     c_bands:  1 eigenvalues not converged
     c_bands:  1 eigenvalues not converged
     c_bands:  4 eigenvalues not converged
     ethr =  8.86E-10,  avg # of iterations = 15.0

     total cpu time spent up to now is     1061.7 secs

     total energy              =    -885.11292060 Ry
     estimated scf accuracy    <       0.00000208 Ry

     iteration # 36     ecut=    80.00 Ry     beta= 0.30
     Davidson diagonalization with overlap

---- Real-time Memory Report at c_bands before calling an iterative solver
           187 MiB given to the printing process from OS
             0 MiB allocation reported by mallinfo(arena+hblkhd)
         57388 MiB available memory on the node where the printing process lives
------------------
     ethr =  8.86E-10,  avg # of iterations =  7.0

     total cpu time spent up to now is     1121.7 secs

     total energy              =    -885.11301179 Ry
     estimated scf accuracy    <       0.00005588 Ry

     iteration # 37     ecut=    80.00 Ry     beta= 0.30
     Davidson diagonalization with overlap

---- Real-time Memory Report at c_bands before calling an iterative solver
           187 MiB given to the printing process from OS
             0 MiB allocation reported by mallinfo(arena+hblkhd)
         57426 MiB available memory on the node where the printing process lives
------------------
     ethr =  8.86E-10,  avg # of iterations =  2.8

     total cpu time spent up to now is     1153.5 secs

     total energy              =    -885.11301247 Ry
     estimated scf accuracy    <       0.00004872 Ry

     iteration # 38     ecut=    80.00 Ry     beta= 0.30
     Davidson diagonalization with overlap

---- Real-time Memory Report at c_bands before calling an iterative solver
           187 MiB given to the printing process from OS
             0 MiB allocation reported by mallinfo(arena+hblkhd)
         57653 MiB available memory on the node where the printing process lives
------------------
     ethr =  8.86E-10,  avg # of iterations =  1.1

     total cpu time spent up to now is     1171.9 secs

     total energy              =    -885.11301235 Ry
     estimated scf accuracy    <       0.00004914 Ry

     iteration # 39     ecut=    80.00 Ry     beta= 0.30
     Davidson diagonalization with overlap

---- Real-time Memory Report at c_bands before calling an iterative solver
           187 MiB given to the printing process from OS
             0 MiB allocation reported by mallinfo(arena+hblkhd)
         57584 MiB available memory on the node where the printing process lives
------------------
     ethr =  8.86E-10,  avg # of iterations =  1.0

     total cpu time spent up to now is     1189.8 secs

     total energy              =    -885.11301254 Ry
     estimated scf accuracy    <       0.00005134 Ry

     iteration # 40     ecut=    80.00 Ry     beta= 0.30
     Davidson diagonalization with overlap

---- Real-time Memory Report at c_bands before calling an iterative solver
           187 MiB given to the printing process from OS
             0 MiB allocation reported by mallinfo(arena+hblkhd)
         57578 MiB available memory on the node where the printing process lives
------------------
     ethr =  8.86E-10,  avg # of iterations =  1.2

     total cpu time spent up to now is     1209.6 secs

     total energy              =    -885.11301257 Ry
     estimated scf accuracy    <       0.00004559 Ry

     iteration # 41     ecut=    80.00 Ry     beta= 0.30
     Davidson diagonalization with overlap

---- Real-time Memory Report at c_bands before calling an iterative solver
           187 MiB given to the printing process from OS
             0 MiB allocation reported by mallinfo(arena+hblkhd)
         57512 MiB available memory on the node where the printing process lives
------------------
     ethr =  8.86E-10,  avg # of iterations =  1.0

     total cpu time spent up to now is     1227.3 secs

     total energy              =    -885.11301255 Ry
     estimated scf accuracy    <       0.00004727 Ry

     iteration # 42     ecut=    80.00 Ry     beta= 0.30
     Davidson diagonalization with overlap

---- Real-time Memory Report at c_bands before calling an iterative solver
           187 MiB given to the printing process from OS
             0 MiB allocation reported by mallinfo(arena+hblkhd)
         57783 MiB available memory on the node where the printing process lives
------------------
     ethr =  8.86E-10,  avg # of iterations =  1.0

     total cpu time spent up to now is     1245.5 secs

     total energy              =    -885.11301271 Ry
     estimated scf accuracy    <       0.00004753 Ry

     iteration # 43     ecut=    80.00 Ry     beta= 0.30
     Davidson diagonalization with overlap

---- Real-time Memory Report at c_bands before calling an iterative solver
           187 MiB given to the printing process from OS
             0 MiB allocation reported by mallinfo(arena+hblkhd)
         57683 MiB available memory on the node where the printing process lives
------------------
     ethr =  8.86E-10,  avg # of iterations =  1.1

     total cpu time spent up to now is     1263.3 secs

     total energy              =    -885.11301267 Ry
     estimated scf accuracy    <       0.00004276 Ry

     iteration # 44     ecut=    80.00 Ry     beta= 0.30
     Davidson diagonalization with overlap

---- Real-time Memory Report at c_bands before calling an iterative solver
           187 MiB given to the printing process from OS
             0 MiB allocation reported by mallinfo(arena+hblkhd)
         57653 MiB available memory on the node where the printing process lives
------------------
     ethr =  8.86E-10,  avg # of iterations =  1.0

     total cpu time spent up to now is     1280.3 secs

     total energy              =    -885.11300987 Ry
     estimated scf accuracy    <       0.00004654 Ry

     iteration # 45     ecut=    80.00 Ry     beta= 0.30
     Davidson diagonalization with overlap

---- Real-time Memory Report at c_bands before calling an iterative solver
           187 MiB given to the printing process from OS
             0 MiB allocation reported by mallinfo(arena+hblkhd)
         57644 MiB available memory on the node where the printing process lives
------------------
     ethr =  8.86E-10,  avg # of iterations =  9.4

     total cpu time spent up to now is     1364.9 secs

     total energy              =    -885.11301472 Ry
     estimated scf accuracy    <       0.00000310 Ry

     iteration # 46     ecut=    80.00 Ry     beta= 0.30
     Davidson diagonalization with overlap

---- Real-time Memory Report at c_bands before calling an iterative solver
           187 MiB given to the printing process from OS
             0 MiB allocation reported by mallinfo(arena+hblkhd)
         57650 MiB available memory on the node where the printing process lives
------------------
     ethr =  8.86E-10,  avg # of iterations =  2.4

     total cpu time spent up to now is     1394.4 secs

     total energy              =    -885.11301481 Ry
     estimated scf accuracy    <       0.00000070 Ry

     iteration # 47     ecut=    80.00 Ry     beta= 0.30
     Davidson diagonalization with overlap

---- Real-time Memory Report at c_bands before calling an iterative solver
           187 MiB given to the printing process from OS
             0 MiB allocation reported by mallinfo(arena+hblkhd)
         57729 MiB available memory on the node where the printing process lives
------------------
     ethr =  8.86E-10,  avg # of iterations =  5.1

     total cpu time spent up to now is     1442.9 secs

     total energy              =    -885.11301492 Ry
     estimated scf accuracy    <       0.00000020 Ry

     iteration # 48     ecut=    80.00 Ry     beta= 0.30
     Davidson diagonalization with overlap

---- Real-time Memory Report at c_bands before calling an iterative solver
           187 MiB given to the printing process from OS
             0 MiB allocation reported by mallinfo(arena+hblkhd)
         57302 MiB available memory on the node where the printing process lives
------------------
     ethr =  4.89E-10,  avg # of iterations =  2.4

     total cpu time spent up to now is     1471.7 secs

     total energy              =    -885.11301495 Ry
     estimated scf accuracy    <       0.00000005 Ry

     iteration # 49     ecut=    80.00 Ry     beta= 0.30
     Davidson diagonalization with overlap

---- Real-time Memory Report at c_bands before calling an iterative solver
           187 MiB given to the printing process from OS
             0 MiB allocation reported by mallinfo(arena+hblkhd)
         57510 MiB available memory on the node where the printing process lives
------------------
     ethr =  1.34E-10,  avg # of iterations =  6.3

     total cpu time spent up to now is     1528.4 secs

     total energy              =    -885.11301497 Ry
     estimated scf accuracy    <       0.00000003 Ry

     iteration # 50     ecut=    80.00 Ry     beta= 0.30
     Davidson diagonalization with overlap

---- Real-time Memory Report at c_bands before calling an iterative solver
           187 MiB given to the printing process from OS
             0 MiB allocation reported by mallinfo(arena+hblkhd)
         57653 MiB available memory on the node where the printing process lives
------------------
     ethr =  7.88E-11,  avg # of iterations =  3.1

     total cpu time spent up to now is     1562.6 secs

     total energy              =    -885.11301497 Ry
     estimated scf accuracy    <          4.0E-09 Ry

     iteration # 51     ecut=    80.00 Ry     beta= 0.30
     Davidson diagonalization with overlap

---- Real-time Memory Report at c_bands before calling an iterative solver
           187 MiB given to the printing process from OS
             0 MiB allocation reported by mallinfo(arena+hblkhd)
         57650 MiB available memory on the node where the printing process lives
------------------
     ethr =  1.01E-11,  avg # of iterations =  7.5

     total cpu time spent up to now is     1630.5 secs

     total energy              =    -885.11301497 Ry
     estimated scf accuracy    <          1.9E-09 Ry

     iteration # 52     ecut=    80.00 Ry     beta= 0.30
     Davidson diagonalization with overlap

---- Real-time Memory Report at c_bands before calling an iterative solver
           187 MiB given to the printing process from OS
             0 MiB allocation reported by mallinfo(arena+hblkhd)
         57595 MiB available memory on the node where the printing process lives
------------------
     ethr =  4.70E-12,  avg # of iterations =  2.9

     total cpu time spent up to now is     1662.3 secs

     total energy              =    -885.11301497 Ry
     estimated scf accuracy    <          1.3E-10 Ry

     iteration # 53     ecut=    80.00 Ry     beta= 0.30
     Davidson diagonalization with overlap

---- Real-time Memory Report at c_bands before calling an iterative solver
           187 MiB given to the printing process from OS
             0 MiB allocation reported by mallinfo(arena+hblkhd)
         57762 MiB available memory on the node where the printing process lives
------------------
     ethr =  3.16E-13,  avg # of iterations =  8.3

     total cpu time spent up to now is     1736.3 secs

     total energy              =    -885.11301497 Ry
     estimated scf accuracy    <          2.3E-10 Ry

     iteration # 54     ecut=    80.00 Ry     beta= 0.30
     Davidson diagonalization with overlap

---- Real-time Memory Report at c_bands before calling an iterative solver
           187 MiB given to the printing process from OS
             0 MiB allocation reported by mallinfo(arena+hblkhd)
         57660 MiB available memory on the node where the printing process lives
------------------
     ethr =  3.16E-13,  avg # of iterations =  4.4

     total cpu time spent up to now is     1783.6 secs

     End of self-consistent calculation

          k = 0.0000 0.0000 0.0000 ( 11917 PWs)   bands (ev):

   -53.6978 -33.5864 -29.9267 -29.9264 -29.9264 -14.8226 -14.8132 -14.8132
    -7.5591  -6.6348  -6.6341   2.2544   2.2544   2.2770   4.1149   4.1149
     4.1161   4.6551   4.6577   4.7401   4.7401   4.7429   5.0440   5.0440

     occupation numbers 
     1.0000   1.0000   1.0000   1.0000   1.0000   1.0000   1.0000   1.0000
     1.0000   1.0000   1.0000   1.0000   1.0000   1.0000   1.0000   1.0000
     1.0000   1.0000   1.0000   0.8438   0.8438   0.8061   0.0000   0.0000

          k = 0.0000 0.0000 0.2513 ( 11924 PWs)   bands (ev):

   -53.6978 -33.5863 -29.9268 -29.9264 -29.9264 -14.8506 -14.8126 -14.8126
    -7.4106  -6.6341  -6.6248   2.1109   2.3922   2.3922   3.5801   3.6447
     3.6447   3.7434   4.7374   4.7578   4.7696   4.7696   5.1125   5.1529

     occupation numbers 
     1.0000   1.0000   1.0000   1.0000   1.0000   1.0000   1.0000   1.0000
     1.0000   1.0000   1.0000   1.0000   1.0000   1.0000   1.0000   1.0000
     1.0000   1.0000   0.8748   0.5361   0.3007   0.3007   0.0000   0.0000

          k = 0.0000 0.0000-0.5025 ( 11956 PWs)   bands (ev):

   -53.6978 -33.5861 -29.9269 -29.9263 -29.9263 -14.8781 -14.8120 -14.8120
    -7.2482  -6.6437  -6.6155   2.2852   2.6203   2.6503   2.6503   3.1707
     3.1707   3.2723   4.5902   4.5902   4.7728   4.8223   5.3361   5.4345

     occupation numbers 
     1.0000   1.0000   1.0000   1.0000   1.0000   1.0000   1.0000   1.0000
     1.0000   1.0000   1.0000   1.0000   1.0000   1.0000   1.0000   1.0000
     1.0000   1.0000   1.0000   1.0000   0.2453   0.0006   0.0000   0.0000

          k = 0.0000 0.2500 0.0000 ( 11910 PWs)   bands (ev):

   -53.6978 -33.5863 -29.9267 -29.9264 -29.9264 -14.8394 -14.8221 -14.8126
    -7.4160  -6.6369  -6.6259   2.1048   2.3911   2.4125   3.5872   3.6461
     3.6520   3.7471   4.7356   4.7544   4.7787   4.7794   5.1077   5.1526

     occupation numbers 
     1.0000   1.0000   1.0000   1.0000   1.0000   1.0000   1.0000   1.0000
     1.0000   1.0000   1.0000   1.0000   1.0000   1.0000   1.0000   1.0000
     1.0000   1.0000   0.8930   0.6049   0.1592   0.1509   0.0000   0.0000

          k = 0.0000 0.2500 0.2513 ( 11948 PWs)   bands (ev):

   -53.6978 -33.5861 -29.9268 -29.9264 -29.9264 -14.8500 -14.8388 -14.8120
    -7.2640  -6.6255  -6.6217   1.7743   2.5234   2.6694   2.7374   3.4185
     3.5330   4.0228   4.4745   4.4833   4.7865   4.9715   5.0617   5.1408

     occupation numbers 
     1.0000   1.0000   1.0000   1.0000   1.0000   1.0000   1.0000   1.0000
     1.0000   1.0000   1.0000   1.0000   1.0000   1.0000   1.0000   1.0000
     1.0000   1.0000   1.0000   1.0000   0.0808   0.0000   0.0000   0.0000

          k = 0.0000 0.2500-0.5025 ( 11970 PWs)   bands (ev):

   -53.6978 -33.5860 -29.9269 -29.9264 -29.9263 -14.8774 -14.8381 -14.8115
    -7.0984  -6.6274  -6.6129   1.6756   2.1933   2.7863   2.9387   2.9867
     3.0845   4.0209   4.2148   4.3052   4.8962   5.0203   5.0535   5.3014

     occupation numbers 
     1.0000   1.0000   1.0000   1.0000   1.0000   1.0000   1.0000   1.0000
     1.0000   1.0000   1.0000   1.0000   1.0000   1.0000   1.0000   1.0000
     1.0000   1.0000   1.0000   1.0000   0.0000   0.0000   0.0000   0.0000

          k = 0.0000-0.5000 0.0000 ( 11948 PWs)   bands (ev):

   -53.6978 -33.5861 -29.9267 -29.9265 -29.9264 -14.8653 -14.8215 -14.8121
    -7.2586  -6.6507  -6.6170   2.2860   2.6401   2.6443   2.6637   3.1772
     3.1886   3.2852   4.6026   4.6094   4.7689   4.8164   5.3318   5.4266

     occupation numbers 
     1.0000   1.0000   1.0000   1.0000   1.0000   1.0000   1.0000   1.0000
     1.0000   1.0000   1.0000   1.0000   1.0000   1.0000   1.0000   1.0000
     1.0000   1.0000   1.0000   1.0000   0.3139   0.0016   0.0000   0.0000

          k = 0.0000-0.5000 0.2513 ( 11958 PWs)   bands (ev):

   -53.6978 -33.5860 -29.9268 -29.9265 -29.9263 -14.8646 -14.8494 -14.8115
    -7.1029  -6.6337  -6.6119   1.6792   2.2032   2.7817   2.9489   2.9876
     3.0878   4.0217   4.2253   4.3189   4.8963   5.0236   5.0519   5.2990

     occupation numbers 
     1.0000   1.0000   1.0000   1.0000   1.0000   1.0000   1.0000   1.0000
     1.0000   1.0000   1.0000   1.0000   1.0000   1.0000   1.0000   1.0000
     1.0000   1.0000   1.0000   1.0000   0.0000   0.0000   0.0000   0.0000

          k = 0.0000-0.5000-0.5025 ( 11952 PWs)   bands (ev):

   -53.6978 -33.5858 -29.9269 -29.9265 -29.9263 -14.8767 -14.8639 -14.8109
    -6.9364  -6.6164  -6.6108   1.2799   1.9220   3.0118   3.0127   3.1513
     3.1535   3.4003   3.7681   4.5931   4.8363   4.8685   5.2873   5.2987

     occupation numbers 
     1.0000   1.0000   1.0000   1.0000   1.0000   1.0000   1.0000   1.0000
     1.0000   1.0000   1.0000   1.0000   1.0000   1.0000   1.0000   1.0000
     1.0000   1.0000   1.0000   1.0000   0.0000   0.0000   0.0000   0.0000

          k = 0.2500 0.2500 0.0000 ( 11940 PWs)   bands (ev):

   -53.6978 -33.5861 -29.9267 -29.9264 -29.9264 -14.8390 -14.8387 -14.8215
    -7.2698  -6.6270  -6.6239   1.7741   2.5425   2.6633   2.7332   3.4252
     3.5506   4.0327   4.4628   4.4925   4.7880   4.9733   5.0609   5.1402

     occupation numbers 
     1.0000   1.0000   1.0000   1.0000   1.0000   1.0000   1.0000   1.0000
     1.0000   1.0000   1.0000   1.0000   1.0000   1.0000   1.0000   1.0000
     1.0000   1.0000   1.0000   1.0000   0.0695   0.0000   0.0000   0.0000

          k = 0.2500 0.2500 0.2513 ( 11951 PWs)   bands (ev):

   -53.6978 -33.5860 -29.9268 -29.9264 -29.9264 -14.8494 -14.8384 -14.8380
    -7.1124  -6.6166  -6.6151   1.6280   2.3546   2.3617   2.7509   3.2051
     3.2077   4.3917   4.4001   4.6202   4.7958   4.7988   4.8424   5.3866

     occupation numbers 
     1.0000   1.0000   1.0000   1.0000   1.0000   1.0000   1.0000   1.0000
     1.0000   1.0000   1.0000   1.0000   1.0000   1.0000   1.0000   1.0000
     1.0000   1.0000   1.0000   1.0000   0.0298   0.0207   0.0000   0.0000

          k = 0.2500 0.2500-0.5025 ( 11930 PWs)   bands (ev):

   -53.6978 -33.5858 -29.9269 -29.9264 -29.9264 -14.8768 -14.8377 -14.8374
    -6.9412  -6.6137  -6.6062   1.6878   1.8593   2.0699   2.4591   3.2276
     3.5692   4.0678   4.3568   4.4983   4.8286   4.9674   5.2006   5.2865

     occupation numbers 
     1.0000   1.0000   1.0000   1.0000   1.0000   1.0000   1.0000   1.0000
     1.0000   1.0000   1.0000   1.0000   1.0000   1.0000   1.0000   1.0000
     1.0000   1.0000   1.0000   1.0000   0.0002   0.0000   0.0000   0.0000

          k = 0.2500-0.5000 0.0000 ( 11948 PWs)   bands (ev):

   -53.6978 -33.5860 -29.9267 -29.9265 -29.9264 -14.8646 -14.8382 -14.8210
    -7.1094  -6.6342  -6.6144   1.6780   2.2028   2.7987   2.9462   2.9999
     3.0981   4.0352   4.2299   4.2953   4.8948   5.0220   5.0524   5.2983

     occupation numbers 
     1.0000   1.0000   1.0000   1.0000   1.0000   1.0000   1.0000   1.0000
     1.0000   1.0000   1.0000   1.0000   1.0000   1.0000   1.0000   1.0000
     1.0000   1.0000   1.0000   1.0000   0.0000   0.0000   0.0000   0.0000

          k = 0.2500-0.5000 0.2513 ( 11934 PWs)   bands (ev):

   -53.6978 -33.5858 -29.9268 -29.9265 -29.9264 -14.8639 -14.8488 -14.8376
    -6.9456  -6.6200  -6.6055   1.6906   1.8642   2.0784   2.4630   3.2288
     3.5745   4.0623   4.3684   4.5082   4.8235   4.9673   5.1948   5.2924

     occupation numbers 
     1.0000   1.0000   1.0000   1.0000   1.0000   1.0000   1.0000   1.0000
     1.0000   1.0000   1.0000   1.0000   1.0000   1.0000   1.0000   1.0000
     1.0000   1.0000   1.0000   1.0000   0.0004   0.0000   0.0000   0.0000

          k = 0.2500-0.5000-0.5025 ( 11960 PWs)   bands (ev):

   -53.6978 -33.5857 -29.9269 -29.9265 -29.9264 -14.8761 -14.8632 -14.8370
    -6.7703  -6.6055  -6.5998   1.4431   1.6171   2.0361   2.0463   3.4116
     3.5361   4.2556   4.2661   4.6971   4.8490   4.8516   5.2882   5.2921

     occupation numbers 
     1.0000   1.0000   1.0000   1.0000   1.0000   1.0000   1.0000   1.0000
     1.0000   1.0000   1.0000   1.0000   1.0000   1.0000   1.0000   1.0000
     1.0000   1.0000   1.0000   0.9994   0.0000   0.0000   0.0000   0.0000

          k =-0.5000-0.5000 0.0000 ( 11928 PWs)   bands (ev):

   -53.6978 -33.5858 -29.9267 -29.9265 -29.9265 -14.8640 -14.8640 -14.8205
    -6.9484  -6.6175  -6.6175   1.2834   1.9353   3.0223   3.0223   3.1615
     3.1615   3.4077   3.7859   4.5755   4.8352   4.8730   5.2937   5.2937

     occupation numbers 
     1.0000   1.0000   1.0000   1.0000   1.0000   1.0000   1.0000   1.0000
     1.0000   1.0000   1.0000   1.0000   1.0000   1.0000   1.0000   1.0000
     1.0000   1.0000   1.0000   1.0000   0.0000   0.0000   0.0000   0.0000

          k =-0.5000-0.5000 0.2513 ( 11932 PWs)   bands (ev):

   -53.6978 -33.5857 -29.9268 -29.9265 -29.9265 -14.8633 -14.8633 -14.8482
    -6.7738  -6.6061  -6.6061   1.4504   1.6272   2.0400   2.0400   3.4198
     3.5350   4.2715   4.2715   4.6833   4.8522   4.8528   5.2942   5.2942

     occupation numbers 
     1.0000   1.0000   1.0000   1.0000   1.0000   1.0000   1.0000   1.0000
     1.0000   1.0000   1.0000   1.0000   1.0000   1.0000   1.0000   1.0000
     1.0000   1.0000   1.0000   1.0000   0.0000   0.0000   0.0000   0.0000

          k =-0.5000-0.5000-0.5025 ( 11928 PWs)   bands (ev):

   -53.6978 -33.5855 -29.9268 -29.9265 -29.9265 -14.8754 -14.8626 -14.8626
    -6.5945  -6.5945  -6.5887   1.2590   1.6392   1.6392   1.6519   3.4202
     3.4321   4.8011   4.8011   4.8031   4.8530   4.8592   5.2350   5.2395

     occupation numbers 
     1.0000   1.0000   1.0000   1.0000   1.0000   1.0000   1.0000   1.0000
     1.0000   1.0000   1.0000   1.0000   1.0000   1.0000   1.0000   1.0000
     1.0000   0.0153   0.0153   0.0118   0.0000   0.0000   0.0000   0.0000

     the Fermi energy is     4.7596 ev

!    total energy              =    -885.11301497 Ry
     total all-electron energy =    -17648.892312 Ry
     estimated scf accuracy    <          1.3E-11 Ry
     smearing contrib. (-TS)   =      -0.00050283 Ry
     internal energy E=F+TS    =    -885.11251214 Ry

     The total energy is F=E-TS. E is the sum of the following terms:
     one-electron contribution =    -106.20810425 Ry
     hartree contribution      =      65.43218035 Ry
     xc contribution           =     -49.78446619 Ry
     ewald contribution        =    -160.93935339 Ry
     one-center paw contrib.   =    -633.61276866 Ry
      -> PAW hartree energy AE =      48.08031611 Ry
      -> PAW hartree energy PS =     -47.85789936 Ry
      -> PAW xc energy AE      =     -71.56737814 Ry
      -> PAW xc energy PS      =      11.35825804 Ry
      -> total E_H with PAW    =      65.65459709 Ry
      -> total E_XC with PAW   =    -109.99358629 Ry

     convergence has been achieved in  54 iterations


     Computing stress (Cartesian axis) and pressure

          total   stress  (Ry/bohr**3)                   (kbar)     P=       -0.12
  -0.00000984   0.00000000   0.00000000           -1.45        0.00        0.00
   0.00000000  -0.00000984   0.00000000            0.00       -1.45        0.00
   0.00000000   0.00000000   0.00001718            0.00        0.00        2.53

     kinetic stress (kbar)   9103.79      0.00      0.00
                                0.00   9103.79      0.00
                                0.00      0.00   9104.59

     local   stress (kbar)  -3426.32     -0.00      0.00
                               -0.00  -3426.32      0.00
                                0.00      0.00  -3504.85

     nonloc. stress (kbar)   1212.26      0.00      0.00
                                0.00   1212.26      0.00
                                0.00      0.00   1211.33

     hartree stress (kbar)   3237.85     -0.00     -0.00
                               -0.00   3237.85     -0.00
                               -0.00     -0.00   3261.76

     exc-cor stress (kbar)   -163.20     -0.00     -0.00
                               -0.00   -163.20     -0.00
                               -0.00     -0.00   -163.01

     corecor stress (kbar)  -1962.79     -0.00     -0.00
                               -0.00  -1962.79      0.00
                               -0.00      0.00  -1962.77

     ewald   stress (kbar)  -8003.04      0.00     -0.00
                                0.00  -8003.04     -0.00
                               -0.00     -0.00  -7944.53

     hubbard stress (kbar)      0.00      0.00      0.00
                                0.00      0.00      0.00
                                0.00      0.00      0.00

     DFT-D   stress (kbar)      0.00      0.00      0.00
                                0.00      0.00      0.00
                                0.00      0.00      0.00

     XDM     stress (kbar)      0.00      0.00      0.00
                                0.00      0.00      0.00
                                0.00      0.00      0.00

     dft-nl  stress (kbar)      0.00      0.00      0.00
                                0.00      0.00      0.00
                                0.00      0.00      0.00

     TS-vdW  stress (kbar)      0.00      0.00      0.00
                                0.00      0.00      0.00
                                0.00      0.00      0.00

     MDB     stress (kbar)      0.00      0.00      0.00
                                0.00      0.00      0.00
                                0.00      0.00      0.00

     3D-RISM stress (kbar)      0.00      0.00      0.00
                                0.00      0.00      0.00
                                0.00      0.00      0.00


     Writing all to output data dir ./tmp_elastic_ZZm/catis3_elastic_ZZm.save/ :
     XML data file, charge density, pseudopotentials, collected wavefunctions

     init_run     :     10.12s CPU     10.61s WALL (       1 calls)
     electrons    :   1772.78s CPU   1772.57s WALL (       1 calls)
     stress       :     10.40s CPU      9.27s WALL (       1 calls)

     Called by init_run:
     wfcinit      :      8.17s CPU      8.61s WALL (       1 calls)
     wfcinit:atom :      0.03s CPU      0.02s WALL (      18 calls)
     wfcinit:wfcr :      7.91s CPU      8.41s WALL (      18 calls)
     potinit      :      0.46s CPU      0.47s WALL (       1 calls)
     hinit0       :      0.37s CPU      0.38s WALL (       1 calls)

     Called by electrons:
     c_bands      :   1612.85s CPU   1617.08s WALL (      54 calls)
     sum_band     :    101.40s CPU     91.25s WALL (      54 calls)
     v_of_rho     :      4.35s CPU      4.24s WALL (      55 calls)
     v_h          :      0.24s CPU      0.25s WALL (      55 calls)
     v_xc         :      4.17s CPU      4.05s WALL (      56 calls)
     newd         :     47.12s CPU     53.21s WALL (      55 calls)
     PAW_pot      :      6.00s CPU      6.06s WALL (      55 calls)
     mix_rho      :      1.35s CPU      1.12s WALL (      54 calls)

     Called by c_bands:
     init_us_2    :      5.69s CPU      4.42s WALL (    1980 calls)
     cegterg      :   1489.04s CPU   1499.75s WALL (     973 calls)

     Called by sum_band:
     sum_band:wei :      0.07s CPU      0.09s WALL (      54 calls)
     sum_band:loo :     39.31s CPU     29.91s WALL (      54 calls)
     sum_band:buf :      0.43s CPU      0.31s WALL (     972 calls)
     sum_band:ini :      2.99s CPU      2.09s WALL (     972 calls)
     sum_band:cal :      3.77s CPU      2.41s WALL (     972 calls)
     sum_band:bec :      0.06s CPU      0.04s WALL (     972 calls)
     addusdens    :     48.91s CPU     50.28s WALL (      54 calls)
                                        0.00s GPU  (      54 calls)
     addusd:skk   :      0.08s CPU      0.15s WALL (     162 calls)
                                        0.00s GPU  (     162 calls)

     Called by *egterg:
     cdiaghg      :    108.03s CPU    100.18s WALL (    3873 calls)
     cegterg:over :    495.86s CPU    493.75s WALL (    2900 calls)
     cegterg:upda :     30.16s CPU     48.39s WALL (    2900 calls)
     cegterg:last :     29.67s CPU     45.71s WALL (    1705 calls)
     h_psi        :    298.80s CPU    307.12s WALL (    3891 calls)
     s_psi        :     14.95s CPU     18.61s WALL (    3891 calls)
     g_psi        :      0.93s CPU      0.69s WALL (    2900 calls)

     Called by h_psi:
     h_psi:calbec :     91.09s CPU     92.22s WALL (    3891 calls)
     vloc_psi     :    174.58s CPU    158.71s WALL (    3891 calls)
     add_vuspsi   :     32.54s CPU     55.57s WALL (    3891 calls)

     General routines
     calbec       :     96.12s CPU     95.57s WALL (    4881 calls)
     fft          :      2.66s CPU      2.69s WALL (     727 calls)
     ffts         :      0.41s CPU      0.39s WALL (     109 calls)
     fftw         :    187.09s CPU    166.65s WALL (  134656 calls)
     interpolate  :      0.43s CPU      0.46s WALL (      55 calls)

     Parallel routines

     PAW routines
     PAW_pot      :      6.00s CPU      6.06s WALL (      55 calls)
     PAW_symme    :      0.05s CPU      0.04s WALL (     109 calls)

     PWSCF        :  29m54.18s CPU  29m53.14s WALL


   This run was terminated on:  19:11: 6  14Apr2025            

=------------------------------------------------------------------------------=
   JOB DONE.
=------------------------------------------------------------------------------=
