
     Program PWSCF v.7.3.1 starts on 16May2025 at 18:58:43 

     This program is part of the open-source Quantum ESPRESSO suite
     for quantum simulation of materials; please cite
         "P. Giannozzi et al., J. Phys.:Condens. Matter 21 395502 (2009);
         "P. Giannozzi et al., J. Phys.:Condens. Matter 29 465901 (2017);
         "P. Giannozzi et al., J. Chem. Phys. 152 154105 (2020);
          URL http://www.quantum-espresso.org", 
     in publications or presentations arising from this work. More details at
     http://www.quantum-espresso.org/quote

     Parallel version (MPI), running on     8 processors

     MPI processes distributed on     1 nodes
     54159 MiB available memory on the printing compute node when the environment starts

     Waiting for input...
     Reading input from standard input

     Current dimensions of program PWSCF are:
     Max number of different atomic species (ntypx) = 10
     Max number of k-points (npk) = 120000
     Max angular momentum in pseudopotentials (lmaxx) =  4
     file Ag.pbe-spn-kjpaw_psl.1.0.0.UPF: wavefunction(s)  4S 5S 4P 4D renormalized
     file I.pbe-n-kjpaw_psl.1.0.0.UPF: wavefunction(s)  5S renormalized

     IMPORTANT: XC functional enforced from input :
     Exchange-correlation= PBE
                           (   1   4   3   4   0   0   0)
     Any further DFT definition will be discarded
     Please, verify this is what you really want

     Message from routine setup:
     using ibrav=0 with symmetry is DISCOURAGED, use correct ibrav instead

     K-points division:     npool     =       4
     R & G space division:  proc/nbgrp/npool/nimage =       2
     Subspace diagonalization in iterative solution of the eigenvalue problem:
     a serial algorithm will be used


     Parallelization info
     --------------------
     sticks:   dense  smooth     PW     G-vecs:    dense   smooth      PW
     Min        3822    1904    524               250590    88514   12838
     Max        3823    1905    525               250593    88515   12839
     Sum        7645    3809   1049               501183   177029   25677

     Using Slab Decomposition



     bravais-lattice index     =            0
     lattice parameter (alat)  =      10.9449  a.u.
     unit-cell volume          =    1311.1121 (a.u.)^3
     number of atoms/cell      =            5
     number of atomic types    =            3
     number of electrons       =        44.00
     number of Kohn-Sham states=           26
     kinetic-energy cutoff     =     100.0000  Ry
     charge density cutoff     =     800.0000  Ry
     scf convergence threshold =      1.0E-12
     mixing beta               =       0.3000
     number of iterations used =            8  plain     mixing
     Exchange-correlation= PBE
                           (   1   4   3   4   0   0   0)

     celldm(1)=  10.944937  celldm(2)=   0.000000  celldm(3)=   0.000000
     celldm(4)=   0.000000  celldm(5)=   0.000000  celldm(6)=   0.000000

     crystal axes: (cart. coord. in units of alat)
               a(1) = (   1.000000   0.000000   0.000000 )  
               a(2) = (   0.000000   1.000000   0.000000 )  
               a(3) = (   0.000000   0.000000   1.000000 )  

     reciprocal axes: (cart. coord. in units 2 pi/alat)
               b(1) = (  1.000000  0.000000  0.000000 )  
               b(2) = (  0.000000  1.000000  0.000000 )  
               b(3) = (  0.000000  0.000000  1.000000 )  


     PseudoPot. # 1 for Ag read from file:
     /home/administrator/Downloads/BURAI/BURAI1.3/pseudopot/Ag.pbe-spn-kjpaw_psl.1.0.0.UPF
     MD5 check sum: 4bb6ed288085a1d2cdc62c229711c47d
     Pseudo is Projector augmented-wave + core cor, Zval = 19.0
     Generated using "atomic" code by A. Dal Corso  v.5.1.2
     Shape of augmentation charge: PSQ
     Using radial grid of 1237 points,  6 beta functions with: 
                l(1) =   0
                l(2) =   0
                l(3) =   1
                l(4) =   1
                l(5) =   2
                l(6) =   2
     Q(r) pseudized with 0 coefficients 


     PseudoPot. # 2 for Ge read from file:
     /home/administrator/Downloads/BURAI/BURAI1.3/pseudopot/Ge.pbe-n-kjpaw_psl.1.0.0.UPF
     MD5 check sum: 4aa708d04ebeac8ef886ea6b7189f44d
     Pseudo is Projector augmented-wave + core cor, Zval =  4.0
     Generated using "atomic" code by A. Dal Corso  v.5.1.2
     Shape of augmentation charge: PSQ
     Using radial grid of 1207 points,  4 beta functions with: 
                l(1) =   0
                l(2) =   0
                l(3) =   1
                l(4) =   1
     Q(r) pseudized with 0 coefficients 


     PseudoPot. # 3 for I  read from file:
     /home/administrator/Downloads/BURAI/BURAI1.3/pseudopot/I.pbe-n-kjpaw_psl.1.0.0.UPF
     MD5 check sum: e1b2a55c91904a364f23c37cb15bc296
     Pseudo is Projector augmented-wave + core cor, Zval =  7.0
     Generated using "atomic" code by A. Dal Corso  v.5.1.2
     Shape of augmentation charge: PSQ
     Using radial grid of 1247 points,  6 beta functions with: 
                l(1) =   0
                l(2) =   0
                l(3) =   1
                l(4) =   1
                l(5) =   2
                l(6) =   2
     Q(r) pseudized with 0 coefficients 


     atomic species   valence    mass     pseudopotential
     Ag               19.00   107.86820     Ag( 1.00)
     Ge                4.00    72.63000     Ge( 1.00)
     I                 7.00   126.90450     I ( 1.00)

     48 Sym. Ops., with inversion, found



   Cartesian axes

     site n.     atom                  positions (alat units)
         1        Ag     tau(   1) = (   0.0000000   0.0000000   0.0000000  )
         2        Ge     tau(   2) = (   0.5000000   0.5000000   0.5000000  )
         3        I      tau(   3) = (   0.5000000   0.5000000   0.0000000  )
         4        I      tau(   4) = (   0.5000000   0.0000000   0.5000000  )
         5        I      tau(   5) = (   0.0000000   0.5000000   0.5000000  )

     number of k points=    56  Gaussian smearing, width (Ry)=  0.0050
                       cart. coord. in units 2pi/alat
        k(    1) = (   0.0000000   0.0000000   0.0000000), wk =   0.0020000
        k(    2) = (   0.0000000   0.0000000   0.1000000), wk =   0.0120000
        k(    3) = (   0.0000000   0.0000000   0.2000000), wk =   0.0120000
        k(    4) = (   0.0000000   0.0000000   0.3000000), wk =   0.0120000
        k(    5) = (   0.0000000   0.0000000   0.4000000), wk =   0.0120000
        k(    6) = (   0.0000000   0.0000000  -0.5000000), wk =   0.0060000
        k(    7) = (   0.0000000   0.1000000   0.1000000), wk =   0.0240000
        k(    8) = (   0.0000000   0.1000000   0.2000000), wk =   0.0480000
        k(    9) = (   0.0000000   0.1000000   0.3000000), wk =   0.0480000
        k(   10) = (   0.0000000   0.1000000   0.4000000), wk =   0.0480000
        k(   11) = (   0.0000000   0.1000000  -0.5000000), wk =   0.0240000
        k(   12) = (   0.0000000   0.2000000   0.2000000), wk =   0.0240000
        k(   13) = (   0.0000000   0.2000000   0.3000000), wk =   0.0480000
        k(   14) = (   0.0000000   0.2000000   0.4000000), wk =   0.0480000
        k(   15) = (   0.0000000   0.2000000  -0.5000000), wk =   0.0240000
        k(   16) = (   0.0000000   0.3000000   0.3000000), wk =   0.0240000
        k(   17) = (   0.0000000   0.3000000   0.4000000), wk =   0.0480000
        k(   18) = (   0.0000000   0.3000000  -0.5000000), wk =   0.0240000
        k(   19) = (   0.0000000   0.4000000   0.4000000), wk =   0.0240000
        k(   20) = (   0.0000000   0.4000000  -0.5000000), wk =   0.0240000
        k(   21) = (   0.0000000  -0.5000000  -0.5000000), wk =   0.0060000
        k(   22) = (   0.1000000   0.1000000   0.1000000), wk =   0.0160000
        k(   23) = (   0.1000000   0.1000000   0.2000000), wk =   0.0480000
        k(   24) = (   0.1000000   0.1000000   0.3000000), wk =   0.0480000
        k(   25) = (   0.1000000   0.1000000   0.4000000), wk =   0.0480000
        k(   26) = (   0.1000000   0.1000000  -0.5000000), wk =   0.0240000
        k(   27) = (   0.1000000   0.2000000   0.2000000), wk =   0.0480000
        k(   28) = (   0.1000000   0.2000000   0.3000000), wk =   0.0960000
        k(   29) = (   0.1000000   0.2000000   0.4000000), wk =   0.0960000
        k(   30) = (   0.1000000   0.2000000  -0.5000000), wk =   0.0480000
        k(   31) = (   0.1000000   0.3000000   0.3000000), wk =   0.0480000
        k(   32) = (   0.1000000   0.3000000   0.4000000), wk =   0.0960000
        k(   33) = (   0.1000000   0.3000000  -0.5000000), wk =   0.0480000
        k(   34) = (   0.1000000   0.4000000   0.4000000), wk =   0.0480000
        k(   35) = (   0.1000000   0.4000000  -0.5000000), wk =   0.0480000
        k(   36) = (   0.1000000  -0.5000000  -0.5000000), wk =   0.0120000
        k(   37) = (   0.2000000   0.2000000   0.2000000), wk =   0.0160000
        k(   38) = (   0.2000000   0.2000000   0.3000000), wk =   0.0480000
        k(   39) = (   0.2000000   0.2000000   0.4000000), wk =   0.0480000
        k(   40) = (   0.2000000   0.2000000  -0.5000000), wk =   0.0240000
        k(   41) = (   0.2000000   0.3000000   0.3000000), wk =   0.0480000
        k(   42) = (   0.2000000   0.3000000   0.4000000), wk =   0.0960000
        k(   43) = (   0.2000000   0.3000000  -0.5000000), wk =   0.0480000
        k(   44) = (   0.2000000   0.4000000   0.4000000), wk =   0.0480000
        k(   45) = (   0.2000000   0.4000000  -0.5000000), wk =   0.0480000
        k(   46) = (   0.2000000  -0.5000000  -0.5000000), wk =   0.0120000
        k(   47) = (   0.3000000   0.3000000   0.3000000), wk =   0.0160000
        k(   48) = (   0.3000000   0.3000000   0.4000000), wk =   0.0480000
        k(   49) = (   0.3000000   0.3000000  -0.5000000), wk =   0.0240000
        k(   50) = (   0.3000000   0.4000000   0.4000000), wk =   0.0480000
        k(   51) = (   0.3000000   0.4000000  -0.5000000), wk =   0.0480000
        k(   52) = (   0.3000000  -0.5000000  -0.5000000), wk =   0.0120000
        k(   53) = (   0.4000000   0.4000000   0.4000000), wk =   0.0160000
        k(   54) = (   0.4000000   0.4000000  -0.5000000), wk =   0.0240000
        k(   55) = (   0.4000000  -0.5000000  -0.5000000), wk =   0.0120000
        k(   56) = (  -0.5000000  -0.5000000  -0.5000000), wk =   0.0020000

     Dense  grid:   501183 G-vectors     FFT dimensions: ( 100, 100, 100)

     Smooth grid:   177029 G-vectors     FFT dimensions: (  72,  72,  72)

     Estimated max dynamical RAM per process >     422.32 MB

     Estimated total dynamical RAM >       2.94 GB

     Check: negative core charge=   -0.000001

     Initial potential from superposition of free atoms

     starting charge      43.9987, renormalised to      44.0000
     Starting wfcs are   26 randomized atomic wfcs
     Checking if some PAW data can be deallocated... 

     total cpu time spent up to now is       11.5 secs

     Self-consistent Calculation

     iteration #  1     ecut=   100.00 Ry     beta= 0.30
     Davidson diagonalization with overlap
     ethr =  1.00E-02,  avg # of iterations =  2.0

     Threshold (ethr) on eigenvalues was too large:
     Diagonalizing with lowered threshold

     Davidson diagonalization with overlap
     ethr =  4.55E-04,  avg # of iterations =  4.6

     total cpu time spent up to now is       58.3 secs

     total energy              =   -1858.20064828 Ry
     estimated scf accuracy    <       0.19200542 Ry

     iteration #  2     ecut=   100.00 Ry     beta= 0.30
     Davidson diagonalization with overlap
     ethr =  4.36E-04,  avg # of iterations =  2.3

     total cpu time spent up to now is       81.3 secs

     total energy              =   -1858.21683337 Ry
     estimated scf accuracy    <       0.02681548 Ry

     iteration #  3     ecut=   100.00 Ry     beta= 0.30
     Davidson diagonalization with overlap
     ethr =  6.09E-05,  avg # of iterations =  5.8

     total cpu time spent up to now is      108.9 secs

     total energy              =   -1858.21953022 Ry
     estimated scf accuracy    <       0.00521078 Ry

     iteration #  4     ecut=   100.00 Ry     beta= 0.30
     Davidson diagonalization with overlap
     ethr =  1.18E-05,  avg # of iterations =  3.4

     total cpu time spent up to now is      132.3 secs

     total energy              =   -1858.21973462 Ry
     estimated scf accuracy    <       0.00104101 Ry

     iteration #  5     ecut=   100.00 Ry     beta= 0.30
     Davidson diagonalization with overlap
     c_bands:  1 eigenvalues not converged
     ethr =  2.37E-06,  avg # of iterations =  4.9

     total cpu time spent up to now is      158.0 secs

     total energy              =   -1858.21982652 Ry
     estimated scf accuracy    <       0.00001523 Ry

     iteration #  6     ecut=   100.00 Ry     beta= 0.30
     Davidson diagonalization with overlap
     ethr =  3.46E-08,  avg # of iterations =  3.7

     total cpu time spent up to now is      185.6 secs

     total energy              =   -1858.21983454 Ry
     estimated scf accuracy    <       0.00000819 Ry

     iteration #  7     ecut=   100.00 Ry     beta= 0.30
     Davidson diagonalization with overlap
     ethr =  1.86E-08,  avg # of iterations =  2.0

     total cpu time spent up to now is      210.5 secs

     total energy              =   -1858.21983581 Ry
     estimated scf accuracy    <       0.00000112 Ry

     iteration #  8     ecut=   100.00 Ry     beta= 0.30
     Davidson diagonalization with overlap
     ethr =  2.55E-09,  avg # of iterations =  1.3

     total cpu time spent up to now is      231.7 secs

     total energy              =   -1858.21983575 Ry
     estimated scf accuracy    <       0.00000031 Ry

     iteration #  9     ecut=   100.00 Ry     beta= 0.30
     Davidson diagonalization with overlap
     ethr =  7.05E-10,  avg # of iterations =  2.0

     total cpu time spent up to now is      256.0 secs

     total energy              =   -1858.21983581 Ry
     estimated scf accuracy    <       0.00000003 Ry

     iteration # 10     ecut=   100.00 Ry     beta= 0.30
     Davidson diagonalization with overlap
     ethr =  7.07E-11,  avg # of iterations =  2.7

     total cpu time spent up to now is      282.5 secs

     total energy              =   -1858.21983578 Ry
     estimated scf accuracy    <       0.00000007 Ry

     iteration # 11     ecut=   100.00 Ry     beta= 0.30
     Davidson diagonalization with overlap
     ethr =  7.07E-11,  avg # of iterations =  2.2

     total cpu time spent up to now is      308.6 secs

     total energy              =   -1858.21983579 Ry
     estimated scf accuracy    <          4.3E-10 Ry

     iteration # 12     ecut=   100.00 Ry     beta= 0.30
     Davidson diagonalization with overlap
     ethr =  9.80E-13,  avg # of iterations =  4.9

     total cpu time spent up to now is      340.8 secs

     total energy              =   -1858.21983579 Ry
     estimated scf accuracy    <          4.5E-10 Ry

     iteration # 13     ecut=   100.00 Ry     beta= 0.30
     Davidson diagonalization with overlap
     ethr =  9.80E-13,  avg # of iterations =  2.0

     total cpu time spent up to now is      365.5 secs

     total energy              =   -1858.21983579 Ry
     estimated scf accuracy    <          1.3E-10 Ry

     iteration # 14     ecut=   100.00 Ry     beta= 0.30
     Davidson diagonalization with overlap
     ethr =  2.98E-13,  avg # of iterations =  2.0

     total cpu time spent up to now is      390.0 secs

     total energy              =   -1858.21983579 Ry
     estimated scf accuracy    <          1.5E-11 Ry

     iteration # 15     ecut=   100.00 Ry     beta= 0.30
     Davidson diagonalization with overlap
     c_bands:  1 eigenvalues not converged
     ethr =  1.00E-13,  avg # of iterations =  2.3

     total cpu time spent up to now is      414.0 secs

     total energy              =   -1858.21983579 Ry
     estimated scf accuracy    <          1.2E-12 Ry

     iteration # 16     ecut=   100.00 Ry     beta= 0.30
     Davidson diagonalization with overlap
     ethr =  1.00E-13,  avg # of iterations =  1.0

     total cpu time spent up to now is      434.8 secs

     End of self-consistent calculation

          k = 0.0000 0.0000 0.0000 ( 22119 PWs)   bands (ev):

   -87.4141 -50.9474 -50.9474 -50.9474  -9.2773  -8.0508  -8.0508  -2.6457
    -0.7534  -0.7534  -0.7534   0.1940   0.1940   0.1955   0.1955   0.1955
     2.3689   2.3689   2.3689   2.4620   2.4620   2.4620   3.5706   8.7903
     8.7903   8.7904

          k = 0.0000 0.0000 0.1000 ( 22163 PWs)   bands (ev):

   -87.4141 -50.9474 -50.9474 -50.9474  -9.2558  -8.0756  -8.0501  -2.7947
    -0.7395  -0.7395  -0.5006   0.1894   0.1956   0.1957   0.1958   0.1958
     2.3396   2.3396   2.3499   2.3565   2.4483   2.4483   3.7458   8.8001
     8.8011   8.8011

          k = 0.0000 0.0000 0.2000 ( 22139 PWs)   bands (ev):

   -87.4141 -50.9474 -50.9474 -50.9474  -9.1943  -8.1462  -8.0484  -3.0826
    -0.7025  -0.7025   0.0697   0.1774   0.1960   0.1977   0.1977   0.2021
     2.1765   2.2181   2.2181   2.3249   2.4594   2.4594   4.1156   7.8941
     8.6459   8.7983

          k = 0.0000 0.0000 0.3000 ( 22147 PWs)   bands (ev):

   -87.4141 -50.9474 -50.9474 -50.9474  -9.1035  -8.2489  -8.0463  -3.3392
    -0.6547  -0.6547   0.1625   0.1964   0.2027   0.2031   0.2031   0.6734
     2.0536   2.0536   2.1783   2.2876   2.4899   2.4899   4.4772   6.8556
     7.9997   8.7590

          k = 0.0000 0.0000 0.4000 ( 22131 PWs)   bands (ev):

   -87.4141 -50.9474 -50.9474 -50.9474  -9.0090  -8.3538  -8.0446  -3.5040
    -0.6144  -0.6144   0.1502   0.1967   0.2070   0.2109   0.2109   0.9979
     1.9183   1.9183   2.2588   2.5169   2.5169   2.5645   4.5511   6.1175
     7.4798   8.7062

          k = 0.0000 0.0000-0.5000 ( 22154 PWs)   bands (ev):

   -87.4141 -50.9474 -50.9474 -50.9474  -8.9634  -8.4035  -8.0439  -3.5600
    -0.5986  -0.5986   0.1455   0.1968   0.2086   0.2150   0.2150   1.0632
     1.8661   1.8661   2.2481   2.5274   2.5274   2.9473   4.3174   5.9660
     7.2544   8.6815

          k = 0.0000 0.1000 0.1000 ( 22181 PWs)   bands (ev):

   -87.4141 -50.9474 -50.9474 -50.9474  -9.2343  -8.0865  -8.0626  -2.9313
    -0.7254  -0.5857  -0.4041   0.1865   0.1906   0.1942   0.2004   0.2016
     2.1572   2.3316   2.3488   2.3786   2.4142   2.4848   3.8799   8.5919
     8.7124   8.8179

          k = 0.0000 0.1000 0.2000 ( 22162 PWs)   bands (ev):

   -87.4141 -50.9474 -50.9474 -50.9474  -9.1728  -8.1500  -8.0660  -3.2047
    -0.6873  -0.5020   0.0680   0.1770   0.1869   0.1986   0.2041   0.2390
     1.9511   2.2290   2.2701   2.3966   2.4084   2.4954   4.1923   7.8772
     8.5179   8.6691

          k = 0.0000 0.1000 0.3000 ( 22142 PWs)   bands (ev):

   -87.4141 -50.9474 -50.9474 -50.9474  -9.0820  -8.2496  -8.0645  -3.4546
    -0.6381  -0.4512   0.1615   0.1866   0.1950   0.2071   0.2103   0.6884
     1.8480   2.0671   2.2384   2.4275   2.4391   2.4789   4.5114   6.8484
     7.9940   8.6330

          k = 0.0000 0.1000 0.4000 ( 22132 PWs)   bands (ev):

   -87.4141 -50.9474 -50.9474 -50.9474  -8.9870  -8.3529  -8.0630  -3.6173
    -0.5964  -0.4124   0.1504   0.1893   0.2045   0.2094   0.2244   0.9626
     1.8243   1.9334   2.3857   2.4671   2.4778   2.6079   4.5669   6.0783
     7.5494   8.5908

          k = 0.0000 0.1000-0.5000 ( 22130 PWs)   bands (ev):

   -87.4141 -50.9474 -50.9474 -50.9474  -8.9409  -8.4022  -8.0623  -3.6729
    -0.5800  -0.3976   0.1460   0.1910   0.2071   0.2106   0.2315   1.0065
     1.8041   1.8818   2.3939   2.4781   2.4839   2.9643   4.3391   5.8900
     7.3667   8.5704

          k = 0.0000 0.2000 0.2000 ( 22171 PWs)   bands (ev):

   -87.4141 -50.9474 -50.9474 -50.9474  -9.1114  -8.1764  -8.1011  -3.4606
    -0.6463  -0.1135   0.0939   0.1742   0.1773   0.1961   0.2074   0.3935
     1.7242   2.2397   2.2942   2.2952   2.3288   2.6287   4.3871   7.8416
     7.8462   8.5249

          k = 0.0000 0.2000 0.3000 ( 22154 PWs)   bands (ev):

   -87.4141 -50.9474 -50.9474 -50.9474  -9.0202  -8.2547  -8.1149  -3.7042
    -0.5927   0.0055   0.1589   0.1720   0.1949   0.2063   0.2347   0.7269
     1.6479   2.1025   2.2807   2.3087   2.3647   2.6934   4.5939   6.8169
     7.8241   8.1159

          k = 0.0000 0.2000 0.4000 ( 22136 PWs)   bands (ev):

   -87.4141 -50.9474 -50.9474 -50.9474  -8.9237  -8.3507  -8.1170  -3.8663
    -0.5465   0.0177   0.1480   0.1732   0.2013   0.2018   0.3274   0.8752
     1.7208   1.9729   2.3394   2.3548   2.5847   2.7554   4.6049   5.9614
     7.7443   7.9544

          k = 0.0000 0.2000-0.5000 ( 22146 PWs)   bands (ev):

   -87.4141 -50.9474 -50.9474 -50.9474  -8.8759  -8.3990  -8.1171  -3.9223
    -0.5282   0.0202   0.1432   0.1762   0.1972   0.2038   0.3625   0.8802
     1.7363   1.9230   2.3515   2.3754   2.6663   3.0224   4.3986   5.6895
     7.6687   7.9617

          k = 0.0000 0.3000 0.3000 ( 22169 PWs)   bands (ev):

   -87.4141 -50.9474 -50.9474 -50.9474  -8.9277  -8.2810  -8.1740  -3.9488
    -0.5320   0.1426   0.1601   0.1615   0.1981   0.1983   0.5769   0.7683
     1.6012   2.1362   2.1612   2.2450   2.4504   2.8540   4.6714   6.6376
     6.9540   7.9948

          k = 0.0000 0.3000 0.4000 ( 22124 PWs)   bands (ev):

   -87.4141 -50.9474 -50.9474 -50.9474  -8.8275  -8.3497  -8.2005  -4.1146
    -0.4783   0.1343   0.1562   0.1618   0.1849   0.2011   0.7591   0.8484
     1.6780   2.0221   2.1852   2.2370   2.7821   2.9495   4.6432   5.7968
     6.7928   8.0224

          k = 0.0000 0.3000-0.5000 ( 22144 PWs)   bands (ev):

   -87.4141 -50.9474 -50.9474 -50.9474  -8.7757  -8.3950  -8.2052  -4.1724
    -0.4565   0.1283   0.1586   0.1624   0.1756   0.2025   0.7611   0.9043
     1.7006   1.9742   2.1990   2.2494   2.9364   3.1562   4.4821   5.4283
     6.7701   8.0662

          k = 0.0000 0.4000 0.4000 ( 22124 PWs)   bands (ev):

   -87.4141 -50.9474 -50.9474 -50.9474  -8.7184  -8.3610  -8.2877  -4.2851
    -0.4158   0.1150   0.1455   0.1644   0.1859   0.2030   0.7107   1.3039
     1.6778   2.0596   2.0652   2.1638   3.0880   3.1302   4.6455   5.5687
     5.8272   7.9251

          k = 0.0000 0.4000-0.5000 ( 22134 PWs)   bands (ev):

   -87.4141 -50.9474 -50.9474 -50.9474  -8.6563  -8.3917  -8.3152  -4.3448
    -0.3895   0.1052   0.1449   0.1514   0.1925   0.2041   0.6895   1.4586
     1.6839   2.0159   2.0778   2.1508   3.1382   3.4436   4.5741   5.1841
     5.6651   7.8602

          k = 0.0000-0.5000-0.5000 ( 22064 PWs)   bands (ev):

   -87.4141 -50.9474 -50.9474 -50.9474  -8.5775  -8.3905  -8.3905  -4.4054
    -0.3608   0.0939   0.1397   0.1397   0.2008   0.2051   0.6673   1.6789
     1.6789   2.0319   2.0319   2.1119   3.2148   3.7356   4.6282   5.0684
     5.0684   7.7926

          k = 0.1000 0.1000 0.1000 ( 22175 PWs)   bands (ev):

   -87.4141 -50.9474 -50.9474 -50.9474  -9.2128  -8.0858  -8.0858  -3.0590
    -0.5718  -0.5718  -0.3202   0.1847   0.1847   0.1969   0.1969   0.2152
     2.1220   2.2048   2.2048   2.4368   2.5046   2.5046   3.9866   8.3799
     8.7552   8.7552

          k = 0.1000 0.1000 0.2000 ( 22167 PWs)   bands (ev):

   -87.4141 -50.9474 -50.9474 -50.9474  -9.1515  -8.1523  -8.0840  -3.3213
    -0.5344  -0.4476   0.0681   0.1738   0.1855   0.1989   0.2007   0.2828
     1.9346   2.0183   2.2193   2.4678   2.4898   2.5328   4.2527   7.8405
     8.2878   8.7004

          k = 0.1000 0.1000 0.3000 ( 22140 PWs)   bands (ev):

   -87.4141 -50.9474 -50.9474 -50.9474  -9.0606  -8.2502  -8.0818  -3.5662
    -0.4863  -0.3887   0.1613   0.1762   0.2004   0.2080   0.2094   0.7047
     1.8315   1.8936   2.2675   2.4348   2.4792   2.5499   4.5331   6.8380
     7.9042   8.5215

          k = 0.1000 0.1000 0.4000 ( 22150 PWs)   bands (ev):

   -87.4141 -50.9474 -50.9474 -50.9474  -8.9653  -8.3519  -8.0799  -3.7274
    -0.4459  -0.3477   0.1513   0.1822   0.2056   0.2183   0.2253   0.9408
     1.6905   2.0249   2.3040   2.4739   2.5664   2.6368   4.5731   6.0362
     7.5882   8.4154

          k = 0.1000 0.1000-0.5000 ( 22134 PWs)   bands (ev):

   -87.4141 -50.9474 -50.9474 -50.9474  -8.9188  -8.4010  -8.0792  -3.7828
    -0.4302  -0.3323   0.1474   0.1838   0.2075   0.2238   0.2315   0.9729
     1.6373   2.0482   2.3111   2.4692   2.5737   2.9774   4.3541   5.8132
     7.4604   8.3817

          k = 0.1000 0.2000 0.2000 ( 22166 PWs)   bands (ev):

   -87.4141 -50.9474 -50.9474 -50.9474  -9.0902  -8.1756  -8.1196  -3.5701
    -0.4623  -0.1005   0.0921   0.1714   0.1759   0.1981   0.2066   0.4372
     1.7422   2.0156   2.0326   2.4942   2.5354   2.6370   4.4136   7.7280
     7.8332   8.2637

          k = 0.1000 0.2000 0.3000 ( 22158 PWs)   bands (ev):

   -87.4141 -50.9474 -50.9474 -50.9474  -8.9993  -8.2546  -8.1295  -3.8107
    -0.4078   0.0186   0.1598   0.1653   0.2005   0.2101   0.2396   0.7452
     1.6387   1.9215   2.0841   2.4800   2.5541   2.7000   4.5860   6.8022
     7.6883   8.0264

          k = 0.1000 0.2000 0.4000 ( 22160 PWs)   bands (ev):

   -87.4141 -50.9474 -50.9474 -50.9474  -8.9028  -8.3497  -8.1300  -3.9724
    -0.3626   0.0315   0.1506   0.1680   0.2044   0.2128   0.3360   0.8761
     1.5655   2.0494   2.1577   2.5478   2.6414   2.7654   4.5843   5.9188
     7.6855   7.9468

          k = 0.1000 0.2000-0.5000 ( 22128 PWs)   bands (ev):

   -87.4141 -50.9474 -50.9474 -50.9474  -8.8547  -8.3979  -8.1297  -4.0285
    -0.3448   0.0347   0.1467   0.1692   0.2061   0.2137   0.3710   0.8792
     1.5225   2.1091   2.1556   2.5724   2.6851   3.0301   4.3921   5.6140
     7.7209   7.9366

          k = 0.1000 0.3000 0.3000 ( 22180 PWs)   bands (ev):

   -87.4141 -50.9474 -50.9474 -50.9474  -8.9076  -8.2801  -8.1851  -4.0536
    -0.3444   0.1447   0.1566   0.1578   0.2005   0.2084   0.5902   0.7850
     1.5546   1.8891   2.0860   2.4753   2.5874   2.8569   4.6287   6.6268
     6.9269   7.7457

          k = 0.1000 0.3000 0.4000 ( 22121 PWs)   bands (ev):

   -87.4141 -50.9474 -50.9474 -50.9474  -8.8080  -8.3488  -8.2081  -4.2198
    -0.2895   0.1389   0.1550   0.1583   0.1994   0.2031   0.7726   0.8555
     1.5188   1.9057   2.1981   2.4787   2.8137   2.9527   4.5836   5.7639
     6.7726   7.8382

          k = 0.1000 0.3000-0.5000 ( 22128 PWs)   bands (ev):

   -87.4141 -50.9474 -50.9474 -50.9474  -8.7562  -8.3939  -8.2118  -4.2780
    -0.2671   0.1330   0.1581   0.1595   0.1928   0.2043   0.7710   0.9132
     1.4848   1.9412   2.2071   2.4956   2.9396   3.1627   4.4388   5.3634
     6.7519   8.0877

          k = 0.1000 0.4000 0.4000 ( 22120 PWs)   bands (ev):

   -87.4141 -50.9474 -50.9474 -50.9474  -8.7006  -8.3600  -8.2904  -4.3911
    -0.2217   0.1225   0.1477   0.1688   0.1911   0.2040   0.7210   1.2655
     1.5082   1.8746   2.2413   2.3984   3.0878   3.1425   4.5523   5.5521
     5.8000   7.9399

          k = 0.1000 0.4000-0.5000 ( 22128 PWs)   bands (ev):

   -87.4141 -50.9474 -50.9474 -50.9474  -8.6390  -8.3907  -8.3161  -4.4514
    -0.1922   0.1142   0.1481   0.1583   0.1941   0.2050   0.6981   1.3849
     1.4800   1.9405   2.2362   2.3736   3.1377   3.4502   4.4838   5.1426
     5.6478   7.9876

          k = 0.1000-0.5000-0.5000 ( 22104 PWs)   bands (ev):

   -87.4141 -50.9474 -50.9474 -50.9474  -8.5607  -8.3895  -8.3895  -4.5126
    -0.1579   0.1056   0.1434   0.1434   0.2014   0.2058   0.6742   1.4810
     1.4810   2.1133   2.2464   2.2464   3.2138   3.7441   4.5075   5.0474
     5.0474   7.9708

          k = 0.2000 0.2000 0.2000 ( 22142 PWs)   bands (ev):

   -87.4141 -50.9474 -50.9474 -50.9474  -9.0297  -8.1736  -8.1736  -3.8106
    -0.0674  -0.0674   0.0963   0.1718   0.1718   0.2078   0.2078   0.5742
     1.7779   1.7779   1.8150   2.6245   2.6692   2.6692   4.4883   7.5241
     7.8082   7.8082

          k = 0.2000 0.2000 0.3000 ( 22148 PWs)   bands (ev):

   -87.4141 -50.9474 -50.9474 -50.9474  -8.9395  -8.2563  -8.1710  -4.0500
    -0.0302   0.0712   0.1565   0.1650   0.2026   0.2345   0.2953   0.7891
     1.5467   1.7519   1.9468   2.6685   2.7054   2.7311   4.5619   6.7588
     7.4939   7.7816

          k = 0.2000 0.2000 0.4000 ( 22116 PWs)   bands (ev):

   -87.4141 -50.9474 -50.9474 -50.9474  -8.8429  -8.3476  -8.1689  -4.2138
    -0.0055   0.0821   0.1573   0.1580   0.2069   0.2740   0.4235   0.8651
     1.3775   1.8279   2.2852   2.6931   2.7621   2.8081   4.5213   5.8114
     7.6233   7.7680

          k = 0.2000 0.2000-0.5000 ( 22132 PWs)   bands (ev):

   -87.4141 -50.9474 -50.9474 -50.9474  -8.7938  -8.3948  -8.1681  -4.2711
     0.0023   0.0875   0.1549   0.1550   0.2081   0.2948   0.4634   0.8595
     1.3132   1.8567   2.4034   2.7030   2.7689   3.0639   4.3650   5.4295
     7.7650   7.8199

          k = 0.2000 0.3000 0.3000 ( 22149 PWs)   bands (ev):

   -87.4141 -50.9474 -50.9474 -50.9474  -8.8501  -8.2777  -8.2188  -4.2939
     0.0593   0.1447   0.1547   0.1699   0.2031   0.2783   0.6307   0.8246
     1.4258   1.6061   2.1018   2.7073   2.7647   2.8646   4.5142   6.5911
     6.8528   7.5301

          k = 0.2000 0.3000 0.4000 ( 22136 PWs)   bands (ev):

   -87.4141 -50.9474 -50.9474 -50.9474  -8.7525  -8.3466  -8.2317  -4.4639
     0.0858   0.1499   0.1540   0.1669   0.2063   0.3260   0.8067   0.8757
     1.2882   1.6494   2.4208   2.7167   2.8850   2.9621   4.4247   5.6825
     6.7106   7.6917

          k = 0.2000 0.3000-0.5000 ( 22142 PWs)   bands (ev):

   -87.4141 -50.9474 -50.9474 -50.9474  -8.7008  -8.3911  -8.2329  -4.5239
     0.0970   0.1421   0.1614   0.1625   0.2076   0.3492   0.7946   0.9371
     1.2194   1.6922   2.5208   2.7259   2.9535   3.1821   4.3112   5.2167
     6.6918   7.8112

          k = 0.2000 0.4000 0.4000 ( 22102 PWs)   bands (ev):

   -87.4141 -50.9474 -50.9474 -50.9474  -8.6504  -8.3574  -8.2998  -4.6403
     0.1180   0.1527   0.1549   0.1846   0.2065   0.3569   0.7498   1.1501
     1.2579   1.7430   2.5261   2.6760   3.0877   3.1688   4.3235   5.4968
     5.7296   7.7768

          k = 0.2000 0.4000-0.5000 ( 22100 PWs)   bands (ev):

   -87.4141 -50.9474 -50.9474 -50.9474  -8.5909  -8.3881  -8.3198  -4.7030
     0.1360   0.1390   0.1592   0.1913   0.2073   0.3716   0.7226   1.2050
     1.2086   1.8793   2.5594   2.6499   3.1367   3.4693   4.2531   5.0450
     5.5915   7.8005

          k = 0.2000-0.5000-0.5000 ( 22112 PWs)   bands (ev):

   -87.4141 -50.9474 -50.9474 -50.9474  -8.5150  -8.3869  -8.3869  -4.7669
     0.1360   0.1546   0.1546   0.2001   0.2077   0.3815   0.6943   1.2072
     1.2072   2.1170   2.5692   2.5692   3.2112   3.7738   4.2282   4.9766
     4.9766   7.7975

          k = 0.3000 0.3000 0.3000 ( 22121 PWs)   bands (ev):

   -87.4141 -50.9474 -50.9474 -50.9474  -8.7644  -8.2748  -8.2748  -4.5449
     0.1315   0.1557   0.1557   0.1999   0.1999   0.6992   0.6992   0.8515
     1.3535   1.3535   2.3006   2.8708   2.8708   2.8795   4.3657   6.5369
     6.5369   6.9706

          k = 0.3000 0.3000 0.4000 ( 22122 PWs)   bands (ev):

   -87.4141 -50.9474 -50.9474 -50.9474  -8.6700  -8.3449  -8.2725  -4.7230
     0.1415   0.1607   0.1629   0.1898   0.2077   0.7929   0.8271   0.9379
     1.1471   1.4865   2.6564   2.8819   2.9750   2.9865   4.2268   5.5794
     6.4888   6.8519

          k = 0.3000 0.3000-0.5000 ( 22128 PWs)   bands (ev):

   -87.4141 -50.9474 -50.9474 -50.9474  -8.6181  -8.3876  -8.2716  -4.7866
     0.1493   0.1593   0.1727   0.1786   0.2095   0.8038   0.8681   0.9818
     1.0342   1.5774   2.7667   2.8851   3.0069   3.2521   4.1356   5.0529
     6.4700   6.8351

          k = 0.3000 0.4000 0.4000 ( 22163 PWs)   bands (ev):

   -87.4141 -50.9474 -50.9474 -50.9474  -8.5779  -8.3543  -8.3191  -4.9096
     0.1526   0.1676   0.1751   0.1965   0.2084   0.7864   0.9190   1.0006
     1.1419   1.6939   2.8322   2.9144   3.0889   3.1931   4.0637   5.4062
     5.6235   6.6694

          k = 0.3000 0.4000-0.5000 ( 22132 PWs)   bands (ev):

   -87.4141 -50.9474 -50.9474 -50.9474  -8.5229  -8.3847  -8.3297  -4.9768
     0.1598   0.1697   0.1794   0.1956   0.2097   0.7568   0.9717   0.9787
     1.1060   1.8760   2.8588   2.9067   3.1373   3.5160   3.9867   4.9126
     5.4961   6.6447

          k = 0.3000-0.5000-0.5000 ( 22156 PWs)   bands (ev):

   -87.4141 -50.9474 -50.9474 -50.9474  -8.4543  -8.3837  -8.3837  -5.0455
     0.1729   0.1729   0.1729   0.2024   0.2101   0.7243   0.9780   0.9780
     1.1014   2.1215   2.8740   2.8740   3.2079   3.8451   3.9293   4.8533
     4.8533   6.6186

          k = 0.4000 0.4000 0.4000 ( 22142 PWs)   bands (ev):

   -87.4141 -50.9474 -50.9474 -50.9474  -8.4999  -8.3517  -8.3517  -5.1069
     0.1732   0.1840   0.1840   0.2068   0.2068   0.8008   0.8833   0.8833
     1.6815   1.6815   3.0604   3.0604   3.1095   3.3561   3.8659   5.3154
     5.3154   5.7904

          k = 0.4000 0.4000-0.5000 ( 22144 PWs)   bands (ev):

   -87.4141 -50.9474 -50.9474 -50.9474  -8.4516  -8.3821  -8.3507  -5.1787
     0.1813   0.1881   0.1983   0.1992   0.2109   0.7774   0.8395   0.8723
     1.6798   1.9437   3.0701   3.0759   3.1547   3.7012   3.7847   4.7781
     5.2766   5.6550

          k = 0.4000-0.5000-0.5000 ( 22136 PWs)   bands (ev):

   -87.4141 -50.9474 -50.9474 -50.9474  -8.4013  -8.3810  -8.3810  -5.2524
     0.1937   0.1937   0.2020   0.2035   0.2120   0.7538   0.8228   0.8228
     1.8032   2.1252   3.1098   3.1098   3.2053   3.7099   4.0344   4.7168
     4.7168   5.4793

          k =-0.5000-0.5000-0.5000 ( 22256 PWs)   bands (ev):

   -87.4141 -50.9474 -50.9474 -50.9474  -8.3800  -8.3800  -8.3800  -5.3284
     0.2039   0.2039   0.2039   0.2128   0.2128   0.7666   0.7666   0.7666
     2.1266   2.1266   3.2043   3.2043   3.2043   3.6297   4.4531   4.6527
     4.6527   4.6527

     the Fermi energy is     3.7784 ev

!    total energy              =   -1858.21983579 Ry
     total all-electron energy =    -57528.966813 Ry
     estimated scf accuracy    <          2.7E-13 Ry
     smearing contrib. (-TS)   =      -0.00011277 Ry
     internal energy E=F+TS    =   -1858.21972303 Ry

     The total energy is F=E-TS. E is the sum of the following terms:
     one-electron contribution =    -248.87139687 Ry
     hartree contribution      =     138.87650022 Ry
     xc contribution           =    -102.46358309 Ry
     ewald contribution        =    -206.56749831 Ry
     one-center paw contrib.   =   -1439.19374498 Ry

     convergence has been achieved in  16 iterations

     Writing all to output data dir ./tmp/AgGeI3.save/ :
     XML data file, charge density, pseudopotentials, collected wavefunctions

     init_run     :     11.78s CPU     11.01s WALL (       1 calls)
     electrons    :    510.33s CPU    423.32s WALL (       1 calls)

     Called by init_run:
     wfcinit      :      7.89s CPU      6.76s WALL (       1 calls)
     potinit      :      1.36s CPU      1.50s WALL (       1 calls)
     hinit0       :      1.26s CPU      1.31s WALL (       1 calls)

     Called by electrons:
     c_bands      :    378.68s CPU    304.83s WALL (      17 calls)
     sum_band     :    103.77s CPU     87.87s WALL (      17 calls)
     v_of_rho     :      8.83s CPU      9.78s WALL (      17 calls)
     newd         :     14.89s CPU     16.89s WALL (      17 calls)
     PAW_pot      :      3.78s CPU      3.81s WALL (      17 calls)
     mix_rho      :      0.78s CPU      0.81s WALL (      17 calls)

     Called by c_bands:
     init_us_2    :     13.88s CPU     10.01s WALL (     490 calls)
     cegterg      :    327.14s CPU    264.04s WALL (     238 calls)

     Called by *egterg:
     cdiaghg      :      3.19s CPU      2.27s WALL (    1005 calls)
     h_psi        :    268.21s CPU    232.61s WALL (    1033 calls)
     s_psi        :     14.35s CPU      7.61s WALL (    1033 calls)
     g_psi        :      1.77s CPU      1.28s WALL (     781 calls)

     Called by h_psi:
     h_psi:calbec :     15.21s CPU      8.28s WALL (    1033 calls)
     vloc_psi     :    236.92s CPU    215.22s WALL (    1033 calls)
     add_vuspsi   :     14.59s CPU      7.80s WALL (    1033 calls)

     General routines
     calbec       :     21.03s CPU     11.49s WALL (    1271 calls)
     fft          :      5.63s CPU      6.20s WALL (     220 calls)
     ffts         :      0.72s CPU      0.69s WALL (      34 calls)
     fftw         :    210.92s CPU    189.73s WALL (   38176 calls)
     interpolate  :      1.07s CPU      1.11s WALL (      17 calls)

     Parallel routines

     PWSCF        :   8m42.71s CPU   7m15.15s WALL


   This run was terminated on:  19: 5:58  16May2025            

=------------------------------------------------------------------------------=
   JOB DONE.
=------------------------------------------------------------------------------=
