
     Program PWSCF v.7.3.1 starts on  6May2025 at 14:36: 5 

     This program is part of the open-source Quantum ESPRESSO suite
     for quantum simulation of materials; please cite
         "P. Giannozzi et al., J. Phys.:Condens. Matter 21 395502 (2009);
         "P. Giannozzi et al., J. Phys.:Condens. Matter 29 465901 (2017);
         "P. Giannozzi et al., J. Chem. Phys. 152 154105 (2020);
          URL http://www.quantum-espresso.org", 
     in publications or presentations arising from this work. More details at
     http://www.quantum-espresso.org/quote

     Parallel version (MPI), running on     8 processors

     MPI processes distributed on     1 nodes
     58165 MiB available memory on the printing compute node when the environment starts

     Waiting for input...
     Reading input from standard input

     Current dimensions of program PWSCF are:
     Max number of different atomic species (ntypx) = 10
     Max number of k-points (npk) = 120000
     Max angular momentum in pseudopotentials (lmaxx) =  4
     file La.pbe-spfn-rrkjus_psl.1.0.0.UPF: wavefunction(s)  4F renormalized
     file S.pbe-n-kjpaw_psl.1.0.0.UPF: wavefunction(s)  3S 3P renormalized

     IMPORTANT: XC functional enforced from input :
     Exchange-correlation= PBE
                           (   1   4   3   4   0   0   0)
     Any further DFT definition will be discarded
     Please, verify this is what you really want

     Message from routine setup:
     using ibrav=0 with symmetry is DISCOURAGED, use correct ibrav instead

     K-points division:     npool     =       2
     R & G space division:  proc/nbgrp/npool/nimage =       4
     Subspace diagonalization in iterative solution of the eigenvalue problem:
     a serial algorithm will be used


     Parallelization info
     --------------------
     sticks:   dense  smooth     PW     G-vecs:    dense   smooth      PW
     Min        1239     619    174                65945    23291    3486
     Max        1240     620    175                65950    23292    3489
     Sum        4957    2477    697               263787    93165   13949

     Using Slab Decomposition



     bravais-lattice index     =            0
     lattice parameter (alat)  =       8.8407  a.u.
     unit-cell volume          =     690.9650 (a.u.)^3
     number of atoms/cell      =            5
     number of atomic types    =            3
     number of electrons       =        32.00
     number of Kohn-Sham states=           16
     kinetic-energy cutoff     =     100.0000  Ry
     charge density cutoff     =     800.0000  Ry
     scf convergence threshold =      1.0E-12
     mixing beta               =       0.3000
     number of iterations used =            8  plain     mixing
     Exchange-correlation= PBE
                           (   1   4   3   4   0   0   0)

     celldm(1)=   8.840674  celldm(2)=   0.000000  celldm(3)=   0.000000
     celldm(4)=   0.000000  celldm(5)=   0.000000  celldm(6)=   0.000000

     crystal axes: (cart. coord. in units of alat)
               a(1) = (   1.000000   0.000000   0.000000 )  
               a(2) = (   0.000000   1.000000   0.000000 )  
               a(3) = (   0.000000   0.000000   1.000000 )  

     reciprocal axes: (cart. coord. in units 2 pi/alat)
               b(1) = (  1.000000  0.000000  0.000000 )  
               b(2) = (  0.000000  1.000000  0.000000 )  
               b(3) = (  0.000000  0.000000  1.000000 )  


     PseudoPot. # 1 for La read from file:
     /home/administrator/Downloads/BURAI/BURAI1.3/pseudopot/La.pbe-spfn-rrkjus_psl.1.0.0.UPF
     MD5 check sum: e22bc9274b55c281b8555f8bc9332f11
     Pseudo is Ultrasoft + core correction, Zval = 11.0
     Generated using "atomic" code by A. Dal Corso  v.5.1.2
     Using radial grid of 1253 points,  8 beta functions with: 
                l(1) =   0
                l(2) =   0
                l(3) =   1
                l(4) =   1
                l(5) =   2
                l(6) =   2
                l(7) =   3
                l(8) =   3
     Q(r) pseudized with 0 coefficients 


     PseudoPot. # 2 for Al read from file:
     /home/administrator/Downloads/BURAI/BURAI1.3/pseudopot/Al.pbe-n-rrkjus_psl.1.0.0.UPF
     MD5 check sum: 8b185916a155f75fe96c66b14031de15
     Pseudo is Ultrasoft + core correction, Zval =  3.0
     Generated using "atomic" code by A. Dal Corso  v.5.1.2
     Using radial grid of 1135 points,  6 beta functions with: 
                l(1) =   0
                l(2) =   0
                l(3) =   1
                l(4) =   1
                l(5) =   2
                l(6) =   2
     Q(r) pseudized with 0 coefficients 


     PseudoPot. # 3 for S  read from file:
     /home/administrator/Downloads/BURAI/BURAI1.3/pseudopot/S.pbe-n-kjpaw_psl.1.0.0.UPF
     MD5 check sum: cb96b46a5ee63c4f5db34501b74ad364
     Pseudo is Projector augmented-wave + core cor, Zval =  6.0
     Generated using "atomic" code by A. Dal Corso  v.5.1.2
     Shape of augmentation charge: PSQ
     Using radial grid of 1151 points,  6 beta functions with: 
                l(1) =   0
                l(2) =   0
                l(3) =   1
                l(4) =   1
                l(5) =   2
                l(6) =   2
     Q(r) pseudized with 0 coefficients 


     atomic species   valence    mass     pseudopotential
     La               11.00   138.91000     La( 1.00)
     Al                3.00    26.98150     Al( 1.00)
     S                 6.00    32.06500     S ( 1.00)

     48 Sym. Ops., with inversion, found


                                    s                        frac. trans.

      isym =  1     identity                                     

 cryst.   s( 1) = (     1          0          0      )
                  (     0          1          0      )
                  (     0          0          1      )

 cart.    s( 1) = (  1.0000000  0.0000000  0.0000000 )
                  (  0.0000000  1.0000000  0.0000000 )
                  (  0.0000000  0.0000000  1.0000000 )


      isym =  2     180 deg rotation - cart. axis [0,0,1]        

 cryst.   s( 2) = (    -1          0          0      )
                  (     0         -1          0      )
                  (     0          0          1      )

 cart.    s( 2) = ( -1.0000000  0.0000000  0.0000000 )
                  (  0.0000000 -1.0000000  0.0000000 )
                  (  0.0000000  0.0000000  1.0000000 )


      isym =  3     180 deg rotation - cart. axis [0,1,0]        

 cryst.   s( 3) = (    -1          0          0      )
                  (     0          1          0      )
                  (     0          0         -1      )

 cart.    s( 3) = ( -1.0000000  0.0000000  0.0000000 )
                  (  0.0000000  1.0000000  0.0000000 )
                  (  0.0000000  0.0000000 -1.0000000 )


      isym =  4     180 deg rotation - cart. axis [1,0,0]        

 cryst.   s( 4) = (     1          0          0      )
                  (     0         -1          0      )
                  (     0          0         -1      )

 cart.    s( 4) = (  1.0000000  0.0000000  0.0000000 )
                  (  0.0000000 -1.0000000  0.0000000 )
                  (  0.0000000  0.0000000 -1.0000000 )


      isym =  5     180 deg rotation - cart. axis [1,1,0]        

 cryst.   s( 5) = (     0          1          0      )
                  (     1          0          0      )
                  (     0          0         -1      )

 cart.    s( 5) = (  0.0000000  1.0000000  0.0000000 )
                  (  1.0000000  0.0000000  0.0000000 )
                  (  0.0000000  0.0000000 -1.0000000 )


      isym =  6     180 deg rotation - cart. axis [1,-1,0]       

 cryst.   s( 6) = (     0         -1          0      )
                  (    -1          0          0      )
                  (     0          0         -1      )

 cart.    s( 6) = (  0.0000000 -1.0000000  0.0000000 )
                  ( -1.0000000  0.0000000  0.0000000 )
                  (  0.0000000  0.0000000 -1.0000000 )


      isym =  7      90 deg rotation - cart. axis [0,0,-1]       

 cryst.   s( 7) = (     0         -1          0      )
                  (     1          0          0      )
                  (     0          0          1      )

 cart.    s( 7) = (  0.0000000  1.0000000  0.0000000 )
                  ( -1.0000000  0.0000000  0.0000000 )
                  (  0.0000000  0.0000000  1.0000000 )


      isym =  8      90 deg rotation - cart. axis [0,0,1]        

 cryst.   s( 8) = (     0          1          0      )
                  (    -1          0          0      )
                  (     0          0          1      )

 cart.    s( 8) = (  0.0000000 -1.0000000  0.0000000 )
                  (  1.0000000  0.0000000  0.0000000 )
                  (  0.0000000  0.0000000  1.0000000 )


      isym =  9     180 deg rotation - cart. axis [1,0,1]        

 cryst.   s( 9) = (     0          0          1      )
                  (     0         -1          0      )
                  (     1          0          0      )

 cart.    s( 9) = (  0.0000000  0.0000000  1.0000000 )
                  (  0.0000000 -1.0000000  0.0000000 )
                  (  1.0000000  0.0000000  0.0000000 )


      isym = 10     180 deg rotation - cart. axis [-1,0,1]       

 cryst.   s(10) = (     0          0         -1      )
                  (     0         -1          0      )
                  (    -1          0          0      )

 cart.    s(10) = (  0.0000000  0.0000000 -1.0000000 )
                  (  0.0000000 -1.0000000  0.0000000 )
                  ( -1.0000000  0.0000000  0.0000000 )


      isym = 11      90 deg rotation - cart. axis [0,1,0]        

 cryst.   s(11) = (     0          0         -1      )
                  (     0          1          0      )
                  (     1          0          0      )

 cart.    s(11) = (  0.0000000  0.0000000  1.0000000 )
                  (  0.0000000  1.0000000  0.0000000 )
                  ( -1.0000000  0.0000000  0.0000000 )


      isym = 12      90 deg rotation - cart. axis [0,-1,0]       

 cryst.   s(12) = (     0          0          1      )
                  (     0          1          0      )
                  (    -1          0          0      )

 cart.    s(12) = (  0.0000000  0.0000000 -1.0000000 )
                  (  0.0000000  1.0000000  0.0000000 )
                  (  1.0000000  0.0000000  0.0000000 )


      isym = 13     180 deg rotation - cart. axis [0,1,1]        

 cryst.   s(13) = (    -1          0          0      )
                  (     0          0          1      )
                  (     0          1          0      )

 cart.    s(13) = ( -1.0000000  0.0000000  0.0000000 )
                  (  0.0000000  0.0000000  1.0000000 )
                  (  0.0000000  1.0000000  0.0000000 )


      isym = 14     180 deg rotation - cart. axis [0,1,-1]       

 cryst.   s(14) = (    -1          0          0      )
                  (     0          0         -1      )
                  (     0         -1          0      )

 cart.    s(14) = ( -1.0000000  0.0000000  0.0000000 )
                  (  0.0000000  0.0000000 -1.0000000 )
                  (  0.0000000 -1.0000000  0.0000000 )


      isym = 15      90 deg rotation - cart. axis [-1,0,0]       

 cryst.   s(15) = (     1          0          0      )
                  (     0          0         -1      )
                  (     0          1          0      )

 cart.    s(15) = (  1.0000000  0.0000000  0.0000000 )
                  (  0.0000000  0.0000000  1.0000000 )
                  (  0.0000000 -1.0000000  0.0000000 )


      isym = 16      90 deg rotation - cart. axis [1,0,0]        

 cryst.   s(16) = (     1          0          0      )
                  (     0          0          1      )
                  (     0         -1          0      )

 cart.    s(16) = (  1.0000000  0.0000000  0.0000000 )
                  (  0.0000000  0.0000000 -1.0000000 )
                  (  0.0000000  1.0000000  0.0000000 )


      isym = 17     120 deg rotation - cart. axis [-1,-1,-1]     

 cryst.   s(17) = (     0          0          1      )
                  (     1          0          0      )
                  (     0          1          0      )

 cart.    s(17) = (  0.0000000  1.0000000  0.0000000 )
                  (  0.0000000  0.0000000  1.0000000 )
                  (  1.0000000  0.0000000  0.0000000 )


      isym = 18     120 deg rotation - cart. axis [-1,1,1]       

 cryst.   s(18) = (     0          0         -1      )
                  (    -1          0          0      )
                  (     0          1          0      )

 cart.    s(18) = (  0.0000000 -1.0000000  0.0000000 )
                  (  0.0000000  0.0000000  1.0000000 )
                  ( -1.0000000  0.0000000  0.0000000 )


      isym = 19     120 deg rotation - cart. axis [1,1,-1]       

 cryst.   s(19) = (     0          0         -1      )
                  (     1          0          0      )
                  (     0         -1          0      )

 cart.    s(19) = (  0.0000000  1.0000000  0.0000000 )
                  (  0.0000000  0.0000000 -1.0000000 )
                  ( -1.0000000  0.0000000  0.0000000 )


      isym = 20     120 deg rotation - cart. axis [1,-1,1]       

 cryst.   s(20) = (     0          0          1      )
                  (    -1          0          0      )
                  (     0         -1          0      )

 cart.    s(20) = (  0.0000000 -1.0000000  0.0000000 )
                  (  0.0000000  0.0000000 -1.0000000 )
                  (  1.0000000  0.0000000  0.0000000 )


      isym = 21     120 deg rotation - cart. axis [1,1,1]        

 cryst.   s(21) = (     0          1          0      )
                  (     0          0          1      )
                  (     1          0          0      )

 cart.    s(21) = (  0.0000000  0.0000000  1.0000000 )
                  (  1.0000000  0.0000000  0.0000000 )
                  (  0.0000000  1.0000000  0.0000000 )


      isym = 22     120 deg rotation - cart. axis [-1,1,-1]      

 cryst.   s(22) = (     0         -1          0      )
                  (     0          0         -1      )
                  (     1          0          0      )

 cart.    s(22) = (  0.0000000  0.0000000  1.0000000 )
                  ( -1.0000000  0.0000000  0.0000000 )
                  (  0.0000000 -1.0000000  0.0000000 )


      isym = 23     120 deg rotation - cart. axis [1,-1,-1]      

 cryst.   s(23) = (     0         -1          0      )
                  (     0          0          1      )
                  (    -1          0          0      )

 cart.    s(23) = (  0.0000000  0.0000000 -1.0000000 )
                  ( -1.0000000  0.0000000  0.0000000 )
                  (  0.0000000  1.0000000  0.0000000 )


      isym = 24     120 deg rotation - cart. axis [-1,-1,1]      

 cryst.   s(24) = (     0          1          0      )
                  (     0          0         -1      )
                  (    -1          0          0      )

 cart.    s(24) = (  0.0000000  0.0000000 -1.0000000 )
                  (  1.0000000  0.0000000  0.0000000 )
                  (  0.0000000 -1.0000000  0.0000000 )


      isym = 25     inversion                                    

 cryst.   s(25) = (    -1          0          0      )
                  (     0         -1          0      )
                  (     0          0         -1      )

 cart.    s(25) = ( -1.0000000  0.0000000  0.0000000 )
                  (  0.0000000 -1.0000000  0.0000000 )
                  (  0.0000000  0.0000000 -1.0000000 )


      isym = 26     inv. 180 deg rotation - cart. axis [0,0,1]   

 cryst.   s(26) = (     1          0          0      )
                  (     0          1          0      )
                  (     0          0         -1      )

 cart.    s(26) = (  1.0000000  0.0000000  0.0000000 )
                  (  0.0000000  1.0000000  0.0000000 )
                  (  0.0000000  0.0000000 -1.0000000 )


      isym = 27     inv. 180 deg rotation - cart. axis [0,1,0]   

 cryst.   s(27) = (     1          0          0      )
                  (     0         -1          0      )
                  (     0          0          1      )

 cart.    s(27) = (  1.0000000  0.0000000  0.0000000 )
                  (  0.0000000 -1.0000000  0.0000000 )
                  (  0.0000000  0.0000000  1.0000000 )


      isym = 28     inv. 180 deg rotation - cart. axis [1,0,0]   

 cryst.   s(28) = (    -1          0          0      )
                  (     0          1          0      )
                  (     0          0          1      )

 cart.    s(28) = ( -1.0000000  0.0000000  0.0000000 )
                  (  0.0000000  1.0000000  0.0000000 )
                  (  0.0000000  0.0000000  1.0000000 )


      isym = 29     inv. 180 deg rotation - cart. axis [1,1,0]   

 cryst.   s(29) = (     0         -1          0      )
                  (    -1          0          0      )
                  (     0          0          1      )

 cart.    s(29) = (  0.0000000 -1.0000000  0.0000000 )
                  ( -1.0000000  0.0000000  0.0000000 )
                  (  0.0000000  0.0000000  1.0000000 )


      isym = 30     inv. 180 deg rotation - cart. axis [1,-1,0]  

 cryst.   s(30) = (     0          1          0      )
                  (     1          0          0      )
                  (     0          0          1      )

 cart.    s(30) = (  0.0000000  1.0000000  0.0000000 )
                  (  1.0000000  0.0000000  0.0000000 )
                  (  0.0000000  0.0000000  1.0000000 )


      isym = 31     inv.  90 deg rotation - cart. axis [0,0,-1]  

 cryst.   s(31) = (     0          1          0      )
                  (    -1          0          0      )
                  (     0          0         -1      )

 cart.    s(31) = (  0.0000000 -1.0000000  0.0000000 )
                  (  1.0000000  0.0000000  0.0000000 )
                  (  0.0000000  0.0000000 -1.0000000 )


      isym = 32     inv.  90 deg rotation - cart. axis [0,0,1]   

 cryst.   s(32) = (     0         -1          0      )
                  (     1          0          0      )
                  (     0          0         -1      )

 cart.    s(32) = (  0.0000000  1.0000000  0.0000000 )
                  ( -1.0000000  0.0000000  0.0000000 )
                  (  0.0000000  0.0000000 -1.0000000 )


      isym = 33     inv. 180 deg rotation - cart. axis [1,0,1]   

 cryst.   s(33) = (     0          0         -1      )
                  (     0          1          0      )
                  (    -1          0          0      )

 cart.    s(33) = (  0.0000000  0.0000000 -1.0000000 )
                  (  0.0000000  1.0000000  0.0000000 )
                  ( -1.0000000  0.0000000  0.0000000 )


      isym = 34     inv. 180 deg rotation - cart. axis [-1,0,1]  

 cryst.   s(34) = (     0          0          1      )
                  (     0          1          0      )
                  (     1          0          0      )

 cart.    s(34) = (  0.0000000  0.0000000  1.0000000 )
                  (  0.0000000  1.0000000  0.0000000 )
                  (  1.0000000  0.0000000  0.0000000 )


      isym = 35     inv.  90 deg rotation - cart. axis [0,1,0]   

 cryst.   s(35) = (     0          0          1      )
                  (     0         -1          0      )
                  (    -1          0          0      )

 cart.    s(35) = (  0.0000000  0.0000000 -1.0000000 )
                  (  0.0000000 -1.0000000  0.0000000 )
                  (  1.0000000  0.0000000  0.0000000 )


      isym = 36     inv.  90 deg rotation - cart. axis [0,-1,0]  

 cryst.   s(36) = (     0          0         -1      )
                  (     0         -1          0      )
                  (     1          0          0      )

 cart.    s(36) = (  0.0000000  0.0000000  1.0000000 )
                  (  0.0000000 -1.0000000  0.0000000 )
                  ( -1.0000000  0.0000000  0.0000000 )


      isym = 37     inv. 180 deg rotation - cart. axis [0,1,1]   

 cryst.   s(37) = (     1          0          0      )
                  (     0          0         -1      )
                  (     0         -1          0      )

 cart.    s(37) = (  1.0000000  0.0000000  0.0000000 )
                  (  0.0000000  0.0000000 -1.0000000 )
                  (  0.0000000 -1.0000000  0.0000000 )


      isym = 38     inv. 180 deg rotation - cart. axis [0,1,-1]  

 cryst.   s(38) = (     1          0          0      )
                  (     0          0          1      )
                  (     0          1          0      )

 cart.    s(38) = (  1.0000000  0.0000000  0.0000000 )
                  (  0.0000000  0.0000000  1.0000000 )
                  (  0.0000000  1.0000000  0.0000000 )


      isym = 39     inv.  90 deg rotation - cart. axis [-1,0,0]  

 cryst.   s(39) = (    -1          0          0      )
                  (     0          0          1      )
                  (     0         -1          0      )

 cart.    s(39) = ( -1.0000000  0.0000000  0.0000000 )
                  (  0.0000000  0.0000000 -1.0000000 )
                  (  0.0000000  1.0000000  0.0000000 )


      isym = 40     inv.  90 deg rotation - cart. axis [1,0,0]   

 cryst.   s(40) = (    -1          0          0      )
                  (     0          0         -1      )
                  (     0          1          0      )

 cart.    s(40) = ( -1.0000000  0.0000000  0.0000000 )
                  (  0.0000000  0.0000000  1.0000000 )
                  (  0.0000000 -1.0000000  0.0000000 )


      isym = 41     inv. 120 deg rotation - cart. axis [-1,-1,-1]

 cryst.   s(41) = (     0          0         -1      )
                  (    -1          0          0      )
                  (     0         -1          0      )

 cart.    s(41) = (  0.0000000 -1.0000000  0.0000000 )
                  (  0.0000000  0.0000000 -1.0000000 )
                  ( -1.0000000  0.0000000  0.0000000 )


      isym = 42     inv. 120 deg rotation - cart. axis [-1,1,1]  

 cryst.   s(42) = (     0          0          1      )
                  (     1          0          0      )
                  (     0         -1          0      )

 cart.    s(42) = (  0.0000000  1.0000000  0.0000000 )
                  (  0.0000000  0.0000000 -1.0000000 )
                  (  1.0000000  0.0000000  0.0000000 )


      isym = 43     inv. 120 deg rotation - cart. axis [1,1,-1]  

 cryst.   s(43) = (     0          0          1      )
                  (    -1          0          0      )
                  (     0          1          0      )

 cart.    s(43) = (  0.0000000 -1.0000000  0.0000000 )
                  (  0.0000000  0.0000000  1.0000000 )
                  (  1.0000000  0.0000000  0.0000000 )


      isym = 44     inv. 120 deg rotation - cart. axis [1,-1,1]  

 cryst.   s(44) = (     0          0         -1      )
                  (     1          0          0      )
                  (     0          1          0      )

 cart.    s(44) = (  0.0000000  1.0000000  0.0000000 )
                  (  0.0000000  0.0000000  1.0000000 )
                  ( -1.0000000  0.0000000  0.0000000 )


      isym = 45     inv. 120 deg rotation - cart. axis [1,1,1]   

 cryst.   s(45) = (     0         -1          0      )
                  (     0          0         -1      )
                  (    -1          0          0      )

 cart.    s(45) = (  0.0000000  0.0000000 -1.0000000 )
                  ( -1.0000000  0.0000000  0.0000000 )
                  (  0.0000000 -1.0000000  0.0000000 )


      isym = 46     inv. 120 deg rotation - cart. axis [-1,1,-1] 

 cryst.   s(46) = (     0          1          0      )
                  (     0          0          1      )
                  (    -1          0          0      )

 cart.    s(46) = (  0.0000000  0.0000000 -1.0000000 )
                  (  1.0000000  0.0000000  0.0000000 )
                  (  0.0000000  1.0000000  0.0000000 )


      isym = 47     inv. 120 deg rotation - cart. axis [1,-1,-1] 

 cryst.   s(47) = (     0          1          0      )
                  (     0          0         -1      )
                  (     1          0          0      )

 cart.    s(47) = (  0.0000000  0.0000000  1.0000000 )
                  (  1.0000000  0.0000000  0.0000000 )
                  (  0.0000000 -1.0000000  0.0000000 )


      isym = 48     inv. 120 deg rotation - cart. axis [-1,-1,1] 

 cryst.   s(48) = (     0         -1          0      )
                  (     0          0          1      )
                  (     1          0          0      )

 cart.    s(48) = (  0.0000000  0.0000000  1.0000000 )
                  ( -1.0000000  0.0000000  0.0000000 )
                  (  0.0000000  1.0000000  0.0000000 )


   Cartesian axes

     site n.     atom                  positions (alat units)
         1        La     tau(   1) = (   0.0000000   0.0000000   0.0000000  )
         2        Al     tau(   2) = (   0.5000000   0.5000000   0.5000000  )
         3        S      tau(   3) = (   0.5000000   0.5000000   0.0000000  )
         4        S      tau(   4) = (   0.5000000   0.0000000   0.5000000  )
         5        S      tau(   5) = (   0.0000000   0.5000000   0.5000000  )

   Crystallographic axes

     site n.     atom                  positions (cryst. coord.)
         1        La     tau(   1) = (  0.0000000  0.0000000  0.0000000  )
         2        Al     tau(   2) = (  0.5000000  0.5000000  0.5000000  )
         3        S      tau(   3) = (  0.5000000  0.5000000  0.0000000  )
         4        S      tau(   4) = (  0.5000000  0.0000000  0.5000000  )
         5        S      tau(   5) = (  0.0000000  0.5000000  0.5000000  )

     number of k points=    35
                       cart. coord. in units 2pi/alat
        k(    1) = (   0.0000000   0.0000000   0.0000000), wk =   0.0039062
        k(    2) = (   0.0000000   0.0000000   0.1250000), wk =   0.0234375
        k(    3) = (   0.0000000   0.0000000   0.2500000), wk =   0.0234375
        k(    4) = (   0.0000000   0.0000000   0.3750000), wk =   0.0234375
        k(    5) = (   0.0000000   0.0000000  -0.5000000), wk =   0.0117188
        k(    6) = (   0.0000000   0.1250000   0.1250000), wk =   0.0468750
        k(    7) = (   0.0000000   0.1250000   0.2500000), wk =   0.0937500
        k(    8) = (   0.0000000   0.1250000   0.3750000), wk =   0.0937500
        k(    9) = (   0.0000000   0.1250000  -0.5000000), wk =   0.0468750
        k(   10) = (   0.0000000   0.2500000   0.2500000), wk =   0.0468750
        k(   11) = (   0.0000000   0.2500000   0.3750000), wk =   0.0937500
        k(   12) = (   0.0000000   0.2500000  -0.5000000), wk =   0.0468750
        k(   13) = (   0.0000000   0.3750000   0.3750000), wk =   0.0468750
        k(   14) = (   0.0000000   0.3750000  -0.5000000), wk =   0.0468750
        k(   15) = (   0.0000000  -0.5000000  -0.5000000), wk =   0.0117188
        k(   16) = (   0.1250000   0.1250000   0.1250000), wk =   0.0312500
        k(   17) = (   0.1250000   0.1250000   0.2500000), wk =   0.0937500
        k(   18) = (   0.1250000   0.1250000   0.3750000), wk =   0.0937500
        k(   19) = (   0.1250000   0.1250000  -0.5000000), wk =   0.0468750
        k(   20) = (   0.1250000   0.2500000   0.2500000), wk =   0.0937500
        k(   21) = (   0.1250000   0.2500000   0.3750000), wk =   0.1875000
        k(   22) = (   0.1250000   0.2500000  -0.5000000), wk =   0.0937500
        k(   23) = (   0.1250000   0.3750000   0.3750000), wk =   0.0937500
        k(   24) = (   0.1250000   0.3750000  -0.5000000), wk =   0.0937500
        k(   25) = (   0.1250000  -0.5000000  -0.5000000), wk =   0.0234375
        k(   26) = (   0.2500000   0.2500000   0.2500000), wk =   0.0312500
        k(   27) = (   0.2500000   0.2500000   0.3750000), wk =   0.0937500
        k(   28) = (   0.2500000   0.2500000  -0.5000000), wk =   0.0468750
        k(   29) = (   0.2500000   0.3750000   0.3750000), wk =   0.0937500
        k(   30) = (   0.2500000   0.3750000  -0.5000000), wk =   0.0937500
        k(   31) = (   0.2500000  -0.5000000  -0.5000000), wk =   0.0234375
        k(   32) = (   0.3750000   0.3750000   0.3750000), wk =   0.0312500
        k(   33) = (   0.3750000   0.3750000  -0.5000000), wk =   0.0468750
        k(   34) = (   0.3750000  -0.5000000  -0.5000000), wk =   0.0234375
        k(   35) = (  -0.5000000  -0.5000000  -0.5000000), wk =   0.0039062

                       cryst. coord.
        k(    1) = (   0.0000000   0.0000000   0.0000000), wk =   0.0039062
        k(    2) = (   0.0000000   0.0000000   0.1250000), wk =   0.0234375
        k(    3) = (   0.0000000   0.0000000   0.2500000), wk =   0.0234375
        k(    4) = (   0.0000000   0.0000000   0.3750000), wk =   0.0234375
        k(    5) = (   0.0000000   0.0000000  -0.5000000), wk =   0.0117188
        k(    6) = (   0.0000000   0.1250000   0.1250000), wk =   0.0468750
        k(    7) = (   0.0000000   0.1250000   0.2500000), wk =   0.0937500
        k(    8) = (   0.0000000   0.1250000   0.3750000), wk =   0.0937500
        k(    9) = (   0.0000000   0.1250000  -0.5000000), wk =   0.0468750
        k(   10) = (   0.0000000   0.2500000   0.2500000), wk =   0.0468750
        k(   11) = (   0.0000000   0.2500000   0.3750000), wk =   0.0937500
        k(   12) = (   0.0000000   0.2500000  -0.5000000), wk =   0.0468750
        k(   13) = (   0.0000000   0.3750000   0.3750000), wk =   0.0468750
        k(   14) = (   0.0000000   0.3750000  -0.5000000), wk =   0.0468750
        k(   15) = (   0.0000000  -0.5000000  -0.5000000), wk =   0.0117188
        k(   16) = (   0.1250000   0.1250000   0.1250000), wk =   0.0312500
        k(   17) = (   0.1250000   0.1250000   0.2500000), wk =   0.0937500
        k(   18) = (   0.1250000   0.1250000   0.3750000), wk =   0.0937500
        k(   19) = (   0.1250000   0.1250000  -0.5000000), wk =   0.0468750
        k(   20) = (   0.1250000   0.2500000   0.2500000), wk =   0.0937500
        k(   21) = (   0.1250000   0.2500000   0.3750000), wk =   0.1875000
        k(   22) = (   0.1250000   0.2500000  -0.5000000), wk =   0.0937500
        k(   23) = (   0.1250000   0.3750000   0.3750000), wk =   0.0937500
        k(   24) = (   0.1250000   0.3750000  -0.5000000), wk =   0.0937500
        k(   25) = (   0.1250000  -0.5000000  -0.5000000), wk =   0.0234375
        k(   26) = (   0.2500000   0.2500000   0.2500000), wk =   0.0312500
        k(   27) = (   0.2500000   0.2500000   0.3750000), wk =   0.0937500
        k(   28) = (   0.2500000   0.2500000  -0.5000000), wk =   0.0468750
        k(   29) = (   0.2500000   0.3750000   0.3750000), wk =   0.0937500
        k(   30) = (   0.2500000   0.3750000  -0.5000000), wk =   0.0937500
        k(   31) = (   0.2500000  -0.5000000  -0.5000000), wk =   0.0234375
        k(   32) = (   0.3750000   0.3750000   0.3750000), wk =   0.0312500
        k(   33) = (   0.3750000   0.3750000  -0.5000000), wk =   0.0468750
        k(   34) = (   0.3750000  -0.5000000  -0.5000000), wk =   0.0234375
        k(   35) = (  -0.5000000  -0.5000000  -0.5000000), wk =   0.0039062

     Dense  grid:   263787 G-vectors     FFT dimensions: (  80,  80,  80)

     Smooth grid:    93165 G-vectors     FFT dimensions: (  60,  60,  60)

     Dynamical RAM for                 wfc:       0.71 MB

     Dynamical RAM for     wfc (w. buffer):      13.53 MB

     Dynamical RAM for           str. fact:       3.02 MB

     Dynamical RAM for           local pot:       0.00 MB

     Dynamical RAM for          nlocal pot:       4.63 MB

     Dynamical RAM for                qrad:      16.33 MB

     Dynamical RAM for          rho,v,vnew:       5.95 MB

     Dynamical RAM for               rhoin:       1.98 MB

     Dynamical RAM for            rho*nmix:      16.10 MB

     Dynamical RAM for           G-vectors:       3.95 MB

     Dynamical RAM for          h,s,v(r/c):       0.05 MB

     Dynamical RAM for          <psi|beta>:       0.03 MB

     Dynamical RAM for                 psi:       1.42 MB

     Dynamical RAM for                hpsi:       1.42 MB

     Dynamical RAM for                spsi:       1.42 MB

     Dynamical RAM for      wfcinit/wfcrot:       3.23 MB

     Dynamical RAM for           addusdens:     281.25 MB

     Dynamical RAM for          addusforce:     283.30 MB

     Dynamical RAM for         addusstress:     293.07 MB

     Estimated static dynamical RAM per process >      58.30 MB

     Estimated max dynamical RAM per process >     367.48 MB

     Estimated total dynamical RAM >       2.81 GB

     Initial potential from superposition of free atoms

     starting charge      31.9678, renormalised to      32.0000
     Starting wfcs are   36 randomized atomic wfcs
     Checking if some PAW data can be deallocated... 
       PAW data deallocated on    4 nodes for type:  3

     total cpu time spent up to now is        6.8 secs

     Self-consistent Calculation

     iteration #  1     ecut=   100.00 Ry     beta= 0.30
     Davidson diagonalization with overlap

---- Real-time Memory Report at c_bands before calling an iterative solver
           357 MiB given to the printing process from OS
             0 MiB allocation reported by mallinfo(arena+hblkhd)
         56055 MiB available memory on the node where the printing process lives
------------------
     ethr =  1.00E-02,  avg # of iterations =  2.0

     Threshold (ethr) on eigenvalues was too large:
     Diagonalizing with lowered threshold

     Davidson diagonalization with overlap

---- Real-time Memory Report at c_bands before calling an iterative solver
           374 MiB given to the printing process from OS
             0 MiB allocation reported by mallinfo(arena+hblkhd)
         56232 MiB available memory on the node where the printing process lives
------------------
     ethr =  7.66E-04,  avg # of iterations =  2.0

     total cpu time spent up to now is       20.9 secs

     total energy              =    -330.06572451 Ry
     estimated scf accuracy    <       0.23395270 Ry

     iteration #  2     ecut=   100.00 Ry     beta= 0.30
     Davidson diagonalization with overlap

---- Real-time Memory Report at c_bands before calling an iterative solver
           380 MiB given to the printing process from OS
             0 MiB allocation reported by mallinfo(arena+hblkhd)
         54945 MiB available memory on the node where the printing process lives
------------------
     ethr =  7.31E-04,  avg # of iterations =  2.0

     total cpu time spent up to now is       29.0 secs

     total energy              =    -330.07342164 Ry
     estimated scf accuracy    <       0.04221411 Ry

     iteration #  3     ecut=   100.00 Ry     beta= 0.30
     Davidson diagonalization with overlap

---- Real-time Memory Report at c_bands before calling an iterative solver
           381 MiB given to the printing process from OS
             0 MiB allocation reported by mallinfo(arena+hblkhd)
         54738 MiB available memory on the node where the printing process lives
------------------
     ethr =  1.32E-04,  avg # of iterations =  8.2

     total cpu time spent up to now is       39.9 secs

     total energy              =    -330.09896065 Ry
     estimated scf accuracy    <       0.03797520 Ry

     iteration #  4     ecut=   100.00 Ry     beta= 0.30
     Davidson diagonalization with overlap

---- Real-time Memory Report at c_bands before calling an iterative solver
           382 MiB given to the printing process from OS
             0 MiB allocation reported by mallinfo(arena+hblkhd)
         54978 MiB available memory on the node where the printing process lives
------------------
     ethr =  1.19E-04,  avg # of iterations =  1.0

     total cpu time spent up to now is       47.3 secs

     total energy              =    -330.07175001 Ry
     estimated scf accuracy    <       0.03388888 Ry

     iteration #  5     ecut=   100.00 Ry     beta= 0.30
     Davidson diagonalization with overlap

---- Real-time Memory Report at c_bands before calling an iterative solver
           382 MiB given to the printing process from OS
             0 MiB allocation reported by mallinfo(arena+hblkhd)
         55063 MiB available memory on the node where the printing process lives
------------------
     ethr =  1.06E-04,  avg # of iterations =  6.7

     total cpu time spent up to now is       57.9 secs

     total energy              =    -330.08685453 Ry
     estimated scf accuracy    <       0.07760084 Ry

     iteration #  6     ecut=   100.00 Ry     beta= 0.30
     Davidson diagonalization with overlap

---- Real-time Memory Report at c_bands before calling an iterative solver
           383 MiB given to the printing process from OS
             0 MiB allocation reported by mallinfo(arena+hblkhd)
         54775 MiB available memory on the node where the printing process lives
------------------
     ethr =  1.06E-04,  avg # of iterations =  4.3

     total cpu time spent up to now is       66.9 secs

     total energy              =    -330.09047486 Ry
     estimated scf accuracy    <       0.01064622 Ry

     iteration #  7     ecut=   100.00 Ry     beta= 0.30
     Davidson diagonalization with overlap

---- Real-time Memory Report at c_bands before calling an iterative solver
           384 MiB given to the printing process from OS
             0 MiB allocation reported by mallinfo(arena+hblkhd)
         55076 MiB available memory on the node where the printing process lives
------------------
     ethr =  3.33E-05,  avg # of iterations =  5.7

     total cpu time spent up to now is       76.3 secs

     total energy              =    -330.09321200 Ry
     estimated scf accuracy    <       0.00023915 Ry

     iteration #  8     ecut=   100.00 Ry     beta= 0.30
     Davidson diagonalization with overlap

---- Real-time Memory Report at c_bands before calling an iterative solver
           385 MiB given to the printing process from OS
             0 MiB allocation reported by mallinfo(arena+hblkhd)
         55289 MiB available memory on the node where the printing process lives
------------------
     ethr =  7.47E-07,  avg # of iterations = 10.0

     total cpu time spent up to now is       88.7 secs

     total energy              =    -330.09368207 Ry
     estimated scf accuracy    <       0.00005404 Ry

     iteration #  9     ecut=   100.00 Ry     beta= 0.30
     Davidson diagonalization with overlap

---- Real-time Memory Report at c_bands before calling an iterative solver
           386 MiB given to the printing process from OS
             0 MiB allocation reported by mallinfo(arena+hblkhd)
         55208 MiB available memory on the node where the printing process lives
------------------
     ethr =  1.69E-07,  avg # of iterations = 11.7

     total cpu time spent up to now is      102.2 secs

     total energy              =    -330.09364091 Ry
     estimated scf accuracy    <       0.00054216 Ry

     iteration # 10     ecut=   100.00 Ry     beta= 0.30
     Davidson diagonalization with overlap

---- Real-time Memory Report at c_bands before calling an iterative solver
           386 MiB given to the printing process from OS
             0 MiB allocation reported by mallinfo(arena+hblkhd)
         55596 MiB available memory on the node where the printing process lives
------------------
     ethr =  1.69E-07,  avg # of iterations =  7.8

     total cpu time spent up to now is      113.3 secs

     total energy              =    -330.09367293 Ry
     estimated scf accuracy    <       0.00005611 Ry

     iteration # 11     ecut=   100.00 Ry     beta= 0.30
     Davidson diagonalization with overlap

---- Real-time Memory Report at c_bands before calling an iterative solver
           386 MiB given to the printing process from OS
             0 MiB allocation reported by mallinfo(arena+hblkhd)
         54936 MiB available memory on the node where the printing process lives
------------------
     ethr =  1.69E-07,  avg # of iterations =  3.1

     total cpu time spent up to now is      121.3 secs

     total energy              =    -330.09367345 Ry
     estimated scf accuracy    <       0.00001534 Ry

     iteration # 12     ecut=   100.00 Ry     beta= 0.30
     Davidson diagonalization with overlap

---- Real-time Memory Report at c_bands before calling an iterative solver
           386 MiB given to the printing process from OS
             0 MiB allocation reported by mallinfo(arena+hblkhd)
         55314 MiB available memory on the node where the printing process lives
------------------
     ethr =  4.79E-08,  avg # of iterations =  7.1

     total cpu time spent up to now is      131.4 secs

     total energy              =    -330.09368119 Ry
     estimated scf accuracy    <       0.00000028 Ry

     iteration # 13     ecut=   100.00 Ry     beta= 0.30
     Davidson diagonalization with overlap

---- Real-time Memory Report at c_bands before calling an iterative solver
           386 MiB given to the printing process from OS
             0 MiB allocation reported by mallinfo(arena+hblkhd)
         55342 MiB available memory on the node where the printing process lives
------------------
     ethr =  8.76E-10,  avg # of iterations = 12.3

     total cpu time spent up to now is      145.8 secs

     total energy              =    -330.09368193 Ry
     estimated scf accuracy    <       0.00000179 Ry

     iteration # 14     ecut=   100.00 Ry     beta= 0.30
     Davidson diagonalization with overlap

---- Real-time Memory Report at c_bands before calling an iterative solver
           386 MiB given to the printing process from OS
             0 MiB allocation reported by mallinfo(arena+hblkhd)
         55238 MiB available memory on the node where the printing process lives
------------------
     ethr =  8.76E-10,  avg # of iterations =  5.1

     total cpu time spent up to now is      155.4 secs

     total energy              =    -330.09368151 Ry
     estimated scf accuracy    <       0.00000060 Ry

     iteration # 15     ecut=   100.00 Ry     beta= 0.30
     Davidson diagonalization with overlap

---- Real-time Memory Report at c_bands before calling an iterative solver
           386 MiB given to the printing process from OS
             0 MiB allocation reported by mallinfo(arena+hblkhd)
         55414 MiB available memory on the node where the printing process lives
------------------
     ethr =  8.76E-10,  avg # of iterations = 10.1

     total cpu time spent up to now is      168.2 secs

     total energy              =    -330.09368124 Ry
     estimated scf accuracy    <       0.00000158 Ry

     iteration # 16     ecut=   100.00 Ry     beta= 0.30
     Davidson diagonalization with overlap

---- Real-time Memory Report at c_bands before calling an iterative solver
           386 MiB given to the printing process from OS
             0 MiB allocation reported by mallinfo(arena+hblkhd)
         55381 MiB available memory on the node where the printing process lives
------------------
     ethr =  8.76E-10,  avg # of iterations = 10.2

     total cpu time spent up to now is      181.2 secs

     total energy              =    -330.09368178 Ry
     estimated scf accuracy    <       0.00000075 Ry

     iteration # 17     ecut=   100.00 Ry     beta= 0.30
     Davidson diagonalization with overlap

---- Real-time Memory Report at c_bands before calling an iterative solver
           386 MiB given to the printing process from OS
             0 MiB allocation reported by mallinfo(arena+hblkhd)
         55205 MiB available memory on the node where the printing process lives
------------------
     ethr =  8.76E-10,  avg # of iterations =  5.8

     total cpu time spent up to now is      190.9 secs

     total energy              =    -330.09368190 Ry
     estimated scf accuracy    <       0.00000002 Ry

     iteration # 18     ecut=   100.00 Ry     beta= 0.30
     Davidson diagonalization with overlap

---- Real-time Memory Report at c_bands before calling an iterative solver
           386 MiB given to the printing process from OS
             0 MiB allocation reported by mallinfo(arena+hblkhd)
         54684 MiB available memory on the node where the printing process lives
------------------
     ethr =  6.11E-11,  avg # of iterations =  6.5

     total cpu time spent up to now is      200.6 secs

     total energy              =    -330.09368190 Ry
     estimated scf accuracy    <       0.00000001 Ry

     iteration # 19     ecut=   100.00 Ry     beta= 0.30
     Davidson diagonalization with overlap

---- Real-time Memory Report at c_bands before calling an iterative solver
           386 MiB given to the printing process from OS
             0 MiB allocation reported by mallinfo(arena+hblkhd)
         54893 MiB available memory on the node where the printing process lives
------------------
     ethr =  3.58E-11,  avg # of iterations =  5.3

     total cpu time spent up to now is      209.7 secs

     total energy              =    -330.09368190 Ry
     estimated scf accuracy    <          8.1E-10 Ry

     iteration # 20     ecut=   100.00 Ry     beta= 0.30
     Davidson diagonalization with overlap

---- Real-time Memory Report at c_bands before calling an iterative solver
           386 MiB given to the printing process from OS
             0 MiB allocation reported by mallinfo(arena+hblkhd)
         54918 MiB available memory on the node where the printing process lives
------------------
     ethr =  2.53E-12,  avg # of iterations = 12.3

     total cpu time spent up to now is      224.6 secs

     total energy              =    -330.09368190 Ry
     estimated scf accuracy    <          6.1E-09 Ry

     iteration # 21     ecut=   100.00 Ry     beta= 0.30
     Davidson diagonalization with overlap

---- Real-time Memory Report at c_bands before calling an iterative solver
           386 MiB given to the printing process from OS
             0 MiB allocation reported by mallinfo(arena+hblkhd)
         54932 MiB available memory on the node where the printing process lives
------------------
     ethr =  2.53E-12,  avg # of iterations =  4.9

     total cpu time spent up to now is      234.1 secs

     total energy              =    -330.09368190 Ry
     estimated scf accuracy    <          2.6E-09 Ry

     iteration # 22     ecut=   100.00 Ry     beta= 0.30
     Davidson diagonalization with overlap

---- Real-time Memory Report at c_bands before calling an iterative solver
           386 MiB given to the printing process from OS
             0 MiB allocation reported by mallinfo(arena+hblkhd)
         54802 MiB available memory on the node where the printing process lives
------------------
     ethr =  2.53E-12,  avg # of iterations =  2.5

     total cpu time spent up to now is      242.0 secs

     total energy              =    -330.09368190 Ry
     estimated scf accuracy    <          1.7E-09 Ry

     iteration # 23     ecut=   100.00 Ry     beta= 0.30
     Davidson diagonalization with overlap

---- Real-time Memory Report at c_bands before calling an iterative solver
           386 MiB given to the printing process from OS
             0 MiB allocation reported by mallinfo(arena+hblkhd)
         54956 MiB available memory on the node where the printing process lives
------------------
     ethr =  2.53E-12,  avg # of iterations =  3.1

     total cpu time spent up to now is      250.0 secs

     total energy              =    -330.09368190 Ry
     estimated scf accuracy    <          1.0E-09 Ry

     iteration # 24     ecut=   100.00 Ry     beta= 0.30
     Davidson diagonalization with overlap

---- Real-time Memory Report at c_bands before calling an iterative solver
           386 MiB given to the printing process from OS
             0 MiB allocation reported by mallinfo(arena+hblkhd)
         54712 MiB available memory on the node where the printing process lives
------------------
     ethr =  2.53E-12,  avg # of iterations =  1.1

     total cpu time spent up to now is      257.4 secs

     total energy              =    -330.09368190 Ry
     estimated scf accuracy    <          1.1E-09 Ry

     iteration # 25     ecut=   100.00 Ry     beta= 0.30
     Davidson diagonalization with overlap

---- Real-time Memory Report at c_bands before calling an iterative solver
           386 MiB given to the printing process from OS
             0 MiB allocation reported by mallinfo(arena+hblkhd)
         54876 MiB available memory on the node where the printing process lives
------------------
     ethr =  2.53E-12,  avg # of iterations =  1.0

     total cpu time spent up to now is      264.8 secs

     total energy              =    -330.09368190 Ry
     estimated scf accuracy    <          1.0E-09 Ry

     iteration # 26     ecut=   100.00 Ry     beta= 0.30
     Davidson diagonalization with overlap

---- Real-time Memory Report at c_bands before calling an iterative solver
           386 MiB given to the printing process from OS
             0 MiB allocation reported by mallinfo(arena+hblkhd)
         55217 MiB available memory on the node where the printing process lives
------------------
     ethr =  2.53E-12,  avg # of iterations =  1.0

     total cpu time spent up to now is      272.3 secs

     total energy              =    -330.09368190 Ry
     estimated scf accuracy    <          1.1E-09 Ry

     iteration # 27     ecut=   100.00 Ry     beta= 0.30
     Davidson diagonalization with overlap

---- Real-time Memory Report at c_bands before calling an iterative solver
           386 MiB given to the printing process from OS
             0 MiB allocation reported by mallinfo(arena+hblkhd)
         55260 MiB available memory on the node where the printing process lives
------------------
     ethr =  2.53E-12,  avg # of iterations =  5.0

     total cpu time spent up to now is      281.1 secs

     total energy              =    -330.09368190 Ry
     estimated scf accuracy    <          2.0E-10 Ry

     iteration # 28     ecut=   100.00 Ry     beta= 0.30
     Davidson diagonalization with overlap

---- Real-time Memory Report at c_bands before calling an iterative solver
           386 MiB given to the printing process from OS
             0 MiB allocation reported by mallinfo(arena+hblkhd)
         55407 MiB available memory on the node where the printing process lives
------------------
     ethr =  6.39E-13,  avg # of iterations =  3.5

     total cpu time spent up to now is      289.5 secs

     total energy              =    -330.09368190 Ry
     estimated scf accuracy    <          3.8E-10 Ry

     iteration # 29     ecut=   100.00 Ry     beta= 0.30
     Davidson diagonalization with overlap

---- Real-time Memory Report at c_bands before calling an iterative solver
           386 MiB given to the printing process from OS
             0 MiB allocation reported by mallinfo(arena+hblkhd)
         55176 MiB available memory on the node where the printing process lives
------------------
     ethr =  6.39E-13,  avg # of iterations =  9.1

     total cpu time spent up to now is      301.9 secs

     total energy              =    -330.09368190 Ry
     estimated scf accuracy    <          5.0E-10 Ry

     iteration # 30     ecut=   100.00 Ry     beta= 0.30
     Davidson diagonalization with overlap

---- Real-time Memory Report at c_bands before calling an iterative solver
           386 MiB given to the printing process from OS
             0 MiB allocation reported by mallinfo(arena+hblkhd)
         55149 MiB available memory on the node where the printing process lives
------------------
     ethr =  6.39E-13,  avg # of iterations =  7.5

     total cpu time spent up to now is      312.6 secs

     total energy              =    -330.09368190 Ry
     estimated scf accuracy    <          1.0E-11 Ry

     iteration # 31     ecut=   100.00 Ry     beta= 0.30
     Davidson diagonalization with overlap

---- Real-time Memory Report at c_bands before calling an iterative solver
           386 MiB given to the printing process from OS
             0 MiB allocation reported by mallinfo(arena+hblkhd)
         55510 MiB available memory on the node where the printing process lives
------------------
     ethr =  1.00E-13,  avg # of iterations =  6.2

     total cpu time spent up to now is      322.2 secs

     total energy              =    -330.09368190 Ry
     estimated scf accuracy    <          5.1E-11 Ry

     iteration # 32     ecut=   100.00 Ry     beta= 0.30
     Davidson diagonalization with overlap

---- Real-time Memory Report at c_bands before calling an iterative solver
           386 MiB given to the printing process from OS
             0 MiB allocation reported by mallinfo(arena+hblkhd)
         55001 MiB available memory on the node where the printing process lives
------------------
     ethr =  1.00E-13,  avg # of iterations =  4.0

     total cpu time spent up to now is      331.2 secs

     total energy              =    -330.09368190 Ry
     estimated scf accuracy    <          5.4E-12 Ry

     iteration # 33     ecut=   100.00 Ry     beta= 0.30
     Davidson diagonalization with overlap

---- Real-time Memory Report at c_bands before calling an iterative solver
           386 MiB given to the printing process from OS
             0 MiB allocation reported by mallinfo(arena+hblkhd)
         55055 MiB available memory on the node where the printing process lives
------------------
     ethr =  1.00E-13,  avg # of iterations =  2.3

     total cpu time spent up to now is      339.1 secs

     End of self-consistent calculation

          k = 0.0000 0.0000 0.0000 ( 11633 PWs)   bands (ev):

   -24.0955  -7.6779  -7.6779  -7.6779  -5.1028  -2.4638  -2.4638   3.7266
     3.7266   3.7266   7.4451   7.4451   7.4451   8.4424   8.4424   8.4424

     occupation numbers 
     1.0000   1.0000   1.0000   1.0000   1.0000   1.0000   1.0000   1.0000
     1.0000   1.0000   1.0000   1.0000   1.0000   1.0000   1.0000   1.0000

          k = 0.0000 0.0000 0.1250 ( 11660 PWs)   bands (ev):

   -24.0948  -7.7169  -7.6754  -7.6754  -5.0050  -2.5623  -2.4537   3.7476
     3.7476   3.7811   7.1913   7.2891   7.2891   8.0105   8.3133   8.3133

     occupation numbers 
     1.0000   1.0000   1.0000   1.0000   1.0000   1.0000   1.0000   1.0000
     1.0000   1.0000   1.0000   1.0000   1.0000   1.0000   1.0000   1.0000

          k = 0.0000 0.0000 0.2500 ( 11632 PWs)   bands (ev):

   -24.0933  -7.8052  -7.6693  -7.6693  -4.7401  -2.8371  -2.4290   3.7992
     3.7992   3.9752   6.7234   6.9880   6.9880   7.2350   8.0235   8.0235

     occupation numbers 
     1.0000   1.0000   1.0000   1.0000   1.0000   1.0000   1.0000   1.0000
     1.0000   1.0000   1.0000   1.0000   1.0000   1.0000   1.0000   1.0000

          k = 0.0000 0.0000 0.3750 ( 11648 PWs)   bands (ev):

   -24.0917  -7.8868  -7.6632  -7.6632  -4.3806  -3.2159  -2.4038   3.8520
     3.8520   4.3072   6.3609   6.4636   6.7600   6.7600   7.7458   7.7458

     occupation numbers 
     1.0000   1.0000   1.0000   1.0000   1.0000   1.0000   1.0000   1.0000
     1.0000   1.0000   1.0000   1.0000   1.0000   1.0000   1.0000   1.0000

          k = 0.0000 0.0000-0.5000 ( 11652 PWs)   bands (ev):

   -24.0911  -7.9190  -7.6607  -7.6607  -4.1353  -3.4714  -2.3932   3.8741
     3.8741   4.5352   6.0784   6.2293   6.6824   6.6824   7.6312   7.6312

     occupation numbers 
     1.0000   1.0000   1.0000   1.0000   1.0000   1.0000   1.0000   1.0000
     1.0000   1.0000   1.0000   1.0000   1.0000   1.0000   1.0000   1.0000

          k = 0.0000 0.1250 0.1250 ( 11620 PWs)   bands (ev):

   -24.0942  -7.7247  -7.6999  -7.6729  -4.9136  -2.5948  -2.5061   3.4883
     3.7746   4.1455   6.7736   7.1456   7.4046   7.5902   8.1674   8.4285

     occupation numbers 
     1.0000   1.0000   1.0000   1.0000   1.0000   1.0000   1.0000   1.0000
     1.0000   1.0000   1.0000   1.0000   1.0000   1.0000   1.0000   1.0000

          k = 0.0000 0.1250 0.2500 ( 11652 PWs)   bands (ev):

   -24.0927  -7.7994  -7.6986  -7.6669  -4.6647  -2.8321  -2.5104   3.3915
     3.8423   4.5389   6.2363   6.8626   6.9481   7.3292   7.8414   8.2414

     occupation numbers 
     1.0000   1.0000   1.0000   1.0000   1.0000   1.0000   1.0000   1.0000
     1.0000   1.0000   1.0000   1.0000   1.0000   1.0000   1.0000   1.0000

          k = 0.0000 0.1250 0.3750 ( 11677 PWs)   bands (ev):

   -24.0911  -7.8757  -7.6900  -7.6609  -4.3258  -3.1899  -2.4940   3.4454
     3.9135   4.8778   5.7726   6.4465   6.6458   7.2642   7.5297   7.8640

     occupation numbers 
     1.0000   1.0000   1.0000   1.0000   1.0000   1.0000   1.0000   1.0000
     1.0000   1.0000   1.0000   1.0000   1.0000   1.0000   1.0000   1.0000

          k = 0.0000 0.1250-0.5000 ( 11652 PWs)   bands (ev):

   -24.0905  -7.9061  -7.6863  -7.6584  -4.0971  -3.4293  -2.4865   3.5004
     3.9441   5.0602   5.5303   6.2595   6.5727   7.3173   7.4000   7.6169

     occupation numbers 
     1.0000   1.0000   1.0000   1.0000   1.0000   1.0000   1.0000   1.0000
     1.0000   1.0000   1.0000   1.0000   1.0000   1.0000   1.0000   1.0000

          k = 0.0000 0.2500 0.2500 ( 11634 PWs)   bands (ev):

   -24.0912  -7.7984  -7.7532  -7.6611  -4.4571  -2.8680  -2.6909   3.1335
     3.9549   5.1986   5.5766   6.6054   6.7055   7.4040   7.4338   8.4495

     occupation numbers 
     1.0000   1.0000   1.0000   1.0000   1.0000   1.0000   1.0000   1.0000
     1.0000   1.0000   1.0000   1.0000   1.0000   1.0000   1.0000   1.0000

          k = 0.0000 0.2500 0.3750 ( 11680 PWs)   bands (ev):

   -24.0896  -7.8489  -7.7526  -7.6553  -4.1727  -3.1283  -2.7312   3.0728
     4.0833   5.0578   5.6969   6.4026   6.5328   7.0382   7.4676   8.2964

     occupation numbers 
     1.0000   1.0000   1.0000   1.0000   1.0000   1.0000   1.0000   1.0000
     1.0000   1.0000   1.0000   1.0000   1.0000   1.0000   1.0000   1.0000

          k = 0.0000 0.2500-0.5000 ( 11680 PWs)   bands (ev):

   -24.0890  -7.8745  -7.7467  -7.6529  -3.9857  -3.3276  -2.7274   3.0836
     4.1424   4.8545   5.8645   6.3366   6.4853   6.8677   7.5915   8.0765

     occupation numbers 
     1.0000   1.0000   1.0000   1.0000   1.0000   1.0000   1.0000   1.0000
     1.0000   1.0000   1.0000   1.0000   1.0000   1.0000   1.0000   1.0000

          k = 0.0000 0.3750 0.3750 ( 11662 PWs)   bands (ev):

   -24.0882  -7.8279  -7.8065  -7.6497  -3.9596  -3.0977  -2.9975   2.8793
     4.2997   4.5732   6.1976   6.3449   6.5442   6.6381   7.5319   8.6011

     occupation numbers 
     1.0000   1.0000   1.0000   1.0000   1.0000   1.0000   1.0000   1.0000
     1.0000   1.0000   1.0000   1.0000   1.0000   1.0000   1.0000   1.0000

          k = 0.0000 0.3750-0.5000 ( 11674 PWs)   bands (ev):

   -24.0876  -7.8422  -7.8050  -7.6474  -3.8201  -3.2257  -3.0182   2.8245
     4.3945   4.4133   6.1305   6.3155   6.5547   6.7313   7.5758   8.6541

     occupation numbers 
     1.0000   1.0000   1.0000   1.0000   1.0000   1.0000   1.0000   1.0000
     1.0000   1.0000   1.0000   1.0000   1.0000   1.0000   1.0000   1.0000

          k = 0.0000-0.5000-0.5000 ( 11640 PWs)   bands (ev):

   -24.0870  -7.8286  -7.8286  -7.6451  -3.7057  -3.1834  -3.1834   2.7373
     4.2317   4.5716   6.0519   6.0519   6.8397   6.8397   7.5698   8.8828

     occupation numbers 
     1.0000   1.0000   1.0000   1.0000   1.0000   1.0000   1.0000   1.0000
     1.0000   1.0000   1.0000   1.0000   1.0000   1.0000   1.0000   1.0000

          k = 0.1250 0.1250 0.1250 ( 11647 PWs)   bands (ev):

   -24.0936  -7.7310  -7.6964  -7.6964  -4.8280  -2.5908  -2.5908   3.2158
     4.1727   4.1727   6.7032   6.7032   7.1336   7.6277   8.3424   8.3424

     occupation numbers 
     1.0000   1.0000   1.0000   1.0000   1.0000   1.0000   1.0000   1.0000
     1.0000   1.0000   1.0000   1.0000   1.0000   1.0000   1.0000   1.0000

          k = 0.1250 0.1250 0.2500 ( 11647 PWs)   bands (ev):

   -24.0920  -7.7939  -7.7015  -7.6877  -4.5935  -2.8324  -2.5813   3.0390
     4.2415   4.6876   6.2032   6.2892   6.7487   7.5864   8.1096   8.1854

     occupation numbers 
     1.0000   1.0000   1.0000   1.0000   1.0000   1.0000   1.0000   1.0000
     1.0000   1.0000   1.0000   1.0000   1.0000   1.0000   1.0000   1.0000

          k = 0.1250 0.1250 0.3750 ( 11665 PWs)   bands (ev):

   -24.0905  -7.8650  -7.6938  -7.6790  -4.2729  -3.1714  -2.5719   3.0385
     4.3156   5.0838   5.7133   5.8707   6.8009   7.4301   7.7051   7.8554

     occupation numbers 
     1.0000   1.0000   1.0000   1.0000   1.0000   1.0000   1.0000   1.0000
     1.0000   1.0000   1.0000   1.0000   1.0000   1.0000   1.0000   1.0000

          k = 0.1250 0.1250-0.5000 ( 11650 PWs)   bands (ev):

   -24.0899  -7.8936  -7.6902  -7.6754  -4.0582  -3.3964  -2.5679   3.0741
     4.3480   5.2621   5.4338   5.7556   7.1430   7.1876   7.3625   7.7458

     occupation numbers 
     1.0000   1.0000   1.0000   1.0000   1.0000   1.0000   1.0000   1.0000
     1.0000   1.0000   1.0000   1.0000   1.0000   1.0000   1.0000   1.0000

          k = 0.1250 0.2500 0.2500 ( 11660 PWs)   bands (ev):

   -24.0905  -7.7931  -7.7470  -7.6845  -4.3964  -2.8769  -2.7424   2.7363
     4.5057   5.2287   5.5939   6.2231   6.2743   7.7519   7.8890   8.3954

     occupation numbers 
     1.0000   1.0000   1.0000   1.0000   1.0000   1.0000   1.0000   1.0000
     1.0000   1.0000   1.0000   1.0000   1.0000   1.0000   1.0000   1.0000

          k = 0.1250 0.2500 0.3750 ( 11687 PWs)   bands (ev):

   -24.0891  -7.8391  -7.7475  -7.6763  -4.1247  -3.1291  -2.7808   2.6289
     4.6498   5.0920   5.6665   5.8872   6.4738   7.5167   7.7608   8.2653

     occupation numbers 
     1.0000   1.0000   1.0000   1.0000   1.0000   1.0000   1.0000   1.0000
     1.0000   1.0000   1.0000   1.0000   1.0000   1.0000   1.0000   1.0000

          k = 0.1250 0.2500-0.5000 ( 11690 PWs)   bands (ev):

   -24.0884  -7.8631  -7.7420  -7.6728  -3.9454  -3.3176  -2.7821   2.6178
     4.7112   4.8974   5.7367   5.7785   6.8288   7.2000   7.7854   8.0839

     occupation numbers 
     1.0000   1.0000   1.0000   1.0000   1.0000   1.0000   1.0000   1.0000
     1.0000   1.0000   1.0000   1.0000   1.0000   1.0000   1.0000   1.0000

          k = 0.1250 0.3750 0.3750 ( 11679 PWs)   bands (ev):

   -24.0876  -7.8189  -7.7978  -7.6687  -3.9164  -3.1177  -3.0225   2.4001
     4.6486   4.8853   5.8254   5.9609   6.6330   7.3547   7.7391   8.6028

     occupation numbers 
     1.0000   1.0000   1.0000   1.0000   1.0000   1.0000   1.0000   1.0000
     1.0000   1.0000   1.0000   1.0000   1.0000   1.0000   1.0000   1.0000

          k = 0.1250 0.3750-0.5000 ( 11698 PWs)   bands (ev):

   -24.0870  -7.8320  -7.7966  -7.6655  -3.7783  -3.2396  -3.0488   2.3305
     4.4900   5.0011   5.7624   5.9199   6.9660   7.2324   7.7044   8.6708

     occupation numbers 
     1.0000   1.0000   1.0000   1.0000   1.0000   1.0000   1.0000   1.0000
     1.0000   1.0000   1.0000   1.0000   1.0000   1.0000   1.0000   1.0000

          k = 0.1250-0.5000-0.5000 ( 11664 PWs)   bands (ev):

   -24.0864  -7.8188  -7.8188  -7.6624  -3.6603  -3.2075  -3.2075   2.2333
     4.3466   5.1831   5.7610   5.7610   7.2706   7.2706   7.5773   8.8991

     occupation numbers 
     1.0000   1.0000   1.0000   1.0000   1.0000   1.0000   1.0000   1.0000
     1.0000   1.0000   1.0000   1.0000   1.0000   1.0000   1.0000   1.0000

          k = 0.2500 0.2500 0.2500 ( 11659 PWs)   bands (ev):

   -24.0891  -7.7871  -7.7322  -7.7322  -4.2265  -2.8988  -2.8988   2.3052
     5.3023   5.3023   5.4619   5.8523   5.8523   8.1187   8.2757   8.2757

     occupation numbers 
     1.0000   1.0000   1.0000   1.0000   1.0000   1.0000   1.0000   1.0000
     1.0000   1.0000   1.0000   1.0000   1.0000   1.0000   1.0000   1.0000

          k = 0.2500 0.2500 0.3750 ( 11678 PWs)   bands (ev):

   -24.0876  -7.8157  -7.7433  -7.7171  -3.9891  -3.1344  -2.9210   2.0771
     5.0643   5.3612   5.5835   5.6043   6.4069   8.1161   8.1420   8.2480

     occupation numbers 
     1.0000   1.0000   1.0000   1.0000   1.0000   1.0000   1.0000   1.0000
     1.0000   1.0000   1.0000   1.0000   1.0000   1.0000   1.0000   1.0000

          k = 0.2500 0.2500-0.5000 ( 11706 PWs)   bands (ev):

   -24.0870  -7.8354  -7.7395  -7.7109  -3.8312  -3.2949  -2.9304   2.0132
     4.9068   5.3579   5.5535   5.6024   6.8963   7.8383   8.0691   8.2322

     occupation numbers 
     1.0000   1.0000   1.0000   1.0000   1.0000   1.0000   1.0000   1.0000
     1.0000   1.0000   1.0000   1.0000   1.0000   1.0000   1.0000   1.0000

          k = 0.2500 0.3750 0.3750 ( 11674 PWs)   bands (ev):

   -24.0862  -7.7972  -7.7766  -7.7137  -3.7971  -3.1660  -3.0973   1.7239
     4.8330   5.3905   5.4636   6.0188   6.8241   8.0860   8.1984   8.6158

     occupation numbers 
     1.0000   1.0000   1.0000   1.0000   1.0000   1.0000   1.0000   1.0000
     1.0000   1.0000   1.0000   1.0000   1.0000   1.0000   1.0000   1.0000

          k = 0.2500 0.3750-0.5000 ( 11680 PWs)   bands (ev):

   -24.0856  -7.8070  -7.7763  -7.7084  -3.6655  -3.2740  -3.1291   1.6051
     4.7283   5.3647   5.4557   6.1102   7.2386   7.9770   8.1359   8.7163

     occupation numbers 
     1.0000   1.0000   1.0000   1.0000   1.0000   1.0000   1.0000   1.0000
     1.0000   1.0000   1.0000   1.0000   1.0000   1.0000   1.0000   1.0000

          k = 0.2500-0.5000-0.5000 ( 11660 PWs)   bands (ev):

   -24.0850  -7.7951  -7.7951  -7.7035  -3.5422  -3.2659  -3.2659   1.4623
     4.6407   5.4045   5.4045   6.2516   7.5955   8.0032   8.0032   8.9384

     occupation numbers 
     1.0000   1.0000   1.0000   1.0000   1.0000   1.0000   1.0000   1.0000
     1.0000   1.0000   1.0000   1.0000   1.0000   1.0000   1.0000   1.0000

          k = 0.3750 0.3750 0.3750 ( 11659 PWs)   bands (ev):

   -24.0848  -7.7778  -7.7551  -7.7551  -3.6334  -3.2147  -3.2147   1.2490
     4.9617   5.2385   5.2385   6.9285   6.9285   8.5183   8.5183   8.7083

     occupation numbers 
     1.0000   1.0000   1.0000   1.0000   1.0000   1.0000   1.0000   1.0000
     1.0000   1.0000   1.0000   1.0000   1.0000   1.0000   1.0000   1.0000

          k = 0.3750 0.3750-0.5000 ( 11652 PWs)   bands (ev):

   -24.0842  -7.7815  -7.7602  -7.7461  -3.5189  -3.3095  -3.2350   1.0797
     4.9485   5.1635   5.2554   6.9650   7.3943   8.5612   8.5614   8.8168

     occupation numbers 
     1.0000   1.0000   1.0000   1.0000   1.0000   1.0000   1.0000   1.0000
     1.0000   1.0000   1.0000   1.0000   1.0000   1.0000   1.0000   1.0000

          k = 0.3750-0.5000-0.5000 ( 11672 PWs)   bands (ev):

   -24.0836  -7.7708  -7.7708  -7.7440  -3.4095  -3.3245  -3.3245   0.8886
     4.9645   5.1830   5.1830   7.2077   7.6140   8.6861   8.6861   8.9779

     occupation numbers 
     1.0000   1.0000   1.0000   1.0000   1.0000   1.0000   1.0000   1.0000
     1.0000   1.0000   1.0000   1.0000   1.0000   1.0000   1.0000   1.0000

          k =-0.5000-0.5000-0.5000 ( 11656 PWs)   bands (ev):

   -24.0831  -7.7606  -7.7606  -7.7606  -3.3489  -3.3489  -3.3489   0.6759
     5.1098   5.1098   5.1098   7.6217   7.6217   8.9943   8.9943   8.9943

     occupation numbers 
     1.0000   1.0000   1.0000   1.0000   1.0000   1.0000   1.0000   1.0000
     1.0000   1.0000   1.0000   1.0000   1.0000   1.0000   1.0000   1.0000

     highest occupied level (ev):     8.9943

!    total energy              =    -330.09368190 Ry
     estimated scf accuracy    <          4.7E-13 Ry

     The total energy is the sum of the following terms:
     one-electron contribution =      10.91376923 Ry
     hartree contribution      =      12.34413576 Ry
     xc contribution           =     -91.04999543 Ry
     ewald contribution        =    -123.86708201 Ry
     one-center paw contrib.   =    -138.43450946 Ry
      -> PAW hartree energy AE =       0.00000000 Ry
      -> PAW hartree energy PS =       0.00000000 Ry
      -> PAW xc energy AE      =       0.00000000 Ry
      -> PAW xc energy PS      =       0.00000000 Ry
      -> total E_H with PAW    =      12.34413576 Ry
      -> total E_XC with PAW   =     -91.04999543 Ry

     convergence has been achieved in  33 iterations

     Forces acting on atoms (cartesian axes, Ry/au):

     atom    1 type  1   force =     0.00000000    0.00000000    0.00000000
     atom    2 type  2   force =     0.00000000    0.00000000    0.00000000
     atom    3 type  3   force =     0.00000000    0.00000000    0.00000000
     atom    4 type  3   force =     0.00000000    0.00000000    0.00000000
     atom    5 type  3   force =     0.00000000    0.00000000    0.00000000
     The non-local contrib.  to forces
     atom    1 type  1   force =     0.00000000    0.00000000    0.00000000
     atom    2 type  2   force =     0.00000000    0.00000000    0.00000000
     atom    3 type  3   force =     0.00000000    0.00000000    0.00000000
     atom    4 type  3   force =     0.00000000    0.00000000    0.00000000
     atom    5 type  3   force =     0.00000000    0.00000000    0.00000000
     The ionic contribution  to forces
     atom    1 type  1   force =    -0.00000000   -0.00000000   -0.00000000
     atom    2 type  2   force =     0.00000000    0.00000000    0.00000000
     atom    3 type  3   force =     0.00000000    0.00000000   -0.00000000
     atom    4 type  3   force =     0.00000000   -0.00000000    0.00000000
     atom    5 type  3   force =    -0.00000000    0.00000000    0.00000000
     The local contribution  to forces
     atom    1 type  1   force =    -0.00000000   -0.00000000    0.00000000
     atom    2 type  2   force =    -0.00000000   -0.00000000   -0.00000000
     atom    3 type  3   force =     0.00000000    0.00000000    0.00000000
     atom    4 type  3   force =     0.00000000   -0.00000000    0.00000000
     atom    5 type  3   force =    -0.00000000    0.00000000    0.00000000
     The core correction contribution to forces
     atom    1 type  1   force =    -0.00000000   -0.00000000   -0.00000000
     atom    2 type  2   force =     0.00000000    0.00000000    0.00000000
     atom    3 type  3   force =     0.00000000    0.00000000    0.00000000
     atom    4 type  3   force =     0.00000000   -0.00000000    0.00000000
     atom    5 type  3   force =    -0.00000000    0.00000000    0.00000000
     The Hubbard contrib.    to forces
     atom    1 type  1   force =     0.00000000    0.00000000    0.00000000
     atom    2 type  2   force =     0.00000000    0.00000000    0.00000000
     atom    3 type  3   force =     0.00000000    0.00000000    0.00000000
     atom    4 type  3   force =     0.00000000    0.00000000    0.00000000
     atom    5 type  3   force =     0.00000000    0.00000000    0.00000000
     The SCF correction term to forces
     atom    1 type  1   force =     0.00000000    0.00000000    0.00000000
     atom    2 type  2   force =     0.00000000    0.00000000   -0.00000000
     atom    3 type  3   force =    -0.00000000   -0.00000000    0.00000000
     atom    4 type  3   force =     0.00000000    0.00000000    0.00000000
     atom    5 type  3   force =    -0.00000000   -0.00000000    0.00000000

     Total force =     0.000000     Total SCF correction =     0.000000


     Computing stress (Cartesian axis) and pressure

          total   stress  (Ry/bohr**3)                   (kbar)     P=        0.11
   0.00000077   0.00000000   0.00000000            0.11        0.00        0.00
   0.00000000   0.00000077   0.00000000            0.00        0.11        0.00
   0.00000000   0.00000000   0.00000077            0.00        0.00        0.11

     kinetic stress (kbar)   6948.78      0.00      0.00
                                0.00   6948.78      0.00
                                0.00      0.00   6948.78

     local   stress (kbar)   -431.47     -0.00     -0.00
                               -0.00   -431.47     -0.00
                               -0.00     -0.00   -431.47

     nonloc. stress (kbar)   3568.60      0.00      0.00
                                0.00   3568.60      0.00
                                0.00      0.00   3568.60

     hartree stress (kbar)    876.01      0.00      0.00
                                0.00    876.01     -0.00
                                0.00     -0.00    876.01

     exc-cor stress (kbar)  12031.59      0.00     -0.00
                                0.00  12031.59     -0.00
                               -0.00     -0.00  12031.59

     corecor stress (kbar) -14203.04      0.00      0.00
                                0.00 -14203.04     -0.00
                                0.00     -0.00 -14203.04

     ewald   stress (kbar)  -8790.35      0.00     -0.00
                                0.00  -8790.35     -0.00
                               -0.00     -0.00  -8790.35

     hubbard stress (kbar)      0.00      0.00      0.00
                                0.00      0.00      0.00
                                0.00      0.00      0.00

     DFT-D   stress (kbar)      0.00      0.00      0.00
                                0.00      0.00      0.00
                                0.00      0.00      0.00

     XDM     stress (kbar)      0.00      0.00      0.00
                                0.00      0.00      0.00
                                0.00      0.00      0.00

     dft-nl  stress (kbar)      0.00      0.00      0.00
                                0.00      0.00      0.00
                                0.00      0.00      0.00

     TS-vdW  stress (kbar)      0.00      0.00      0.00
                                0.00      0.00      0.00
                                0.00      0.00      0.00

     MDB     stress (kbar)      0.00      0.00      0.00
                                0.00      0.00      0.00
                                0.00      0.00      0.00

     3D-RISM stress (kbar)      0.00      0.00      0.00
                                0.00      0.00      0.00
                                0.00      0.00      0.00


     Writing all to output data dir ./tmp/laals3.save/ :
     XML data file, charge density, pseudopotentials, collected wavefunctions

     init_run     :      7.05s CPU      6.23s WALL (       1 calls)
     electrons    :    422.99s CPU    332.28s WALL (       1 calls)
     forces       :      2.72s CPU      2.33s WALL (       1 calls)
     stress       :     16.20s CPU     15.62s WALL (       1 calls)

     Called by init_run:
     wfcinit      :      4.29s CPU      3.21s WALL (       1 calls)
     wfcinit:atom :      0.08s CPU      0.06s WALL (      18 calls)
     wfcinit:wfcr :      3.76s CPU      2.80s WALL (      18 calls)
     potinit      :      0.63s CPU      0.65s WALL (       1 calls)
     hinit0       :      1.01s CPU      1.03s WALL (       1 calls)

     Called by electrons:
     c_bands      :    288.30s CPU    205.39s WALL (      34 calls)
     sum_band     :     90.37s CPU     76.56s WALL (      34 calls)
     v_of_rho     :      4.14s CPU      4.31s WALL (      34 calls)
     v_h          :      0.29s CPU      0.31s WALL (      34 calls)
     v_xc         :      4.09s CPU      4.24s WALL (      36 calls)
     newd         :     34.57s CPU     40.60s WALL (      34 calls)
     PAW_pot      :      5.73s CPU      5.73s WALL (      34 calls)
     mix_rho      :      0.55s CPU      0.57s WALL (      34 calls)

     Called by c_bands:
     init_us_2    :     13.36s CPU      9.42s WALL (    1278 calls)
     cegterg      :    233.93s CPU    165.50s WALL (     612 calls)

     Called by sum_band:
     sum_band:wei :      0.01s CPU      0.01s WALL (      34 calls)
     sum_band:loo :     35.56s CPU     25.70s WALL (      34 calls)
     sum_band:buf :      0.24s CPU      0.19s WALL (     612 calls)
     sum_band:ini :      5.98s CPU      4.20s WALL (     612 calls)
     sum_band:cal :      3.51s CPU      2.03s WALL (     612 calls)
     sum_band:bec :      0.07s CPU      0.05s WALL (     612 calls)
     addusdens    :     52.82s CPU     48.91s WALL (      34 calls)
                                        0.00s GPU  (      34 calls)
     addusd:skk   :      0.05s CPU      0.04s WALL (     102 calls)
                                        0.00s GPU  (     102 calls)

     Called by *egterg:
     cdiaghg      :      5.32s CPU      3.84s WALL (    3705 calls)
     cegterg:over :      8.31s CPU      4.96s WALL (    3111 calls)
     cegterg:upda :      4.56s CPU      2.72s WALL (    3111 calls)
     cegterg:last :      6.78s CPU      3.88s WALL (    1652 calls)
     h_psi        :    193.07s CPU    141.06s WALL (    3741 calls)
     s_psi        :     13.07s CPU      7.18s WALL (    3741 calls)
     g_psi        :      1.53s CPU      1.06s WALL (    3111 calls)

     Called by h_psi:
     h_psi:calbec :     14.40s CPU      8.38s WALL (    3741 calls)
     vloc_psi     :    162.20s CPU    123.55s WALL (    3741 calls)
     add_vuspsi   :     15.64s CPU      8.54s WALL (    3741 calls)

     General routines
     calbec       :     18.49s CPU     10.77s WALL (    4443 calls)
     fft          :      2.49s CPU      2.72s WALL (     466 calls)
     ffts         :      0.41s CPU      0.40s WALL (      68 calls)
     fftw         :    156.12s CPU    118.27s WALL (   73018 calls)
     interpolate  :      0.55s CPU      0.57s WALL (      34 calls)

     Parallel routines

     PAW routines
     PAW_pot      :      5.73s CPU      5.73s WALL (      34 calls)
     PAW_symme    :      0.07s CPU      0.06s WALL (      68 calls)

     PWSCF        :   7m29.60s CPU   5m57.22s WALL


   This run was terminated on:  14:42: 3   6May2025            

=------------------------------------------------------------------------------=
   JOB DONE.
=------------------------------------------------------------------------------=
