
     Program PWSCF v.7.3.1 starts on 13May2025 at 15:29:16 

     This program is part of the open-source Quantum ESPRESSO suite
     for quantum simulation of materials; please cite
         "P. Giannozzi et al., J. Phys.:Condens. Matter 21 395502 (2009);
         "P. Giannozzi et al., J. Phys.:Condens. Matter 29 465901 (2017);
         "P. Giannozzi et al., J. Chem. Phys. 152 154105 (2020);
          URL http://www.quantum-espresso.org", 
     in publications or presentations arising from this work. More details at
     http://www.quantum-espresso.org/quote

     Parallel version (MPI), running on     8 processors

     MPI processes distributed on     1 nodes
     59497 MiB available memory on the printing compute node when the environment starts

     Waiting for input...
     Reading input from standard input

     Current dimensions of program PWSCF are:
     Max number of different atomic species (ntypx) = 10
     Max number of k-points (npk) = 120000
     Max angular momentum in pseudopotentials (lmaxx) =  4
     file Ag.pbe-spn-kjpaw_psl.1.0.0.UPF: wavefunction(s)  4S 5S 4P 4D renormalized
     file F.pbe-n-kjpaw_psl.1.0.0.UPF: wavefunction(s)  2S 2P renormalized

     IMPORTANT: XC functional enforced from input :
     Exchange-correlation= PBE
                           (   1   4   3   4   0   0   0)
     Any further DFT definition will be discarded
     Please, verify this is what you really want

     Message from routine setup:
     using ibrav=0 with symmetry is DISCOURAGED, use correct ibrav instead

     K-points division:     npool     =       4
     R & G space division:  proc/nbgrp/npool/nimage =       2
     Subspace diagonalization in iterative solution of the eigenvalue problem:
     a serial algorithm will be used


     Parallelization info
     --------------------
     sticks:   dense  smooth     PW     G-vecs:    dense   smooth      PW
     Min        2154    1080    304               106455    37710    5729
     Max        2155    1081    305               106456    37711    5730
     Sum        4309    2161    609               212911    75421   11459

     Using Slab Decomposition



     bravais-lattice index     =            0
     lattice parameter (alat)  =       8.2313  a.u.
     unit-cell volume          =     557.7098 (a.u.)^3
     number of atoms/cell      =            5
     number of atomic types    =            3
     number of electrons       =        44.00
     number of Kohn-Sham states=           26
     kinetic-energy cutoff     =     100.0000  Ry
     charge density cutoff     =     800.0000  Ry
     scf convergence threshold =      1.0E-12
     mixing beta               =       0.3000
     number of iterations used =            8  plain     mixing
     Exchange-correlation= PBE
                           (   1   4   3   4   0   0   0)

     celldm(1)=   8.231319  celldm(2)=   0.000000  celldm(3)=   0.000000
     celldm(4)=   0.000000  celldm(5)=   0.000000  celldm(6)=   0.000000

     crystal axes: (cart. coord. in units of alat)
               a(1) = (   1.000000   0.000000   0.000000 )  
               a(2) = (   0.000000   1.000000   0.000000 )  
               a(3) = (   0.000000   0.000000   1.000000 )  

     reciprocal axes: (cart. coord. in units 2 pi/alat)
               b(1) = (  1.000000  0.000000  0.000000 )  
               b(2) = (  0.000000  1.000000  0.000000 )  
               b(3) = (  0.000000  0.000000  1.000000 )  


     PseudoPot. # 1 for Ag read from file:
     /home/administrator/Downloads/BURAI/BURAI1.3/pseudopot/Ag.pbe-spn-kjpaw_psl.1.0.0.UPF
     MD5 check sum: 4bb6ed288085a1d2cdc62c229711c47d
     Pseudo is Projector augmented-wave + core cor, Zval = 19.0
     Generated using "atomic" code by A. Dal Corso  v.5.1.2
     Shape of augmentation charge: PSQ
     Using radial grid of 1237 points,  6 beta functions with: 
                l(1) =   0
                l(2) =   0
                l(3) =   1
                l(4) =   1
                l(5) =   2
                l(6) =   2
     Q(r) pseudized with 0 coefficients 


     PseudoPot. # 2 for Ge read from file:
     /home/administrator/Downloads/BURAI/BURAI1.3/pseudopot/Ge.pbe-n-kjpaw_psl.1.0.0.UPF
     MD5 check sum: 4aa708d04ebeac8ef886ea6b7189f44d
     Pseudo is Projector augmented-wave + core cor, Zval =  4.0
     Generated using "atomic" code by A. Dal Corso  v.5.1.2
     Shape of augmentation charge: PSQ
     Using radial grid of 1207 points,  4 beta functions with: 
                l(1) =   0
                l(2) =   0
                l(3) =   1
                l(4) =   1
     Q(r) pseudized with 0 coefficients 


     PseudoPot. # 3 for F  read from file:
     /home/administrator/Downloads/BURAI/BURAI1.3/pseudopot/F.pbe-n-kjpaw_psl.1.0.0.UPF
     MD5 check sum: de2194216b7114fcf395f1df79715f8b
     Pseudo is Projector augmented-wave + core cor, Zval =  7.0
     Generated using "atomic" code by A. Dal Corso  v.5.1.2
     Shape of augmentation charge: PSQ
     Using radial grid of 1105 points,  4 beta functions with: 
                l(1) =   0
                l(2) =   0
                l(3) =   1
                l(4) =   1
     Q(r) pseudized with 0 coefficients 


     atomic species   valence    mass     pseudopotential
     Ag               19.00   107.86820     Ag( 1.00)
     Ge                4.00    72.63000     Ge( 1.00)
     F                 7.00    18.99840     F ( 1.00)

     48 Sym. Ops., with inversion, found



   Cartesian axes

     site n.     atom                  positions (alat units)
         1        Ag     tau(   1) = (   0.0000000   0.0000000   0.0000000  )
         2        Ge     tau(   2) = (   0.5000000   0.5000000   0.5000000  )
         3        F      tau(   3) = (   0.5000000   0.5000000   0.0000000  )
         4        F      tau(   4) = (   0.5000000   0.0000000   0.5000000  )
         5        F      tau(   5) = (   0.0000000   0.5000000   0.5000000  )

     number of k points=    35  Gaussian smearing, width (Ry)=  0.0050
                       cart. coord. in units 2pi/alat
        k(    1) = (   0.0000000   0.0000000   0.0000000), wk =   0.0039062
        k(    2) = (   0.0000000   0.0000000   0.1250000), wk =   0.0234375
        k(    3) = (   0.0000000   0.0000000   0.2500000), wk =   0.0234375
        k(    4) = (   0.0000000   0.0000000   0.3750000), wk =   0.0234375
        k(    5) = (   0.0000000   0.0000000  -0.5000000), wk =   0.0117188
        k(    6) = (   0.0000000   0.1250000   0.1250000), wk =   0.0468750
        k(    7) = (   0.0000000   0.1250000   0.2500000), wk =   0.0937500
        k(    8) = (   0.0000000   0.1250000   0.3750000), wk =   0.0937500
        k(    9) = (   0.0000000   0.1250000  -0.5000000), wk =   0.0468750
        k(   10) = (   0.0000000   0.2500000   0.2500000), wk =   0.0468750
        k(   11) = (   0.0000000   0.2500000   0.3750000), wk =   0.0937500
        k(   12) = (   0.0000000   0.2500000  -0.5000000), wk =   0.0468750
        k(   13) = (   0.0000000   0.3750000   0.3750000), wk =   0.0468750
        k(   14) = (   0.0000000   0.3750000  -0.5000000), wk =   0.0468750
        k(   15) = (   0.0000000  -0.5000000  -0.5000000), wk =   0.0117188
        k(   16) = (   0.1250000   0.1250000   0.1250000), wk =   0.0312500
        k(   17) = (   0.1250000   0.1250000   0.2500000), wk =   0.0937500
        k(   18) = (   0.1250000   0.1250000   0.3750000), wk =   0.0937500
        k(   19) = (   0.1250000   0.1250000  -0.5000000), wk =   0.0468750
        k(   20) = (   0.1250000   0.2500000   0.2500000), wk =   0.0937500
        k(   21) = (   0.1250000   0.2500000   0.3750000), wk =   0.1875000
        k(   22) = (   0.1250000   0.2500000  -0.5000000), wk =   0.0937500
        k(   23) = (   0.1250000   0.3750000   0.3750000), wk =   0.0937500
        k(   24) = (   0.1250000   0.3750000  -0.5000000), wk =   0.0937500
        k(   25) = (   0.1250000  -0.5000000  -0.5000000), wk =   0.0234375
        k(   26) = (   0.2500000   0.2500000   0.2500000), wk =   0.0312500
        k(   27) = (   0.2500000   0.2500000   0.3750000), wk =   0.0937500
        k(   28) = (   0.2500000   0.2500000  -0.5000000), wk =   0.0468750
        k(   29) = (   0.2500000   0.3750000   0.3750000), wk =   0.0937500
        k(   30) = (   0.2500000   0.3750000  -0.5000000), wk =   0.0937500
        k(   31) = (   0.2500000  -0.5000000  -0.5000000), wk =   0.0234375
        k(   32) = (   0.3750000   0.3750000   0.3750000), wk =   0.0312500
        k(   33) = (   0.3750000   0.3750000  -0.5000000), wk =   0.0468750
        k(   34) = (   0.3750000  -0.5000000  -0.5000000), wk =   0.0234375
        k(   35) = (  -0.5000000  -0.5000000  -0.5000000), wk =   0.0039062

     Dense  grid:   212911 G-vectors     FFT dimensions: (  75,  75,  75)

     Smooth grid:    75421 G-vectors     FFT dimensions: (  54,  54,  54)

     Estimated max dynamical RAM per process >     171.97 MB

     Estimated total dynamical RAM >       1.19 GB

     Check: negative core charge=   -0.000002

     Initial potential from superposition of free atoms

     starting charge      43.9989, renormalised to      44.0000
     Starting wfcs are   26 randomized atomic wfcs
     Checking if some PAW data can be deallocated... 

     total cpu time spent up to now is        4.0 secs

     Self-consistent Calculation

     iteration #  1     ecut=   100.00 Ry     beta= 0.30
     Davidson diagonalization with overlap
     ethr =  1.00E-02,  avg # of iterations =  3.0

     total cpu time spent up to now is       10.0 secs

     total energy              =    -899.57174227 Ry
     estimated scf accuracy    <       0.71677039 Ry

     iteration #  2     ecut=   100.00 Ry     beta= 0.30
     Davidson diagonalization with overlap
     ethr =  1.63E-03,  avg # of iterations =  2.0

     total cpu time spent up to now is       15.9 secs

     total energy              =    -899.68045018 Ry
     estimated scf accuracy    <       0.03930940 Ry

     iteration #  3     ecut=   100.00 Ry     beta= 0.30
     Davidson diagonalization with overlap
     ethr =  8.93E-05,  avg # of iterations =  3.4

     total cpu time spent up to now is       22.2 secs

     total energy              =    -899.68205363 Ry
     estimated scf accuracy    <       0.01337120 Ry

     iteration #  4     ecut=   100.00 Ry     beta= 0.30
     Davidson diagonalization with overlap
     ethr =  3.04E-05,  avg # of iterations =  1.5

     total cpu time spent up to now is       27.5 secs

     total energy              =    -899.68224758 Ry
     estimated scf accuracy    <       0.00250712 Ry

     iteration #  5     ecut=   100.00 Ry     beta= 0.30
     Davidson diagonalization with overlap
     ethr =  5.70E-06,  avg # of iterations =  2.5

     total cpu time spent up to now is       33.2 secs

     total energy              =    -899.68238090 Ry
     estimated scf accuracy    <       0.00003275 Ry

     iteration #  6     ecut=   100.00 Ry     beta= 0.30
     Davidson diagonalization with overlap
     ethr =  7.44E-08,  avg # of iterations =  2.5

     total cpu time spent up to now is       40.0 secs

     total energy              =    -899.68239058 Ry
     estimated scf accuracy    <       0.00001113 Ry

     iteration #  7     ecut=   100.00 Ry     beta= 0.30
     Davidson diagonalization with overlap
     ethr =  2.53E-08,  avg # of iterations =  2.0

     total cpu time spent up to now is       45.9 secs

     total energy              =    -899.68239276 Ry
     estimated scf accuracy    <       0.00000104 Ry

     iteration #  8     ecut=   100.00 Ry     beta= 0.30
     Davidson diagonalization with overlap
     ethr =  2.35E-09,  avg # of iterations =  2.0

     total cpu time spent up to now is       52.5 secs

     total energy              =    -899.68239308 Ry
     estimated scf accuracy    <       0.00000019 Ry

     iteration #  9     ecut=   100.00 Ry     beta= 0.30
     Davidson diagonalization with overlap
     ethr =  4.27E-10,  avg # of iterations =  2.0

     total cpu time spent up to now is       58.7 secs

     total energy              =    -899.68239311 Ry
     estimated scf accuracy    <       0.00000004 Ry

     iteration # 10     ecut=   100.00 Ry     beta= 0.30
     Davidson diagonalization with overlap
     ethr =  8.36E-11,  avg # of iterations =  1.2

     total cpu time spent up to now is       64.1 secs

     total energy              =    -899.68239311 Ry
     estimated scf accuracy    <       0.00000002 Ry

     iteration # 11     ecut=   100.00 Ry     beta= 0.30
     Davidson diagonalization with overlap
     ethr =  4.69E-11,  avg # of iterations =  2.0

     total cpu time spent up to now is       70.3 secs

     total energy              =    -899.68239311 Ry
     estimated scf accuracy    <          2.7E-09 Ry

     iteration # 12     ecut=   100.00 Ry     beta= 0.30
     Davidson diagonalization with overlap
     ethr =  6.25E-12,  avg # of iterations =  2.0

     total cpu time spent up to now is       76.7 secs

     total energy              =    -899.68239311 Ry
     estimated scf accuracy    <          3.2E-11 Ry

     iteration # 13     ecut=   100.00 Ry     beta= 0.30
     Davidson diagonalization with overlap
     ethr =  1.00E-13,  avg # of iterations =  3.9

     total cpu time spent up to now is       84.0 secs

     total energy              =    -899.68239311 Ry
     estimated scf accuracy    <          1.0E-12 Ry

     iteration # 14     ecut=   100.00 Ry     beta= 0.30
     Davidson diagonalization with overlap
     ethr =  1.00E-13,  avg # of iterations =  1.0

     total cpu time spent up to now is       89.1 secs

     End of self-consistent calculation

          k = 0.0000 0.0000 0.0000 (  9435 PWs)   bands (ev):

   -85.4138 -48.9538 -48.9538 -48.9538 -17.9165 -17.3830 -17.3830  -1.0104
    -1.0104  -1.0104   0.3013   1.4035   1.4035   1.4035   1.4306   1.4306
     1.4306   2.0714   2.0714   2.1977   2.1977   2.1977   5.5837  12.0798
    12.0798  12.0798

          k = 0.0000 0.0000 0.1250 (  9422 PWs)   bands (ev):

   -85.4138 -48.9538 -48.9538 -48.9538 -17.8987 -17.4004 -17.3826  -1.3531
    -0.9902  -0.9902   0.4629   1.3394   1.3706   1.3706   1.3815   1.3815
     1.7029   2.0915   2.1602   2.1990   2.2652   2.2652   5.7464  11.6354
    12.0952  12.0952

          k = 0.0000 0.0000 0.2500 (  9450 PWs)   bands (ev):

   -85.4138 -48.9539 -48.9538 -48.9538 -17.8491 -17.4489 -17.3814  -1.8688
    -0.9394  -0.9394   0.4943   1.1754   1.2701   1.2701   1.3084   1.3084
     2.1401   2.2020   2.3182   2.4020   2.4020   2.5347   6.1581  10.7554
    12.1468  12.1468

          k = 0.0000 0.0000 0.3750 (  9414 PWs)   bands (ev):

   -85.4138 -48.9540 -48.9538 -48.9538 -17.7824 -17.5144 -17.3803  -2.2262
    -0.8857  -0.8857   0.4285   1.0483   1.1936   1.1936   1.2298   1.2298
     2.1895   2.2050   2.4392   2.5176   2.5176   3.4339   6.5762  10.1330
    11.5324  12.2359

          k = 0.0000 0.0000-0.5000 (  9370 PWs)   bands (ev):

   -85.4138 -48.9540 -48.9538 -48.9538 -17.7420 -17.5544 -17.3799  -2.3506
    -0.8624  -0.8624   0.3953   1.0019   1.1729   1.1729   1.1892   1.1892
     2.2062   2.2102   2.4831   2.5615   2.5615   3.8540   6.7145  10.1760
    10.6932  12.2979

          k = 0.0000 0.1250 0.1250 (  9423 PWs)   bands (ev):

   -85.4138 -48.9538 -48.9538 -48.9538 -17.8813 -17.4079 -17.3914  -1.7105
    -0.9687  -0.8060   0.4825   1.2042   1.3252   1.3455   1.3678   1.4437
     1.9553   2.1452   2.1493   2.2519   2.2789   2.3443   5.8982  11.4197
    11.9296  12.1053

          k = 0.0000 0.1250 0.2500 (  9420 PWs)   bands (ev):

   -85.4138 -48.9539 -48.9538 -48.9538 -17.8329 -17.4511 -17.3939  -2.1880
    -0.9148  -0.6515   0.4535   1.0428   1.2236   1.2724   1.2945   1.4215
     2.1709   2.2645   2.2702   2.4035   2.4240   2.7495   6.2809  10.6557
    11.9398  12.1397

          k = 0.0000 0.1250 0.3750 (  9386 PWs)   bands (ev):

   -85.4138 -48.9540 -48.9538 -48.9538 -17.7677 -17.5143 -17.3933  -2.5206
    -0.8574  -0.5592   0.3904   0.9315   1.1464   1.1913   1.2148   1.3639
     2.2166   2.2675   2.3998   2.4982   2.5180   3.5965   6.6624  10.0594
    11.2411  12.0665

          k = 0.0000 0.1250-0.5000 (  9386 PWs)   bands (ev):

   -85.4138 -48.9540 -48.9538 -48.9537 -17.7276 -17.5536 -17.3929  -2.6373
    -0.8325  -0.5256   0.3605   0.8930   1.1232   1.1515   1.1838   1.3357
     2.2373   2.2686   2.4677   2.5039   2.5619   4.0072   6.7808  10.1584
    10.4025  12.2348

          k = 0.0000 0.2500 0.2500 (  9385 PWs)   bands (ev):

   -85.4138 -48.9539 -48.9539 -48.9537 -17.7880 -17.4672 -17.4190  -2.6540
    -0.8524  -0.2681   0.3659   0.9147   1.1252   1.1887   1.2729   1.5151
     2.2061   2.2875   2.3812   2.4213   2.4515   3.3279   6.5908  10.2043
    11.5040  11.8528

          k = 0.0000 0.2500 0.3750 (  9403 PWs)   bands (ev):

   -85.4138 -48.9540 -48.9539 -48.9537 -17.7265 -17.5151 -17.4289  -2.9796
    -0.7848  -0.0273   0.2837   0.8641   1.0464   1.0983   1.2020   1.5284
     2.2540   2.3533   2.4001   2.4467   2.5193   4.0681   6.8952   9.6868
    10.5487  11.9372

          k = 0.0000 0.2500-0.5000 (  9398 PWs)   bands (ev):

   -85.4138 -48.9540 -48.9539 -48.9537 -17.6869 -17.5517 -17.4303  -3.0938
    -0.7551   0.0534   0.2485   0.8641   1.0210   1.0554   1.1566   1.5225
     2.2999   2.3701   2.4016   2.4336   2.5627   4.4534   6.9777   9.7446
     9.8477  12.0918

          k = 0.0000 0.3750 0.3750 (  9418 PWs)   bands (ev):

   -85.4138 -48.9540 -48.9540 -48.9537 -17.6685 -17.5253 -17.4720  -3.3057
    -0.7047   0.1742   0.3793   0.8770   0.9633   0.9975   1.1427   1.6142
     2.2344   2.3722   2.4061   2.5102   2.5266   4.7147   7.1699   9.1510
     9.7091  12.0015

          k = 0.0000 0.3750-0.5000 (  9410 PWs)   bands (ev):

   -85.4138 -48.9540 -48.9540 -48.9537 -17.6267 -17.5498 -17.4872  -3.4206
    -0.6686   0.1307   0.5371   0.9152   0.9351   0.9501   1.0753   1.6369
     2.2408   2.3271   2.4336   2.5186   2.5635   5.0776   7.2749   9.0603
     9.1397  11.9602

          k = 0.0000-0.5000-0.5000 (  9476 PWs)   bands (ev):

   -85.4138 -48.9540 -48.9540 -48.9538 -17.5636 -17.5490 -17.5490  -3.5358
    -0.6294   0.0839   0.8067   0.9029   0.9029   0.9462   0.9462   1.6735
     2.1883   2.3171   2.4538   2.5639   2.5639   5.4381   7.4749   8.7150
     8.7150  11.9085

          k = 0.1250 0.1250 0.1250 (  9417 PWs)   bands (ev):

   -85.4138 -48.9538 -48.9538 -48.9538 -17.8644 -17.4075 -17.4075  -2.0034
    -0.7851  -0.7851   0.4659   1.1595   1.1595   1.3866   1.3866   1.4874
     2.1443   2.1443   2.1453   2.3315   2.3623   2.3623   6.0400  11.4559
    11.4559  12.2031

          k = 0.1250 0.1250 0.2500 (  9414 PWs)   bands (ev):

   -85.4138 -48.9539 -48.9538 -48.9538 -17.8174 -17.4524 -17.4063  -2.4476
    -0.7323  -0.5682   0.4192   0.9710   1.0880   1.3281   1.3529   1.4733
     2.1653   2.2410   2.2921   2.4075   2.4745   2.9311   6.3952  10.6225
    11.5581  12.1185

          k = 0.1250 0.1250 0.3750 (  9415 PWs)   bands (ev):

   -85.4138 -48.9540 -48.9538 -48.9538 -17.7538 -17.5141 -17.4052  -2.7648
    -0.6755  -0.4350   0.3663   0.8345   1.0525   1.2522   1.2668   1.4201
     2.1996   2.3346   2.3781   2.4587   2.5319   3.7465   6.7416  10.0141
    11.0495  11.6980

          k = 0.1250 0.1250-0.5000 (  9418 PWs)   bands (ev):

   -85.4138 -48.9540 -48.9538 -48.9538 -17.7141 -17.5529 -17.4048  -2.8769
    -0.6505  -0.3886   0.3424   0.7844   1.0614   1.1855   1.2416   1.3957
     2.2141   2.3505   2.4526   2.4798   2.5323   4.1500   6.8412  10.1767
    10.1793  11.7796

          k = 0.1250 0.2500 0.2500 (  9405 PWs)   bands (ev):

   -85.4138 -48.9539 -48.9539 -48.9538 -17.7742 -17.4667 -17.4311  -2.8726
    -0.6167  -0.2472   0.3496   0.8448   0.9684   1.2917   1.3709   1.5489
     2.2058   2.2295   2.3241   2.4766   2.4968   3.4752   6.6802  10.2544
    11.2000  11.4711

          k = 0.1250 0.2500 0.3750 (  9421 PWs)   bands (ev):

   -85.4138 -48.9540 -48.9539 -48.9538 -17.7148 -17.5148 -17.4383  -3.1822
    -0.5443   0.0015   0.2892   0.7438   0.9253   1.2267   1.3086   1.5571
     2.2352   2.3109   2.3826   2.4692   2.5240   4.1939   6.9512   9.7034
    10.4838  11.3718

          k = 0.1250 0.2500-0.5000 (  9416 PWs)   bands (ev):

   -85.4138 -48.9540 -48.9539 -48.9538 -17.6761 -17.5511 -17.4390  -3.2922
    -0.5137   0.0865   0.2631   0.7058   0.9385   1.1806   1.2685   1.5499
     2.2549   2.3625   2.4128   2.4539   2.5216   4.5751   7.0170   9.6342
     9.9291  11.4405

          k = 0.1250 0.3750 0.3750 (  9420 PWs)   bands (ev):

   -85.4138 -48.9540 -48.9540 -48.9538 -17.6599 -17.5248 -17.4780  -3.4915
    -0.4564   0.2003   0.3841   0.7130   0.8345   1.1901   1.2781   1.6374
     2.2330   2.3466   2.3569   2.4960   2.5279   4.8241   7.1875   9.1962
     9.6851  11.4173

          k = 0.1250 0.3750-0.5000 (  9398 PWs)   bands (ev):

   -85.4138 -48.9540 -48.9540 -48.9538 -17.6200 -17.5493 -17.4912  -3.6017
    -0.4185   0.1634   0.5244   0.6966   0.8307   1.1753   1.2337   1.6579
     2.2366   2.3137   2.3996   2.5120   2.5210   5.1843   7.2706   9.0444
     9.1984  11.4770

          k = 0.1250-0.5000-0.5000 (  9436 PWs)   bands (ev):

   -85.4138 -48.9540 -48.9540 -48.9538 -17.5610 -17.5486 -17.5486  -3.7124
    -0.3769   0.1219   0.6969   0.6969   0.8074   1.1808   1.1808   1.6920
     2.1845   2.3135   2.4330   2.5211   2.5211   5.5426   7.4292   8.7551
     8.7551  11.5221

          k = 0.2500 0.2500 0.2500 (  9390 PWs)   bands (ev):

   -85.4138 -48.9539 -48.9539 -48.9539 -17.7356 -17.4656 -17.4656  -3.2620
    -0.1920  -0.1920   0.3151   0.7691   0.7691   1.4001   1.4001   1.6271
     2.2041   2.2041   2.2840   2.5222   2.5222   3.9337   6.8971  10.3846
    10.3846  10.9611

          k = 0.2500 0.2500 0.3750 (  9427 PWs)   bands (ev):

   -85.4138 -48.9540 -48.9539 -48.9539 -17.6821 -17.5150 -17.4645  -3.5571
    -0.1269   0.1236   0.2883   0.6166   0.7620   1.3831   1.3931   1.6420
     2.2147   2.2859   2.2976   2.5032   2.5077   4.5848   7.0885   9.6289
    10.3392  10.5345

          k = 0.2500 0.2500-0.5000 (  9418 PWs)   bands (ev):

   -85.4138 -48.9540 -48.9539 -48.9539 -17.6457 -17.5496 -17.4640  -3.6633
    -0.0953   0.2258   0.2773   0.5564   0.7974   1.3342   1.3889   1.6331
     2.2250   2.3182   2.3803   2.4436   2.4891   4.9508   7.1218   9.3385
    10.0267  10.6058

          k = 0.2500 0.3750 0.3750 (  9449 PWs)   bands (ev):

   -85.4138 -48.9540 -48.9540 -48.9539 -17.6360 -17.5237 -17.4955  -3.8475
     0.0509   0.2613   0.3954   0.5584   0.6782   1.4168   1.4464   1.7041
     2.2269   2.2698   2.2817   2.4581   2.4938   5.1680   7.2185   9.3045
     9.6106  10.4667

          k = 0.2500 0.3750-0.5000 (  9434 PWs)   bands (ev):

   -85.4138 -48.9540 -48.9540 -48.9539 -17.6016 -17.5481 -17.5029  -3.9528
     0.0996   0.2433   0.4823   0.5158   0.7347   1.4154   1.4447   1.7157
     2.2201   2.2683   2.3457   2.4107   2.4686   5.5185   7.2494   9.0016
     9.3383  10.5127

          k = 0.2500-0.5000-0.5000 (  9476 PWs)   bands (ev):

   -85.4138 -48.9540 -48.9540 -48.9539 -17.5548 -17.5475 -17.5475  -4.0579
     0.1553   0.2174   0.5182   0.5182   0.8092   1.4438   1.4438   1.7417
     2.1701   2.3026   2.3780   2.4042   2.4042   5.8695   7.3139   8.8470
     8.8470  10.5892

          k = 0.3750 0.3750 0.3750 (  9432 PWs)   bands (ev):

   -85.4138 -48.9540 -48.9539 -48.9539 -17.6025 -17.5227 -17.5227  -4.1300
     0.3089   0.4069   0.4069   0.5719   0.5719   1.5661   1.5661   1.7709
     2.2019   2.2321   2.2321   2.4094   2.4094   5.7037   7.2260   9.4111
     9.4111   9.5768

          k = 0.3750 0.3750-0.5000 (  9450 PWs)   bands (ev):

   -85.4138 -48.9540 -48.9540 -48.9539 -17.5756 -17.5469 -17.5222  -4.2333
     0.3145   0.4119   0.4246   0.5343   0.7275   1.6051   1.6179   1.7823
     2.1821   2.2250   2.2893   2.3094   2.3830   6.0463   7.2119   8.9525
     9.4547   9.4924

          k = 0.3750-0.5000-0.5000 (  9412 PWs)   bands (ev):

   -85.4138 -48.9540 -48.9540 -48.9539 -17.5486 -17.5464 -17.5464  -4.3361
     0.3190   0.4030   0.4030   0.6263   0.8110   1.6895   1.6895   1.8018
     2.1446   2.2431   2.2431   2.2878   2.3125   6.3952   7.1914   8.9305
     8.9305   9.5313

          k =-0.5000-0.5000-0.5000 (  9448 PWs)   bands (ev):

   -85.4138 -48.9540 -48.9540 -48.9540 -17.5460 -17.5460 -17.5460  -4.4385
     0.3632   0.3632   0.3632   0.8117   0.8117   1.8317   1.8317   1.8317
     2.1285   2.1285   2.1285   2.2804   2.2804   6.7605   7.1384   8.9622
     8.9622   8.9622

     the Fermi energy is     5.9662 ev

!    total energy              =    -899.68239311 Ry
     total all-electron energy =    -15429.675195 Ry
     estimated scf accuracy    <          7.9E-13 Ry
     smearing contrib. (-TS)   =      -0.00005887 Ry
     internal energy E=F+TS    =    -899.68233425 Ry

     The total energy is F=E-TS. E is the sum of the following terms:
     one-electron contribution =    -257.50424787 Ry
     hartree contribution      =     149.77115761 Ry
     xc contribution           =     -83.99850999 Ry
     ewald contribution        =    -274.66659586 Ry
     one-center paw contrib.   =    -433.28413814 Ry

     convergence has been achieved in  14 iterations

     Writing all to output data dir ./tmp/AgGeF3.save/ :
     XML data file, charge density, pseudopotentials, collected wavefunctions

     init_run     :      4.06s CPU      3.63s WALL (       1 calls)
     electrons    :    112.40s CPU     85.14s WALL (       1 calls)

     Called by init_run:
     wfcinit      :      2.03s CPU      1.52s WALL (       1 calls)
     potinit      :      0.57s CPU      0.64s WALL (       1 calls)
     hinit0       :      0.87s CPU      0.89s WALL (       1 calls)

     Called by electrons:
     c_bands      :     78.71s CPU     57.86s WALL (      14 calls)
     sum_band     :     24.30s CPU     17.95s WALL (      14 calls)
     v_of_rho     :      3.06s CPU      3.15s WALL (      15 calls)
     newd         :      3.81s CPU      3.88s WALL (      15 calls)
     PAW_pot      :      1.98s CPU      2.00s WALL (      15 calls)
     mix_rho      :      0.62s CPU      0.46s WALL (      14 calls)

     Called by c_bands:
     init_us_2    :      2.31s CPU      1.68s WALL (     261 calls)
     cegterg      :     68.61s CPU     50.49s WALL (     126 calls)

     Called by *egterg:
     cdiaghg      :      1.28s CPU      0.91s WALL (     414 calls)
     h_psi        :     58.12s CPU     44.77s WALL (     423 calls)
     s_psi        :      1.76s CPU      0.94s WALL (     423 calls)
     g_psi        :      0.38s CPU      0.28s WALL (     288 calls)

     Called by h_psi:
     h_psi:calbec :      2.24s CPU      1.24s WALL (     423 calls)
     vloc_psi     :     53.74s CPU     42.32s WALL (     423 calls)
     add_vuspsi   :      1.81s CPU      0.96s WALL (     423 calls)

     General routines
     calbec       :      3.12s CPU      1.72s WALL (     549 calls)
     fft          :      2.16s CPU      2.14s WALL (     193 calls)
     ffts         :      0.24s CPU      0.23s WALL (      29 calls)
     fftw         :     54.89s CPU     42.41s WALL (   19296 calls)
     interpolate  :      0.39s CPU      0.41s WALL (      15 calls)

     Parallel routines

     PWSCF        :   1m56.97s CPU   1m29.31s WALL


   This run was terminated on:  15:30:45  13May2025            

=------------------------------------------------------------------------------=
   JOB DONE.
=------------------------------------------------------------------------------=
