
     Program PWSCF v.7.3.1 starts on 14May2025 at 14:49:44 

     This program is part of the open-source Quantum ESPRESSO suite
     for quantum simulation of materials; please cite
         "P. Giannozzi et al., J. Phys.:Condens. Matter 21 395502 (2009);
         "P. Giannozzi et al., J. Phys.:Condens. Matter 29 465901 (2017);
         "P. Giannozzi et al., J. Chem. Phys. 152 154105 (2020);
          URL http://www.quantum-espresso.org", 
     in publications or presentations arising from this work. More details at
     http://www.quantum-espresso.org/quote

     Parallel version (MPI), running on     8 processors

     MPI processes distributed on     1 nodes
     58499 MiB available memory on the printing compute node when the environment starts

     Waiting for input...
     Reading input from standard input

     Current dimensions of program PWSCF are:
     Max number of different atomic species (ntypx) = 10
     Max number of k-points (npk) = 120000
     Max angular momentum in pseudopotentials (lmaxx) =  4
     file Cs.pbe-spn-rrkjus_psl.1.0.0.UPF: wavefunction(s)  5S 6S renormalized
     file Hg.pbe-n-rrkjus_psl.1.0.0.UPF: wavefunction(s)  6S renormalized
     file I.pbe-n-kjpaw_psl.1.0.0.UPF: wavefunction(s)  5S renormalized

     IMPORTANT: XC functional enforced from input :
     Exchange-correlation= PBE
                           (   1   4   3   4   0   0   0)
     Any further DFT definition will be discarded
     Please, verify this is what you really want

     Message from routine setup:
     using ibrav=0 with symmetry is DISCOURAGED, use correct ibrav instead

     K-points division:     npool     =       4
     R & G space division:  proc/nbgrp/npool/nimage =       2
     Subspace diagonalization in iterative solution of the eigenvalue problem:
     a serial algorithm will be used


     Parallelization info
     --------------------
     sticks:   dense  smooth     PW     G-vecs:    dense   smooth      PW
     Min        4206    2098    576               290489   102724   14710
     Max        4207    2099    577               290490   102729   14713
     Sum        8413    4197   1153               580979   205453   29423

     Using Slab Decomposition



     bravais-lattice index     =            0
     lattice parameter (alat)  =      11.4961  a.u.
     unit-cell volume          =    1519.3344 (a.u.)^3
     number of atoms/cell      =            5
     number of atomic types    =            3
     number of electrons       =        42.00
     number of Kohn-Sham states=           25
     kinetic-energy cutoff     =     100.0000  Ry
     charge density cutoff     =     800.0000  Ry
     scf convergence threshold =      1.0E-12
     mixing beta               =       0.3000
     number of iterations used =            8  plain     mixing
     Exchange-correlation= PBE
                           (   1   4   3   4   0   0   0)

     celldm(1)=  11.496116  celldm(2)=   0.000000  celldm(3)=   0.000000
     celldm(4)=   0.000000  celldm(5)=   0.000000  celldm(6)=   0.000000

     crystal axes: (cart. coord. in units of alat)
               a(1) = (   1.000000   0.000000   0.000000 )  
               a(2) = (   0.000000   1.000000   0.000000 )  
               a(3) = (   0.000000   0.000000   1.000000 )  

     reciprocal axes: (cart. coord. in units 2 pi/alat)
               b(1) = (  1.000000  0.000000  0.000000 )  
               b(2) = (  0.000000  1.000000  0.000000 )  
               b(3) = (  0.000000  0.000000  1.000000 )  


     PseudoPot. # 1 for Cs read from file:
     /home/administrator/Downloads/BURAI/BURAI1.3/pseudopot/Cs.pbe-spn-rrkjus_psl.1.0.0.UPF
     MD5 check sum: 0e4a2db85f86c9a13762b1b689b65a6d
     Pseudo is Ultrasoft + core correction, Zval =  9.0
     Generated using "atomic" code by A. Dal Corso  v.5.1.2
     Using radial grid of 1251 points,  9 beta functions with: 
                l(1) =   0
                l(2) =   0
                l(3) =   0
                l(4) =   1
                l(5) =   1
                l(6) =   2
                l(7) =   2
                l(8) =   3
                l(9) =   3
     Q(r) pseudized with 0 coefficients 


     PseudoPot. # 2 for Hg read from file:
     /home/administrator/Downloads/BURAI/BURAI1.3/pseudopot/Hg.pbe-n-rrkjus_psl.1.0.0.UPF
     MD5 check sum: f04d2c262d1abdd3305243a1878853ce
     Pseudo is Ultrasoft + core correction, Zval = 12.0
     Generated using "atomic" code by A. Dal Corso  v.5.1.2
     Using radial grid of 1279 points,  6 beta functions with: 
                l(1) =   0
                l(2) =   0
                l(3) =   1
                l(4) =   1
                l(5) =   2
                l(6) =   2
     Q(r) pseudized with 0 coefficients 


     PseudoPot. # 3 for I  read from file:
     /home/administrator/Downloads/BURAI/BURAI1.3/pseudopot/I.pbe-n-kjpaw_psl.1.0.0.UPF
     MD5 check sum: e1b2a55c91904a364f23c37cb15bc296
     Pseudo is Projector augmented-wave + core cor, Zval =  7.0
     Generated using "atomic" code by A. Dal Corso  v.5.1.2
     Shape of augmentation charge: PSQ
     Using radial grid of 1247 points,  6 beta functions with: 
                l(1) =   0
                l(2) =   0
                l(3) =   1
                l(4) =   1
                l(5) =   2
                l(6) =   2
     Q(r) pseudized with 0 coefficients 


     atomic species   valence    mass     pseudopotential
     Cs                9.00   132.90550     Cs( 1.00)
     Hg               12.00   200.59200     Hg( 1.00)
     I                 7.00   126.90450     I ( 1.00)

     48 Sym. Ops., with inversion, found



   Cartesian axes

     site n.     atom                  positions (alat units)
         1        Cs     tau(   1) = (   0.0000000   0.0000000   0.0000000  )
         2        Hg     tau(   2) = (   0.5000000   0.5000000   0.5000000  )
         3        I      tau(   3) = (   0.5000000   0.5000000   0.0000000  )
         4        I      tau(   4) = (   0.5000000   0.0000000   0.5000000  )
         5        I      tau(   5) = (   0.0000000   0.5000000   0.5000000  )

     number of k points=    84  Gaussian smearing, width (Ry)=  0.0050
                       cart. coord. in units 2pi/alat
        k(    1) = (   0.0000000   0.0000000   0.0000000), wk =   0.0011574
        k(    2) = (   0.0000000   0.0000000   0.0833333), wk =   0.0069444
        k(    3) = (   0.0000000   0.0000000   0.1666667), wk =   0.0069444
        k(    4) = (   0.0000000   0.0000000   0.2500000), wk =   0.0069444
        k(    5) = (   0.0000000   0.0000000   0.3333333), wk =   0.0069444
        k(    6) = (   0.0000000   0.0000000   0.4166667), wk =   0.0069444
        k(    7) = (   0.0000000   0.0000000  -0.5000000), wk =   0.0034722
        k(    8) = (   0.0000000   0.0833333   0.0833333), wk =   0.0138889
        k(    9) = (   0.0000000   0.0833333   0.1666667), wk =   0.0277778
        k(   10) = (   0.0000000   0.0833333   0.2500000), wk =   0.0277778
        k(   11) = (   0.0000000   0.0833333   0.3333333), wk =   0.0277778
        k(   12) = (   0.0000000   0.0833333   0.4166667), wk =   0.0277778
        k(   13) = (   0.0000000   0.0833333  -0.5000000), wk =   0.0138889
        k(   14) = (   0.0000000   0.1666667   0.1666667), wk =   0.0138889
        k(   15) = (   0.0000000   0.1666667   0.2500000), wk =   0.0277778
        k(   16) = (   0.0000000   0.1666667   0.3333333), wk =   0.0277778
        k(   17) = (   0.0000000   0.1666667   0.4166667), wk =   0.0277778
        k(   18) = (   0.0000000   0.1666667  -0.5000000), wk =   0.0138889
        k(   19) = (   0.0000000   0.2500000   0.2500000), wk =   0.0138889
        k(   20) = (   0.0000000   0.2500000   0.3333333), wk =   0.0277778
        k(   21) = (   0.0000000   0.2500000   0.4166667), wk =   0.0277778
        k(   22) = (   0.0000000   0.2500000  -0.5000000), wk =   0.0138889
        k(   23) = (   0.0000000   0.3333333   0.3333333), wk =   0.0138889
        k(   24) = (   0.0000000   0.3333333   0.4166667), wk =   0.0277778
        k(   25) = (   0.0000000   0.3333333  -0.5000000), wk =   0.0138889
        k(   26) = (   0.0000000   0.4166667   0.4166667), wk =   0.0138889
        k(   27) = (   0.0000000   0.4166667  -0.5000000), wk =   0.0138889
        k(   28) = (   0.0000000  -0.5000000  -0.5000000), wk =   0.0034722
        k(   29) = (   0.0833333   0.0833333   0.0833333), wk =   0.0092593
        k(   30) = (   0.0833333   0.0833333   0.1666667), wk =   0.0277778
        k(   31) = (   0.0833333   0.0833333   0.2500000), wk =   0.0277778
        k(   32) = (   0.0833333   0.0833333   0.3333333), wk =   0.0277778
        k(   33) = (   0.0833333   0.0833333   0.4166667), wk =   0.0277778
        k(   34) = (   0.0833333   0.0833333  -0.5000000), wk =   0.0138889
        k(   35) = (   0.0833333   0.1666667   0.1666667), wk =   0.0277778
        k(   36) = (   0.0833333   0.1666667   0.2500000), wk =   0.0555556
        k(   37) = (   0.0833333   0.1666667   0.3333333), wk =   0.0555556
        k(   38) = (   0.0833333   0.1666667   0.4166667), wk =   0.0555556
        k(   39) = (   0.0833333   0.1666667  -0.5000000), wk =   0.0277778
        k(   40) = (   0.0833333   0.2500000   0.2500000), wk =   0.0277778
        k(   41) = (   0.0833333   0.2500000   0.3333333), wk =   0.0555556
        k(   42) = (   0.0833333   0.2500000   0.4166667), wk =   0.0555556
        k(   43) = (   0.0833333   0.2500000  -0.5000000), wk =   0.0277778
        k(   44) = (   0.0833333   0.3333333   0.3333333), wk =   0.0277778
        k(   45) = (   0.0833333   0.3333333   0.4166667), wk =   0.0555556
        k(   46) = (   0.0833333   0.3333333  -0.5000000), wk =   0.0277778
        k(   47) = (   0.0833333   0.4166667   0.4166667), wk =   0.0277778
        k(   48) = (   0.0833333   0.4166667  -0.5000000), wk =   0.0277778
        k(   49) = (   0.0833333  -0.5000000  -0.5000000), wk =   0.0069444
        k(   50) = (   0.1666667   0.1666667   0.1666667), wk =   0.0092593
        k(   51) = (   0.1666667   0.1666667   0.2500000), wk =   0.0277778
        k(   52) = (   0.1666667   0.1666667   0.3333333), wk =   0.0277778
        k(   53) = (   0.1666667   0.1666667   0.4166667), wk =   0.0277778
        k(   54) = (   0.1666667   0.1666667  -0.5000000), wk =   0.0138889
        k(   55) = (   0.1666667   0.2500000   0.2500000), wk =   0.0277778
        k(   56) = (   0.1666667   0.2500000   0.3333333), wk =   0.0555556
        k(   57) = (   0.1666667   0.2500000   0.4166667), wk =   0.0555556
        k(   58) = (   0.1666667   0.2500000  -0.5000000), wk =   0.0277778
        k(   59) = (   0.1666667   0.3333333   0.3333333), wk =   0.0277778
        k(   60) = (   0.1666667   0.3333333   0.4166667), wk =   0.0555556
        k(   61) = (   0.1666667   0.3333333  -0.5000000), wk =   0.0277778
        k(   62) = (   0.1666667   0.4166667   0.4166667), wk =   0.0277778
        k(   63) = (   0.1666667   0.4166667  -0.5000000), wk =   0.0277778
        k(   64) = (   0.1666667  -0.5000000  -0.5000000), wk =   0.0069444
        k(   65) = (   0.2500000   0.2500000   0.2500000), wk =   0.0092593
        k(   66) = (   0.2500000   0.2500000   0.3333333), wk =   0.0277778
        k(   67) = (   0.2500000   0.2500000   0.4166667), wk =   0.0277778
        k(   68) = (   0.2500000   0.2500000  -0.5000000), wk =   0.0138889
        k(   69) = (   0.2500000   0.3333333   0.3333333), wk =   0.0277778
        k(   70) = (   0.2500000   0.3333333   0.4166667), wk =   0.0555556
        k(   71) = (   0.2500000   0.3333333  -0.5000000), wk =   0.0277778
        k(   72) = (   0.2500000   0.4166667   0.4166667), wk =   0.0277778
        k(   73) = (   0.2500000   0.4166667  -0.5000000), wk =   0.0277778
        k(   74) = (   0.2500000  -0.5000000  -0.5000000), wk =   0.0069444
        k(   75) = (   0.3333333   0.3333333   0.3333333), wk =   0.0092593
        k(   76) = (   0.3333333   0.3333333   0.4166667), wk =   0.0277778
        k(   77) = (   0.3333333   0.3333333  -0.5000000), wk =   0.0138889
        k(   78) = (   0.3333333   0.4166667   0.4166667), wk =   0.0277778
        k(   79) = (   0.3333333   0.4166667  -0.5000000), wk =   0.0277778
        k(   80) = (   0.3333333  -0.5000000  -0.5000000), wk =   0.0069444
        k(   81) = (   0.4166667   0.4166667   0.4166667), wk =   0.0092593
        k(   82) = (   0.4166667   0.4166667  -0.5000000), wk =   0.0138889
        k(   83) = (   0.4166667  -0.5000000  -0.5000000), wk =   0.0069444
        k(   84) = (  -0.5000000  -0.5000000  -0.5000000), wk =   0.0011574

     Dense  grid:   580979 G-vectors     FFT dimensions: ( 108, 108, 108)

     Smooth grid:   205453 G-vectors     FFT dimensions: (  75,  75,  75)

     Estimated max dynamical RAM per process >     987.19 MB

     Estimated total dynamical RAM >       7.30 GB

     Initial potential from superposition of free atoms

     starting charge      41.9590, renormalised to      42.0000
     Starting wfcs are   26 randomized atomic wfcs
     Checking if some PAW data can be deallocated... 

     total cpu time spent up to now is       21.1 secs

     Self-consistent Calculation

     iteration #  1     ecut=   100.00 Ry     beta= 0.30
     Davidson diagonalization with overlap
     ethr =  1.00E-02,  avg # of iterations =  6.7

     Threshold (ethr) on eigenvalues was too large:
     Diagonalizing with lowered threshold

     Davidson diagonalization with overlap
     c_bands:  1 eigenvalues not converged
     ethr =  4.01E-04,  avg # of iterations =  7.4

     total cpu time spent up to now is      129.8 secs

     total energy              =   -1291.07285469 Ry
     estimated scf accuracy    <       0.16018406 Ry

     iteration #  2     ecut=   100.00 Ry     beta= 0.30
     Davidson diagonalization with overlap
     ethr =  3.81E-04,  avg # of iterations =  2.4

     total cpu time spent up to now is      176.8 secs

     total energy              =   -1291.08428308 Ry
     estimated scf accuracy    <       0.02026878 Ry

     iteration #  3     ecut=   100.00 Ry     beta= 0.30
     Davidson diagonalization with overlap
     c_bands:  1 eigenvalues not converged
     c_bands:  1 eigenvalues not converged
     ethr =  4.83E-05,  avg # of iterations = 10.6

     total cpu time spent up to now is      251.6 secs

     total energy              =   -1291.09287143 Ry
     estimated scf accuracy    <       0.00243385 Ry

     iteration #  4     ecut=   100.00 Ry     beta= 0.30
     Davidson diagonalization with overlap
     c_bands:  2 eigenvalues not converged
     c_bands:  1 eigenvalues not converged
     c_bands:  1 eigenvalues not converged
     c_bands:  1 eigenvalues not converged
     c_bands:  1 eigenvalues not converged
     ethr =  5.79E-06,  avg # of iterations = 12.7

     total cpu time spent up to now is      340.3 secs

     total energy              =   -1291.09532348 Ry
     estimated scf accuracy    <       0.00027386 Ry

     iteration #  5     ecut=   100.00 Ry     beta= 0.30
     Davidson diagonalization with overlap
     c_bands:  1 eigenvalues not converged
     ethr =  6.52E-07,  avg # of iterations = 10.6

     total cpu time spent up to now is      420.9 secs

     total energy              =   -1291.09559647 Ry
     estimated scf accuracy    <       0.00005745 Ry

     iteration #  6     ecut=   100.00 Ry     beta= 0.30
     Davidson diagonalization with overlap
     c_bands:  1 eigenvalues not converged
     ethr =  1.37E-07,  avg # of iterations =  6.9

     total cpu time spent up to now is      486.5 secs

     total energy              =   -1291.09562656 Ry
     estimated scf accuracy    <       0.00000234 Ry

     iteration #  7     ecut=   100.00 Ry     beta= 0.30
     Davidson diagonalization with overlap
     ethr =  5.56E-09,  avg # of iterations = 11.6

     total cpu time spent up to now is      586.9 secs

     total energy              =   -1291.09563402 Ry
     estimated scf accuracy    <       0.00000066 Ry

     iteration #  8     ecut=   100.00 Ry     beta= 0.30
     Davidson diagonalization with overlap
     ethr =  1.58E-09,  avg # of iterations =  5.3

     total cpu time spent up to now is      647.5 secs

     total energy              =   -1291.09563516 Ry
     estimated scf accuracy    <       0.00000013 Ry

     iteration #  9     ecut=   100.00 Ry     beta= 0.30
     Davidson diagonalization with overlap
     ethr =  3.20E-10,  avg # of iterations =  6.3

     total cpu time spent up to now is      712.8 secs

     total energy              =   -1291.09563563 Ry
     estimated scf accuracy    <       0.00000006 Ry

     iteration # 10     ecut=   100.00 Ry     beta= 0.30
     Davidson diagonalization with overlap
     ethr =  1.44E-10,  avg # of iterations =  3.8

     total cpu time spent up to now is      768.5 secs

     total energy              =   -1291.09563586 Ry
     estimated scf accuracy    <          2.2E-09 Ry

     iteration # 11     ecut=   100.00 Ry     beta= 0.30
     Davidson diagonalization with overlap
     ethr =  5.33E-12,  avg # of iterations = 11.9

     total cpu time spent up to now is      881.6 secs

     total energy              =   -1291.09563597 Ry
     estimated scf accuracy    <          1.3E-09 Ry

     iteration # 12     ecut=   100.00 Ry     beta= 0.30
     Davidson diagonalization with overlap
     ethr =  3.14E-12,  avg # of iterations =  1.9

     total cpu time spent up to now is      924.9 secs

     total energy              =   -1291.09563602 Ry
     estimated scf accuracy    <          3.9E-10 Ry

     iteration # 13     ecut=   100.00 Ry     beta= 0.30
     Davidson diagonalization with overlap
     ethr =  9.23E-13,  avg # of iterations =  8.2

     total cpu time spent up to now is     1008.1 secs

     total energy              =   -1291.09563605 Ry
     estimated scf accuracy    <          3.9E-09 Ry

     iteration # 14     ecut=   100.00 Ry     beta= 0.30
     Davidson diagonalization with overlap
     ethr =  9.23E-13,  avg # of iterations =  4.2

     total cpu time spent up to now is     1068.4 secs

     total energy              =   -1291.09563606 Ry
     estimated scf accuracy    <          1.4E-11 Ry

     iteration # 15     ecut=   100.00 Ry     beta= 0.30
     Davidson diagonalization with overlap
     ethr =  1.00E-13,  avg # of iterations = 10.5

     total cpu time spent up to now is     1159.2 secs

     total energy              =   -1291.09563607 Ry
     estimated scf accuracy    <          5.8E-11 Ry

     iteration # 16     ecut=   100.00 Ry     beta= 0.30
     Davidson diagonalization with overlap
     ethr =  1.00E-13,  avg # of iterations =  3.2

     total cpu time spent up to now is     1213.7 secs

     total energy              =   -1291.09563607 Ry
     estimated scf accuracy    <          5.1E-11 Ry

     iteration # 17     ecut=   100.00 Ry     beta= 0.30
     Davidson diagonalization with overlap
     ethr =  1.00E-13,  avg # of iterations =  2.5

     total cpu time spent up to now is     1261.9 secs

     total energy              =   -1291.09563607 Ry
     estimated scf accuracy    <          4.9E-12 Ry

     iteration # 18     ecut=   100.00 Ry     beta= 0.30
     Davidson diagonalization with overlap
     ethr =  1.00E-13,  avg # of iterations =  1.3

     total cpu time spent up to now is     1302.6 secs

     End of self-consistent calculation

          k = 0.0000 0.0000 0.0000 ( 25677 PWs)   bands (ev):

   -17.5785  -8.6960  -8.1631  -8.1631  -4.3809  -4.3809  -4.3809  -2.8091
    -2.8091  -2.8091  -2.6471  -2.6471   0.3722   0.3722   0.3722   1.2847
     2.2525   2.2525   2.2525   2.5336   2.5336   2.5336   6.9271   7.7160
     7.7160

          k = 0.0000 0.0000 0.0833 ( 25633 PWs)   bands (ev):

   -17.5785  -8.6873  -8.1666  -8.1628  -4.3804  -4.3804  -4.3792  -2.8109
    -2.8109  -2.8091  -2.6885  -2.6471   0.2623   0.3817   0.3817   1.4123
     2.2389   2.2448   2.2448   2.5217   2.5217   2.6068   7.0058   7.7600
     7.7813

          k = 0.0000 0.0000 0.1667 ( 25637 PWs)   bands (ev):

   -17.5784  -8.6627  -8.1768  -8.1621  -4.3789  -4.3789  -4.3746  -2.8158
    -2.8158  -2.8091  -2.7997  -2.6470   0.0749   0.4081   0.4081   1.5843
     2.2025   2.2233   2.2233   2.4895   2.4895   2.8869   7.2296   7.8879
     7.9683

          k = 0.0000 0.0000 0.2500 ( 25665 PWs)   bands (ev):

   -17.5782  -8.6269  -8.1927  -8.1612  -4.3768  -4.3768  -4.3683  -2.9466
    -2.8225  -2.8225  -2.8090  -2.6469  -0.0753   0.4453   0.4453   1.6347
     2.1545   2.1932   2.1932   2.4460   2.4460   3.3986   7.5637   8.0846
     8.2494

          k = 0.0000 0.0000 0.3333 ( 25624 PWs)   bands (ev):

   -17.5781  -8.5875  -8.2116  -8.1603  -4.3748  -4.3748  -4.3620  -3.0881
    -2.8291  -2.8291  -2.8089  -2.6468  -0.1719   0.4839   0.4839   1.6116
     2.1081   2.1617   2.1617   2.4030   2.4030   4.0218   7.9448   8.3112
     8.5749

          k = 0.0000 0.0000 0.4167 ( 25692 PWs)   bands (ev):

   -17.5780  -8.5554  -8.2283  -8.1596  -4.3732  -4.3732  -4.3574  -3.1883
    -2.8339  -2.8339  -2.8088  -2.6467  -0.2236   0.5133   0.5133   1.5776
     2.0752   2.1377   2.1377   2.3721   2.3721   4.5845   8.1806   8.5213
     8.8564

          k = 0.0000 0.0000-0.5000 ( 25628 PWs)   bands (ev):

   -17.5779  -8.5427  -8.2353  -8.1593  -4.3727  -4.3727  -4.3557  -3.2243
    -2.8356  -2.8356  -2.8088  -2.6467  -0.2396   0.5243   0.5243   1.5633
     2.0634   2.1287   2.1287   2.3608   2.3608   4.8327   8.1297   8.6682
     8.9747

          k = 0.0000 0.0833 0.0833 ( 25638 PWs)   bands (ev):

   -17.5785  -8.6786  -8.1681  -8.1645  -4.3807  -4.3798  -4.3769  -2.8128
    -2.8111  -2.8108  -2.7073  -2.6685   0.0840   0.3915   0.5085   1.4844
     2.1977   2.2372   2.2641   2.5094   2.5524   2.6484   7.0808   7.8147
     7.8289

          k = 0.0000 0.0833 0.1667 ( 25642 PWs)   bands (ev):

   -17.5784  -8.6539  -8.1774  -8.1645  -4.3798  -4.3783  -4.3724  -2.8179
    -2.8159  -2.8109  -2.8074  -2.6767  -0.1246   0.4187   0.6144   1.5912
     2.1395   2.2162   2.2673   2.4760   2.5384   2.9246   7.2946   7.9418
     7.9987

          k = 0.0000 0.0833 0.2500 ( 25664 PWs)   bands (ev):

   -17.5782  -8.6179  -8.1930  -8.1636  -4.3778  -4.3762  -4.3671  -2.9507
    -2.8246  -2.8226  -2.8109  -2.6779  -0.2798   0.4570   0.6873   1.6176
     2.0779   2.1866   2.2620   2.4307   2.4951   3.4318   7.6161   8.1334
     8.2648

          k = 0.0000 0.0833 0.3333 ( 25659 PWs)   bands (ev):

   -17.5781  -8.5783  -8.2117  -8.1627  -4.3755  -4.3742  -4.3621  -3.0903
    -2.8314  -2.8292  -2.8108  -2.6782  -0.3780   0.4969   0.7428   1.5894
     2.0234   2.1557   2.2576   2.3859   2.4432   4.0489   7.9882   8.3573
     8.5815

          k = 0.0000 0.0833 0.4167 ( 25670 PWs)   bands (ev):

   -17.5779  -8.5460  -8.2284  -8.1619  -4.3737  -4.3727  -4.3585  -3.1896
    -2.8363  -2.8340  -2.8108  -2.6782  -0.4303   0.5273   0.7802   1.5550
     1.9859   2.1319   2.2587   2.3537   2.3980   4.6090   8.2276   8.5569
     8.8642

          k = 0.0000 0.0833-0.5000 ( 25668 PWs)   bands (ev):

   -17.5779  -8.5331  -8.2354  -8.1617  -4.3730  -4.3721  -4.3573  -3.2254
    -2.8381  -2.8358  -2.8108  -2.6783  -0.4465   0.5387   0.7937   1.5408
     1.9725   2.1229   2.2613   2.3420   2.3788   4.8570   8.1642   8.7061
     8.9279

          k = 0.0000 0.1667 0.1667 ( 25684 PWs)   bands (ev):

   -17.5782  -8.6290  -8.1819  -8.1688  -4.3802  -4.3768  -4.3687  -2.8536
    -2.8232  -2.8163  -2.8155  -2.7331  -0.3734   0.4481   0.8700   1.5944
     2.0665   2.1965   2.2954   2.4390   2.6164   3.1209   7.4816   8.0942
     8.1000

          k = 0.0000 0.1667 0.2500 ( 25683 PWs)   bands (ev):

   -17.5781  -8.5925  -8.1945  -8.1701  -4.3792  -4.3747  -4.3652  -2.9685
    -2.8305  -2.8228  -2.8160  -2.7571  -0.5553   0.4897   1.0502   1.5712
     2.0032   2.1687   2.3159   2.3886   2.6213   3.5631   7.7673   8.2648
     8.3412

          k = 0.0000 0.1667 0.3333 ( 25670 PWs)   bands (ev):

   -17.5779  -8.5522  -8.2122  -8.1698  -4.3770  -4.3726  -4.3628  -3.0985
    -2.8377  -2.8295  -2.8161  -2.7638  -0.6697   0.5334   1.1644   1.5295
     1.9549   2.1393   2.3385   2.3431   2.5766   4.1445   8.1107   8.4831
     8.6302

          k = 0.0000 0.1667 0.4167 ( 25670 PWs)   bands (ev):

   -17.5778  -8.5190  -8.2287  -8.1693  -4.3748  -4.3711  -4.3617  -3.1944
    -2.8429  -2.8344  -2.8162  -2.7661  -0.7305   0.5669   1.2302   1.4919
     1.9245   2.1162   2.3023   2.3849   2.5115   4.6906   8.3525   8.6465
     8.8202

          k = 0.0000 0.1667-0.5000 ( 25672 PWs)   bands (ev):

   -17.5778  -8.5058  -8.2358  -8.1691  -4.3739  -4.3705  -4.3614  -3.2293
    -2.8448  -2.8362  -2.8162  -2.7667  -0.7494   0.5795   1.2524   1.4768
     1.9141   2.1073   2.2892   2.4374   2.4492   4.9369   8.2285   8.8069
     8.8395

          k = 0.0000 0.2500 0.2500 ( 25736 PWs)   bands (ev):

   -17.5780  -8.5552  -8.2005  -8.1774  -4.3794  -4.3726  -4.3642  -3.0228
    -2.8415  -2.8341  -2.8235  -2.8225  -0.7604   0.5365   1.3394   1.5098
     1.9512   2.1434   2.3304   2.3649   2.7274   3.8697   8.0005   8.4267
     8.5417

          k = 0.0000 0.2500 0.3333 ( 25649 PWs)   bands (ev):

   -17.5778  -8.5136  -8.2138  -8.1810  -4.3783  -4.3705  -4.3645  -3.1200
    -2.8748  -2.8459  -2.8299  -2.8232  -0.8901   0.5861   1.4486   1.5210
     1.9204   2.1166   2.2716   2.4314   2.7474   4.3524   8.2904   8.6340
     8.7964

          k = 0.0000 0.2500 0.4167 ( 25666 PWs)   bands (ev):

   -17.5777  -8.4789  -8.2291  -8.1820  -4.3762  -4.3689  -4.3659  -3.2054
    -2.8866  -2.8518  -2.8349  -2.8234  -0.9593   0.6244   1.4076   1.6078
     1.9061   2.0949   2.2289   2.5186   2.6993   4.8558   8.4569   8.6680
     8.8633

          k = 0.0000 0.2500-0.5000 ( 25630 PWs)   bands (ev):

   -17.5777  -8.4648  -8.2362  -8.1822  -4.3750  -4.3683  -4.3669  -3.2380
    -2.8895  -2.8540  -2.8368  -2.8235  -0.9809   0.6390   1.3927   1.6326
     1.9024   2.0863   2.2136   2.6090   2.6205   5.0940   8.2006   8.9000
     8.9359

          k = 0.0000 0.3333 0.3333 ( 25642 PWs)   bands (ev):

   -17.5777  -8.4701  -8.2189  -8.1932  -4.3784  -4.3683  -4.3672  -3.1681
    -2.9603  -2.8546  -2.8307  -2.8300  -1.0303   0.6425   1.3808   1.7272
     1.9079   2.0930   2.2024   2.5536   2.8699   4.7100   8.5054   8.7664
     8.9871

          k = 0.0000 0.3333 0.4167 ( 25652 PWs)   bands (ev):

   -17.5776  -8.4328  -8.2299  -8.1999  -4.3773  -4.3703  -4.3667  -3.2286
    -2.9978  -2.8609  -2.8355  -2.8306  -1.1052   0.6869   1.3334   1.8137
     1.9089   2.0738   2.1511   2.6837   2.9035   5.1372   8.3702   8.7492
     8.8957

          k = 0.0000 0.3333-0.5000 ( 25690 PWs)   bands (ev):

   -17.5775  -8.4171  -8.2367  -8.2015  -4.3761  -4.3722  -4.3661  -3.2554
    -3.0069  -2.8632  -2.8374  -2.8308  -1.1285   0.7039   1.3168   1.8339
     1.9122   2.0655   2.1328   2.7541   2.8886   5.3570   8.0770   8.8699
     9.0296

          k = 0.0000 0.4167 0.4167 ( 25676 PWs)   bands (ev):

   -17.5775  -8.3915  -8.2323  -8.2182  -4.3775  -4.3739  -4.3651  -3.2634
    -3.0621  -2.8676  -2.8360  -2.8358  -1.1832   0.7366   1.2835   1.8937
     1.9179   2.0577   2.0911   2.8078   3.0606   5.4986   8.2393   8.3051
     8.8860

          k = 0.0000 0.4167-0.5000 ( 25706 PWs)   bands (ev):

   -17.5774  -8.3731  -8.2371  -8.2243  -4.3769  -4.3759  -4.3645  -3.2817
    -3.0800  -2.8700  -2.8378  -2.8360  -1.2075   0.7559   1.2661   1.9108
     1.9248   2.0505   2.0694   2.8521   3.1161   5.7006   7.9675   8.2370
     8.9961

          k = 0.0000-0.5000-0.5000 ( 25708 PWs)   bands (ev):

   -17.5774  -8.3524  -8.2372  -8.2372  -4.3772  -4.3772  -4.3639  -3.2964
    -3.1018  -2.8724  -2.8379  -2.8379  -1.2321   0.7761   1.2485   1.9301
     1.9301   2.0450   2.0450   2.8869   3.1995   5.9002   7.9263   7.9263
     8.9711

          k = 0.0833 0.0833 0.0833 ( 25638 PWs)   bands (ev):

   -17.5784  -8.6698  -8.1678  -8.1678  -4.3804  -4.3804  -4.3745  -2.8129
    -2.8129  -2.8126  -2.7073  -2.7073  -0.0710   0.5186   0.5186   1.5276
     2.1888   2.1888   2.2905   2.5443   2.5443   2.6913   7.1517   7.8691
     7.8691

          k = 0.0833 0.0833 0.1667 ( 25651 PWs)   bands (ev):

   -17.5783  -8.6451  -8.1777  -8.1671  -4.3797  -4.3794  -4.3700  -2.8181
    -2.8178  -2.8130  -2.8123  -2.7073  -0.2835   0.5467   0.6675   1.5922
     2.1144   2.1718   2.3064   2.5207   2.5376   2.9617   7.3547   7.9878
     8.0284

          k = 0.0833 0.0833 0.2500 ( 25671 PWs)   bands (ev):

   -17.5782  -8.6090  -8.1931  -8.1660  -4.3780  -4.3773  -4.3654  -2.9543
    -2.8249  -2.8245  -2.8128  -2.7072  -0.4440   0.5865   0.7711   1.6019
     2.0360   2.1602   2.3084   2.4847   2.4849   3.4633   7.6617   8.1747
     8.2781

          k = 0.0833 0.0833 0.3333 ( 25657 PWs)   bands (ev):

   -17.5780  -8.5691  -8.2117  -8.1649  -4.3766  -4.3741  -4.3617  -3.0923
    -2.8319  -2.8311  -2.8128  -2.7071  -0.5459   0.6283   0.8432   1.5713
     1.9672   2.1604   2.3048   2.4172   2.4442   4.0746   8.0216   8.3952
     8.5849

          k = 0.0833 0.0833 0.4167 ( 25652 PWs)   bands (ev):

   -17.5779  -8.5366  -8.2284  -8.1642  -4.3756  -4.3712  -4.3595  -3.1909
    -2.8369  -2.8358  -2.8128  -2.7071  -0.6001   0.6604   0.8887   1.5379
     1.9200   2.1729   2.3022   2.3543   2.4108   4.6323   8.2625   8.5838
     8.8762

          k = 0.0833 0.0833-0.5000 ( 25682 PWs)   bands (ev):

   -17.5779  -8.5236  -8.2355  -8.1639  -4.3752  -4.3700  -4.3588  -3.2265
    -2.8388  -2.8376  -2.8128  -2.7071  -0.6169   0.6725   0.9045   1.5243
     1.9031   2.1835   2.3019   2.3250   2.3974   4.8804   8.1884   8.7313
     8.8389

          k = 0.0833 0.1667 0.1667 ( 25687 PWs)   bands (ev):

   -17.5782  -8.6201  -8.1815  -8.1718  -4.3804  -4.3787  -4.3660  -2.8537
    -2.8233  -2.8181  -2.8177  -2.7647  -0.5200   0.6186   0.8818   1.5855
     2.0489   2.1306   2.3429   2.4994   2.6126   3.1547   7.5280   8.1237
     8.1255

          k = 0.0833 0.1667 0.2500 ( 25667 PWs)   bands (ev):

   -17.5781  -8.5836  -8.1944  -8.1725  -4.3796  -4.3772  -4.3628  -2.9702
    -2.8306  -2.8248  -2.8180  -2.7831  -0.7020   0.6672   1.0698   1.5594
     1.9709   2.1167   2.3645   2.4547   2.6169   3.5902   7.7942   8.2898
     8.3461

          k = 0.0833 0.1667 0.3333 ( 25664 PWs)   bands (ev):

   -17.5779  -8.5432  -8.2120  -8.1717  -4.3785  -4.3744  -4.3613  -3.1001
    -2.8378  -2.8316  -2.8180  -2.7872  -0.8182   0.7145   1.1918   1.5206
     1.9014   2.1309   2.3751   2.4037   2.5711   4.1666   8.1165   8.5009
     8.6260

          k = 0.0833 0.1667 0.4167 ( 25671 PWs)   bands (ev):

   -17.5778  -8.5099  -8.2285  -8.1710  -4.3777  -4.3705  -4.3619  -3.1955
    -2.8431  -2.8365  -2.8181  -2.7885  -0.8803   0.7507   1.2606   1.4862
     1.8532   2.1689   2.3276   2.4131   2.5100   4.7112   8.3564   8.6430
     8.7801

          k = 0.0833 0.1667-0.5000 ( 25664 PWs)   bands (ev):

   -17.5778  -8.4965  -8.2357  -8.1708  -4.3774  -4.3681  -4.3631  -3.2303
    -2.8450  -2.8383  -2.8181  -2.7889  -0.8996   0.7643   1.2835   1.4722
     1.8358   2.2011   2.2883   2.4462   2.4606   4.9578   8.2276   8.7370
     8.7989

          k = 0.0833 0.2500 0.2500 ( 25663 PWs)   bands (ev):

   -17.5779  -8.5464  -8.2000  -8.1795  -4.3802  -4.3765  -4.3613  -3.0229
    -2.8599  -2.8378  -2.8253  -2.8247  -0.9049   0.7232   1.3508   1.5034
     1.9145   2.0897   2.4078   2.4108   2.7251   3.8914   8.0003   8.4389
     8.5265

          k = 0.0833 0.2500 0.3333 ( 25658 PWs)   bands (ev):

   -17.5778  -8.5048  -8.2134  -8.1825  -4.3797  -4.3749  -4.3617  -3.1206
    -2.8924  -2.8460  -2.8319  -2.8252  -1.0357   0.7776   1.4479   1.5275
     1.8653   2.1033   2.3502   2.4631   2.7449   4.3702   8.2596   8.6308
     8.7711

          k = 0.0833 0.2500 0.4167 ( 25667 PWs)   bands (ev):

   -17.5777  -8.4701  -8.2288  -8.1831  -4.3791  -4.3719  -4.3641  -3.2061
    -2.9023  -2.8518  -2.8370  -2.8253  -1.1059   0.8194   1.4107   1.6072
     1.8268   2.1523   2.2890   2.5326   2.6971   4.8730   8.4404   8.5823
     8.8302

          k = 0.0833 0.2500-0.5000 ( 25666 PWs)   bands (ev):

   -17.5776  -8.4559  -8.2359  -8.1832  -4.3789  -4.3687  -4.3670  -3.2386
    -2.9046  -2.8539  -2.8388  -2.8254  -1.1278   0.8353   1.3972   1.6288
     1.8116   2.1957   2.2446   2.6118   2.6220   5.1121   8.1767   8.7440
     8.8752

          k = 0.0833 0.3333 0.3333 ( 25664 PWs)   bands (ev):

   -17.5776  -8.4615  -8.2183  -8.1941  -4.3800  -4.3753  -4.3633  -3.1681
    -2.9740  -2.8545  -2.8325  -2.8320  -1.1767   0.8399   1.3858   1.7068
     1.8456   2.1115   2.2988   2.5692   2.8689   4.7247   8.4381   8.7422
     8.9654

          k = 0.0833 0.3333 0.4167 ( 25662 PWs)   bands (ev):

   -17.5775  -8.4244  -8.2293  -8.2002  -4.3797  -4.3748  -4.3655  -3.2288
    -3.0090  -2.8606  -2.8374  -2.8325  -1.2525   0.8886   1.3419   1.7681
     1.8245   2.1517   2.2475   2.6884   2.9027   5.1519   8.3335   8.6385
     8.8556

          k = 0.0833 0.3333-0.5000 ( 25676 PWs)   bands (ev):

   -17.5775  -8.4087  -8.2362  -8.2016  -4.3795  -4.3742  -4.3667  -3.2556
    -3.0172  -2.8629  -2.8392  -2.8326  -1.2761   0.9075   1.3264   1.7853
     1.8100   2.1886   2.2087   2.7555   2.8877   5.3732   8.0410   8.7783
     8.8399

          k = 0.0833 0.4167 0.4167 ( 25675 PWs)   bands (ev):

   -17.5774  -8.3834  -8.2316  -8.2179  -4.3796  -4.3772  -4.3665  -3.2634
    -3.0708  -2.8671  -2.8378  -2.8376  -1.3312   0.9439   1.2950   1.8051
     1.8235   2.1662   2.2126   2.8095   3.0606   5.5139   8.1938   8.2611
     8.7742

          k = 0.0833 0.4167-0.5000 ( 25690 PWs)   bands (ev):

   -17.5774  -8.3651  -8.2364  -8.2237  -4.3795  -4.3781  -4.3670  -3.2817
    -3.0879  -2.8694  -2.8396  -2.8378  -1.3557   0.9656   1.2786   1.8138
     1.8163   2.1841   2.1886   2.8534   3.1163   5.7179   7.9259   8.1906
     8.8604

          k = 0.0833-0.5000-0.5000 ( 25664 PWs)   bands (ev):

   -17.5774  -8.3444  -8.2365  -8.2365  -4.3795  -4.3795  -4.3672  -3.2963
    -3.1089  -2.8718  -2.8397  -2.8397  -1.3805   0.9885   1.2618   1.8157
     1.8157   2.1827   2.1827   2.8882   3.2003   5.9203   7.8829   7.8829
     8.8504

          k = 0.1667 0.1667 0.1667 ( 25692 PWs)   bands (ev):

   -17.5781  -8.5951  -8.1805  -8.1805  -4.3807  -4.3807  -4.3620  -2.8538
    -2.8538  -2.8236  -2.8230  -2.8230  -0.7629   0.9149   0.9149   1.5610
     2.0250   2.0250   2.3979   2.6011   2.6011   3.3171   7.6633   8.2157
     8.2157

          k = 0.1667 0.1667 0.2500 ( 25648 PWs)   bands (ev):

   -17.5780  -8.5584  -8.1944  -8.1791  -4.3812  -4.3803  -4.3596  -2.9788
    -2.8539  -2.8312  -2.8296  -2.8233  -0.9589   0.9632   1.1592   1.5273
     1.9196   2.0299   2.4340   2.5817   2.6193   3.7027   7.8749   8.3701
     8.3886

          k = 0.1667 0.1667 0.3333 ( 25621 PWs)   bands (ev):

   -17.5778  -8.5176  -8.2118  -8.1777  -4.3817  -4.3774  -4.3597  -3.1060
    -2.8539  -2.8389  -2.8362  -2.8233  -1.0865   1.0164   1.3112   1.4927
     1.8285   2.0830   2.4571   2.5531   2.5556   4.2486   8.1393   8.5613
     8.6407

          k = 0.1667 0.1667 0.4167 ( 25661 PWs)   bands (ev):

   -17.5777  -8.4838  -8.2282  -8.1766  -4.3820  -4.3726  -4.3624  -3.1994
    -2.8539  -2.8445  -2.8411  -2.8234  -1.1552   1.0596   1.3861   1.4648
     1.7648   2.1835   2.4419   2.4765   2.5264   4.7824   8.3702   8.5676
     8.7268

          k = 0.1667 0.1667-0.5000 ( 25662 PWs)   bands (ev):

   -17.5777  -8.4701  -8.2354  -8.1762  -4.3822  -4.3677  -4.3665  -3.2335
    -2.8538  -2.8466  -2.8429  -2.8234  -1.1766   1.0767   1.4103   1.4515
     1.7415   2.3027   2.3198   2.4976   2.5004   5.0287   8.2019   8.5943
     8.7751

          k = 0.1667 0.2500 0.2500 ( 25648 PWs)   bands (ev):

   -17.5778  -8.5213  -8.1986  -8.1859  -4.3825  -4.3821  -4.3585  -3.0230
    -2.9245  -2.8383  -2.8305  -2.8302  -1.1735   1.0987   1.3835   1.4850
     1.8656   1.9894   2.4879   2.5692   2.7188   3.9800   8.0089   8.4887
     8.5223

          k = 0.1667 0.2500 0.3333 ( 25649 PWs)   bands (ev):

   -17.5777  -8.4799  -8.2123  -8.1871  -4.3840  -4.3808  -4.3602  -3.1229
    -2.9449  -2.8460  -2.8373  -2.8305  -1.3153   1.1724   1.4439   1.5450
     1.7897   2.0653   2.5263   2.5305   2.7380   4.4380   8.1909   8.6431
     8.7209

          k = 0.1667 0.2500 0.4167 ( 25645 PWs)   bands (ev):

   -17.5776  -8.4451  -8.2278  -8.1867  -4.3852  -4.3770  -4.3641  -3.2086
    -2.9495  -2.8517  -2.8424  -2.8305  -1.3921   1.2279   1.4161   1.6039
     1.7231   2.2121   2.4598   2.5721   2.6901   4.9337   8.3789   8.4009
     8.7662

          k = 0.1667 0.2500-0.5000 ( 25652 PWs)   bands (ev):

   -17.5775  -8.4307  -8.2351  -8.1864  -4.3857  -4.3738  -4.3673  -3.2409
    -2.9505  -2.8538  -2.8442  -2.8305  -1.4161   1.2503   1.4062   1.6192
     1.6940   2.3466   2.3637   2.6241   2.6261   5.1742   8.0901   8.5382
     8.7307

          k = 0.1667 0.3333 0.3333 ( 25652 PWs)   bands (ev):

   -17.5775  -8.4374  -8.2166  -8.1971  -4.3841  -4.3838  -4.3631  -3.1681
    -3.0160  -2.8539  -2.8376  -2.8374  -1.4680   1.2622   1.3983   1.6596
     1.7653   2.1551   2.4877   2.6108   2.8660   4.7797   8.2795   8.7117
     8.7200

          k = 0.1667 0.3333 0.4167 ( 25649 PWs)   bands (ev):

   -17.5774  -8.4007  -8.2278  -8.2014  -4.3863  -4.3818  -4.3674  -3.2295
    -3.0433  -2.8598  -2.8425  -2.8375  -1.5507   1.3294   1.3645   1.6820
     1.7283   2.2817   2.4378   2.7026   2.8996   5.2034   8.2099   8.4178
     8.6875

          k = 0.1667 0.3333-0.5000 ( 25660 PWs)   bands (ev):

   -17.5774  -8.3851  -8.2348  -8.2022  -4.3871  -4.3798  -4.3702  -3.2565
    -3.0493  -2.8619  -2.8444  -2.8375  -1.5766   1.3524   1.3574   1.6829
     1.7111   2.3728   2.3737   2.7600   2.8838   5.4278   7.9282   8.5469
     8.5670

          k = 0.1667 0.4167 0.4167 ( 25672 PWs)   bands (ev):

   -17.5773  -8.3609  -8.2297  -8.2171  -4.3853  -4.3853  -4.3716  -3.2633
    -3.0981  -2.8658  -2.8426  -2.8426  -1.6367   1.3264   1.4087   1.6887
     1.7157   2.3384   2.4090   2.8143   3.0601   5.5641   8.0590   8.1301
     8.5148

          k = 0.1667 0.4167-0.5000 ( 25648 PWs)   bands (ev):

   -17.5773  -8.3428  -8.2346  -8.2222  -4.3865  -4.3841  -4.3739  -3.2817
    -3.1128  -2.8680  -2.8445  -2.8426  -1.6634   1.3128   1.4440   1.6845
     1.7049   2.3766   2.3775   2.8567   3.1163   5.7734   7.8021   8.0569
     8.5477

          k = 0.1667-0.5000-0.5000 ( 25648 PWs)   bands (ev):

   -17.5773  -8.3222  -8.2345  -8.2345  -4.3856  -4.3856  -4.3759  -3.2963
    -3.1315  -2.8702  -2.8445  -2.8445  -1.6904   1.2986   1.4849   1.6861
     1.6861   2.3774   2.3774   2.8916   3.2024   5.9836   7.7557   7.7557
     8.7533

          k = 0.2500 0.2500 0.2500 ( 25683 PWs)   bands (ev):

   -17.5777  -8.4845  -8.1968  -8.1968  -4.3855  -4.3855  -4.3588  -3.0231
    -3.0231  -2.8399  -2.8369  -2.8369  -1.4078   1.4331   1.4331   1.4584
     1.8867   1.8867   2.5537   2.7092   2.7092   4.2027   8.0484   8.5770
     8.5770

          k = 0.2500 0.2500 0.3333 ( 25638 PWs)   bands (ev):

   -17.5775  -8.4433  -8.2114  -8.1949  -4.3886  -4.3858  -4.3622  -3.1312
    -3.0232  -2.8471  -2.8435  -2.8375  -1.5664   1.4316   1.4938   1.5758
     1.7929   2.0618   2.6009   2.6966   2.7460   4.6011   8.1360   8.6210
     8.6991

          k = 0.2500 0.2500 0.4167 ( 25632 PWs)   bands (ev):

   -17.5774  -8.4082  -8.2266  -8.1935  -4.3909  -4.3832  -4.3674  -3.2149
    -3.0233  -2.8528  -2.8483  -2.8374  -1.6530   1.4128   1.5598   1.6010
     1.7105   2.3016   2.6330   2.6707   2.6811   5.0675   8.1945   8.2981
     8.6786

          k = 0.2500 0.2500-0.5000 ( 25624 PWs)   bands (ev):

   -17.5774  -8.3935  -8.2340  -8.1930  -4.3917  -4.3807  -4.3709  -3.2462
    -3.0233  -2.8549  -2.8501  -2.8374  -1.6801   1.4061   1.6036   1.6144
     1.6512   2.5000   2.5274   2.6502   2.6685   5.3049   7.9307   8.3940
     8.5673

          k = 0.2500 0.3333 0.3333 ( 25649 PWs)   bands (ev):

   -17.5774  -8.4021  -8.2143  -8.2028  -4.3912  -4.3899  -4.3671  -3.1682
    -3.0850  -2.8534  -2.8449  -2.8440  -1.7391   1.4114   1.5575   1.6071
     1.8788   2.2053   2.6660   2.6918   2.8606   4.9104   8.1295   8.4980
     8.6065

          k = 0.2500 0.3333 0.4167 ( 25652 PWs)   bands (ev):

   -17.5773  -8.3663  -8.2257  -8.2044  -4.3941  -4.3892  -4.3734  -3.2313
    -3.1007  -2.8588  -2.8495  -2.8443  -1.8339   1.3928   1.5738   1.6032
     1.9010   2.4206   2.6510   2.7282   2.8931   5.3161   8.0188   8.2144
     8.4700

          k = 0.2500 0.3333-0.5000 ( 25642 PWs)   bands (ev):

   -17.5773  -8.3508  -8.2329  -8.2044  -4.3953  -4.3875  -4.3770  -3.2588
    -3.1033  -2.8608  -2.8512  -2.8442  -1.8636   1.3855   1.5841   1.5947
     1.9053   2.5546   2.5874   2.7694   2.8736   5.5413   7.7509   8.2973
     8.3484

          k = 0.2500 0.4167 0.4167 ( 25650 PWs)   bands (ev):

   -17.5772  -8.3287  -8.2271  -8.2168  -4.3946  -4.3930  -4.3800  -3.2633
    -3.1454  -2.8641  -2.8494  -2.8491  -1.9334   1.3696   1.5762   1.5941
     2.0059   2.5130   2.6185   2.8216   3.0572   5.6662   7.8640   7.9442
     8.2420

          k = 0.2500 0.4167-0.5000 ( 25634 PWs)   bands (ev):

   -17.5772  -8.3112  -8.2320  -8.2204  -4.3955  -4.3924  -4.3838  -3.2818
    -3.1563  -2.8660  -2.8511  -2.8492  -1.9644   1.3601   1.5823   1.5869
     2.0364   2.5691   2.5788   2.8614   3.1148   5.8806   7.6166   7.8688
     8.2339

          k = 0.2500-0.5000-0.5000 ( 25628 PWs)   bands (ev):

   -17.5771  -8.2912  -8.2317  -8.2317  -4.3941  -4.3941  -4.3878  -3.2961
    -3.1714  -2.8680  -2.8510  -2.8510  -1.9958   1.3497   1.5842   1.5842
     2.0779   2.5724   2.5724   2.8962   3.2052   6.1009   7.5675   7.5675
     8.4218

          k = 0.3333 0.3333 0.3333 ( 25695 PWs)   bands (ev):

   -17.5773  -8.3625  -8.2120  -8.2120  -4.3956  -4.3956  -4.3741  -3.1682
    -3.1682  -2.8544  -2.8505  -2.8505  -1.9307   1.4163   1.5632   1.5632
     2.2500   2.2500   2.7220   2.8513   2.8513   5.1667   8.0413   8.3296
     8.3296

          k = 0.3333 0.3333 0.4167 ( 25647 PWs)   bands (ev):

   -17.5772  -8.3279  -8.2239  -8.2103  -4.3998  -4.3962  -4.3817  -3.2379
    -3.1683  -2.8588  -2.8553  -2.8510  -2.0372   1.4122   1.5347   1.5546
     2.2808   2.5506   2.7698   2.8359   2.9069   5.5306   7.8341   8.0570
     8.2252

          k = 0.3333 0.3333-0.5000 ( 25628 PWs)   bands (ev):

   -17.5772  -8.3124  -8.2309  -8.2097  -4.4014  -4.3951  -4.3858  -3.2651
    -3.1683  -2.8607  -2.8570  -2.8509  -2.0706   1.4090   1.5249   1.5531
     2.2917   2.6907   2.7984   2.8188   2.8850   5.7497   7.5619   8.1060
     8.1732

          k = 0.3333 0.4167 0.4167 ( 25637 PWs)   bands (ev):

   -17.5771  -8.2939  -8.2244  -8.2180  -4.4024  -4.4007  -4.3900  -3.2632
    -3.2072  -2.8624  -2.8561  -2.8556  -2.1511   1.4119   1.5173   1.5264
     2.4834   2.6660   2.8294   2.8322   3.0492   5.8522   7.6684   7.7610
     8.0004

          k = 0.3333 0.4167-0.5000 ( 25636 PWs)   bands (ev):

   -17.5771  -8.2777  -8.2295  -8.2197  -4.4037  -4.4006  -4.3944  -3.2824
    -3.2136  -2.8642  -2.8576  -2.8557  -2.1869   1.4077   1.5105   1.5225
     2.5325   2.7363   2.7933   2.8669   3.1109   6.0668   7.4216   7.6789
     8.0719

          k = 0.3333-0.5000-0.5000 ( 25648 PWs)   bands (ev):

   -17.5770  -8.2592  -8.2290  -8.2290  -4.4026  -4.4026  -4.3995  -3.2960
    -3.2250  -2.8659  -2.8574  -2.8574  -2.2233   1.4019   1.5121   1.5121
     2.6413   2.7433   2.7433   2.9009   3.2081   6.2956   7.3700   7.3700
     8.0366

          k = 0.4167 0.4167 0.4167 ( 25644 PWs)   bands (ev):

   -17.5770  -8.2643  -8.2225  -8.2225  -4.4064  -4.4064  -4.3989  -3.2631
    -3.2631  -2.8619  -2.8603  -2.8603  -2.2750   1.4366   1.4859   1.4859
     2.7655   2.7655   2.8547   3.0344   3.0344   6.1408   7.5276   7.5276
     7.7525

          k = 0.4167 0.4167-0.5000 ( 25642 PWs)   bands (ev):

   -17.5770  -8.2499  -8.2276  -8.2218  -4.4085  -4.4066  -4.4033  -3.2859
    -3.2631  -2.8632  -2.8620  -2.8604  -2.3140   1.4387   1.4725   1.4827
     2.7911   2.8447   2.8786   3.0233   3.1296   6.3565   7.2757   7.4766
     7.6828

          k = 0.4167-0.5000-0.5000 ( 25648 PWs)   bands (ev):

   -17.5769  -8.2352  -8.2270  -8.2270  -4.4088  -4.4088  -4.4080  -3.2959
    -3.2750  -2.8643  -2.8621  -2.8621  -2.3541   1.4409   1.4694   1.4694
     2.8624   2.8624   2.9043   3.0563   3.2102   6.5996   7.2219   7.2219
     7.5741

          k =-0.5000-0.5000-0.5000 ( 25768 PWs)   bands (ev):

   -17.5769  -8.2262  -8.2262  -8.2262  -4.4111  -4.4111  -4.4111  -3.2959
    -3.2959  -2.8638  -2.8638  -2.8638  -2.3956   1.4553   1.4553   1.4553
     2.9056   2.9056   2.9056   3.2109   3.2109   6.9369   7.1671   7.1671
     7.1671

     the Fermi energy is     3.1254 ev

!    total energy              =   -1291.09563607 Ry
     estimated scf accuracy    <          3.4E-13 Ry
     smearing contrib. (-TS)   =      -0.00033298 Ry
     internal energy E=F+TS    =   -1291.09530309 Ry

     The total energy is F=E-TS. E is the sum of the following terms:
     one-electron contribution =     -54.71773258 Ry
     hartree contribution      =      48.85196483 Ry
     xc contribution           =    -100.65385418 Ry
     ewald contribution        =    -145.13573441 Ry
     one-center paw contrib.   =   -1039.43994676 Ry

     convergence has been achieved in  18 iterations

     Writing all to output data dir ./tmp/CsHgI3.save/ :
     XML data file, charge density, pseudopotentials, collected wavefunctions

     init_run     :     21.73s CPU     20.38s WALL (       1 calls)
     electrons    :   1547.17s CPU   1281.60s WALL (       1 calls)

     Called by init_run:
     wfcinit      :     15.72s CPU     13.56s WALL (       1 calls)
     potinit      :      1.26s CPU      1.42s WALL (       1 calls)
     hinit0       :      1.88s CPU      1.93s WALL (       1 calls)

     Called by electrons:
     c_bands      :   1258.75s CPU   1011.29s WALL (      19 calls)
     sum_band     :    229.72s CPU    202.83s WALL (      19 calls)
     v_of_rho     :     12.89s CPU     14.14s WALL (      19 calls)
     newd         :     42.42s CPU     50.60s WALL (      19 calls)
     PAW_pot      :      3.77s CPU      3.78s WALL (      19 calls)
     mix_rho      :      1.16s CPU      1.18s WALL (      19 calls)

     Called by c_bands:
     init_us_2    :     37.04s CPU     27.04s WALL (     819 calls)
     cegterg      :   1113.33s CPU    885.53s WALL (     399 calls)

     Called by *egterg:
     cdiaghg      :      9.54s CPU      6.84s WALL (    3104 calls)
     h_psi        :    912.03s CPU    776.17s WALL (    3146 calls)
     s_psi        :     52.98s CPU     28.30s WALL (    3146 calls)
     g_psi        :      5.37s CPU      3.80s WALL (    2726 calls)

     Called by h_psi:
     h_psi:calbec :     56.82s CPU     31.43s WALL (    3146 calls)
     vloc_psi     :    795.54s CPU    711.87s WALL (    3146 calls)
     add_vuspsi   :     55.73s CPU     29.93s WALL (    3146 calls)

     General routines
     calbec       :     70.18s CPU     38.77s WALL (    3545 calls)
     fft          :      7.99s CPU      8.70s WALL (     246 calls)
     ffts         :      0.67s CPU      0.61s WALL (      38 calls)
     fftw         :    704.71s CPU    629.67s WALL (   83155 calls)
     interpolate  :      1.22s CPU      1.29s WALL (      19 calls)

     Parallel routines

     PWSCF        :  26m 9.79s CPU  21m43.12s WALL


   This run was terminated on:  15:11:27  14May2025            

=------------------------------------------------------------------------------=
   JOB DONE.
=------------------------------------------------------------------------------=
