
     Program PWSCF v.7.3.1 starts on 15May2025 at 14:57:10 

     This program is part of the open-source Quantum ESPRESSO suite
     for quantum simulation of materials; please cite
         "P. Giannozzi et al., J. Phys.:Condens. Matter 21 395502 (2009);
         "P. Giannozzi et al., J. Phys.:Condens. Matter 29 465901 (2017);
         "P. Giannozzi et al., J. Chem. Phys. 152 154105 (2020);
          URL http://www.quantum-espresso.org", 
     in publications or presentations arising from this work. More details at
     http://www.quantum-espresso.org/quote

     Parallel version (MPI), running on     8 processors

     MPI processes distributed on     1 nodes
     56574 MiB available memory on the printing compute node when the environment starts

     Waiting for input...
     Reading input from standard input

     Current dimensions of program PWSCF are:
     Max number of different atomic species (ntypx) = 10
     Max number of k-points (npk) = 120000
     Max angular momentum in pseudopotentials (lmaxx) =  4
     file K.pbe-spn-kjpaw_psl.1.0.0.UPF: wavefunction(s)  3S renormalized
     file Sb.pbe-n-kjpaw_psl.1.0.0.UPF: wavefunction(s)  5S renormalized
     file Se.pbe-n-kjpaw_psl.1.0.0.UPF: wavefunction(s)  4S renormalized

     IMPORTANT: XC functional enforced from input :
     Exchange-correlation= PBE
                           (   1   4   3   4   0   0   0)
     Any further DFT definition will be discarded
     Please, verify this is what you really want

     Message from routine setup:
     using ibrav=0 with symmetry is DISCOURAGED, use correct ibrav instead

     K-points division:     npool     =       4
     R & G space division:  proc/nbgrp/npool/nimage =       2
     Subspace diagonalization in iterative solution of the eigenvalue problem:
     a serial algorithm will be used


     Parallelization info
     --------------------
     sticks:   dense  smooth     PW     G-vecs:    dense   smooth      PW
     Min        3352    1670    466               205982    72796   10622
     Max        3353    1671    467               205983    72801   10625
     Sum        6705    3341    933               411965   145597   21247

     Using Slab Decomposition



     bravais-lattice index     =            0
     lattice parameter (alat)  =      10.2532  a.u.
     unit-cell volume          =    1077.9098 (a.u.)^3
     number of atoms/cell      =            5
     number of atomic types    =            3
     number of electrons       =        32.00
     number of Kohn-Sham states=           20
     kinetic-energy cutoff     =     100.0000  Ry
     charge density cutoff     =     800.0000  Ry
     scf convergence threshold =      1.0E-12
     mixing beta               =       0.3000
     number of iterations used =            8  plain     mixing
     Exchange-correlation= PBE
                           (   1   4   3   4   0   0   0)

     celldm(1)=  10.253233  celldm(2)=   0.000000  celldm(3)=   0.000000
     celldm(4)=   0.000000  celldm(5)=   0.000000  celldm(6)=   0.000000

     crystal axes: (cart. coord. in units of alat)
               a(1) = (   1.000000   0.000000   0.000000 )  
               a(2) = (   0.000000   1.000000   0.000000 )  
               a(3) = (   0.000000   0.000000   1.000000 )  

     reciprocal axes: (cart. coord. in units 2 pi/alat)
               b(1) = (  1.000000  0.000000  0.000000 )  
               b(2) = (  0.000000  1.000000  0.000000 )  
               b(3) = (  0.000000  0.000000  1.000000 )  


     PseudoPot. # 1 for K  read from file:
     /home/administrator/Downloads/BURAI/BURAI1.3/pseudopot/K.pbe-spn-kjpaw_psl.1.0.0.UPF
     MD5 check sum: 14ff5a24ff9f8afecca2cb30191d3c3d
     Pseudo is Projector augmented-wave + core cor, Zval =  9.0
     Generated using "atomic" code by A. Dal Corso  v.5.1.2
     Shape of augmentation charge: PSQ
     Using radial grid of 1165 points,  6 beta functions with: 
                l(1) =   0
                l(2) =   0
                l(3) =   1
                l(4) =   1
                l(5) =   2
                l(6) =   2
     Q(r) pseudized with 0 coefficients 


     PseudoPot. # 2 for Sb read from file:
     /home/administrator/Downloads/BURAI/BURAI1.3/pseudopot/Sb.pbe-n-kjpaw_psl.1.0.0.UPF
     MD5 check sum: f1c885dedccffa706451a3b39fc4a741
     Pseudo is Projector augmented-wave + core cor, Zval =  5.0
     Generated using "atomic" code by A. Dal Corso  v.5.1.2
     Shape of augmentation charge: PSQ
     Using radial grid of 1243 points,  6 beta functions with: 
                l(1) =   0
                l(2) =   0
                l(3) =   1
                l(4) =   1
                l(5) =   2
                l(6) =   2
     Q(r) pseudized with 0 coefficients 


     PseudoPot. # 3 for Se read from file:
     /home/administrator/Downloads/BURAI/BURAI1.3/pseudopot/Se.pbe-n-kjpaw_psl.1.0.0.UPF
     MD5 check sum: a24196f260b4188fa853fb27ef2f7c98
     Pseudo is Projector augmented-wave + core cor, Zval =  6.0
     Generated using "atomic" code by A. Dal Corso  v.5.1.2
     Shape of augmentation charge: PSQ
     Using radial grid of 1211 points,  4 beta functions with: 
                l(1) =   0
                l(2) =   0
                l(3) =   1
                l(4) =   1
     Q(r) pseudized with 0 coefficients 


     atomic species   valence    mass     pseudopotential
     K                 9.00    39.09830     K ( 1.00)
     Sb                5.00   121.76000     Sb( 1.00)
     Se                6.00    78.97100     Se( 1.00)

     48 Sym. Ops., with inversion, found



   Cartesian axes

     site n.     atom                  positions (alat units)
         1        K      tau(   1) = (   0.0000000   0.0000000   0.0000000  )
         2        Sb     tau(   2) = (   0.5000000   0.5000000   0.5000000  )
         3        Se     tau(   3) = (   0.5000000   0.5000000   0.0000000  )
         4        Se     tau(   4) = (   0.5000000   0.0000000   0.5000000  )
         5        Se     tau(   5) = (   0.0000000   0.5000000   0.5000000  )

     number of k points=    56  Gaussian smearing, width (Ry)=  0.0050
                       cart. coord. in units 2pi/alat
        k(    1) = (   0.0000000   0.0000000   0.0000000), wk =   0.0020000
        k(    2) = (   0.0000000   0.0000000   0.1000000), wk =   0.0120000
        k(    3) = (   0.0000000   0.0000000   0.2000000), wk =   0.0120000
        k(    4) = (   0.0000000   0.0000000   0.3000000), wk =   0.0120000
        k(    5) = (   0.0000000   0.0000000   0.4000000), wk =   0.0120000
        k(    6) = (   0.0000000   0.0000000  -0.5000000), wk =   0.0060000
        k(    7) = (   0.0000000   0.1000000   0.1000000), wk =   0.0240000
        k(    8) = (   0.0000000   0.1000000   0.2000000), wk =   0.0480000
        k(    9) = (   0.0000000   0.1000000   0.3000000), wk =   0.0480000
        k(   10) = (   0.0000000   0.1000000   0.4000000), wk =   0.0480000
        k(   11) = (   0.0000000   0.1000000  -0.5000000), wk =   0.0240000
        k(   12) = (   0.0000000   0.2000000   0.2000000), wk =   0.0240000
        k(   13) = (   0.0000000   0.2000000   0.3000000), wk =   0.0480000
        k(   14) = (   0.0000000   0.2000000   0.4000000), wk =   0.0480000
        k(   15) = (   0.0000000   0.2000000  -0.5000000), wk =   0.0240000
        k(   16) = (   0.0000000   0.3000000   0.3000000), wk =   0.0240000
        k(   17) = (   0.0000000   0.3000000   0.4000000), wk =   0.0480000
        k(   18) = (   0.0000000   0.3000000  -0.5000000), wk =   0.0240000
        k(   19) = (   0.0000000   0.4000000   0.4000000), wk =   0.0240000
        k(   20) = (   0.0000000   0.4000000  -0.5000000), wk =   0.0240000
        k(   21) = (   0.0000000  -0.5000000  -0.5000000), wk =   0.0060000
        k(   22) = (   0.1000000   0.1000000   0.1000000), wk =   0.0160000
        k(   23) = (   0.1000000   0.1000000   0.2000000), wk =   0.0480000
        k(   24) = (   0.1000000   0.1000000   0.3000000), wk =   0.0480000
        k(   25) = (   0.1000000   0.1000000   0.4000000), wk =   0.0480000
        k(   26) = (   0.1000000   0.1000000  -0.5000000), wk =   0.0240000
        k(   27) = (   0.1000000   0.2000000   0.2000000), wk =   0.0480000
        k(   28) = (   0.1000000   0.2000000   0.3000000), wk =   0.0960000
        k(   29) = (   0.1000000   0.2000000   0.4000000), wk =   0.0960000
        k(   30) = (   0.1000000   0.2000000  -0.5000000), wk =   0.0480000
        k(   31) = (   0.1000000   0.3000000   0.3000000), wk =   0.0480000
        k(   32) = (   0.1000000   0.3000000   0.4000000), wk =   0.0960000
        k(   33) = (   0.1000000   0.3000000  -0.5000000), wk =   0.0480000
        k(   34) = (   0.1000000   0.4000000   0.4000000), wk =   0.0480000
        k(   35) = (   0.1000000   0.4000000  -0.5000000), wk =   0.0480000
        k(   36) = (   0.1000000  -0.5000000  -0.5000000), wk =   0.0120000
        k(   37) = (   0.2000000   0.2000000   0.2000000), wk =   0.0160000
        k(   38) = (   0.2000000   0.2000000   0.3000000), wk =   0.0480000
        k(   39) = (   0.2000000   0.2000000   0.4000000), wk =   0.0480000
        k(   40) = (   0.2000000   0.2000000  -0.5000000), wk =   0.0240000
        k(   41) = (   0.2000000   0.3000000   0.3000000), wk =   0.0480000
        k(   42) = (   0.2000000   0.3000000   0.4000000), wk =   0.0960000
        k(   43) = (   0.2000000   0.3000000  -0.5000000), wk =   0.0480000
        k(   44) = (   0.2000000   0.4000000   0.4000000), wk =   0.0480000
        k(   45) = (   0.2000000   0.4000000  -0.5000000), wk =   0.0480000
        k(   46) = (   0.2000000  -0.5000000  -0.5000000), wk =   0.0120000
        k(   47) = (   0.3000000   0.3000000   0.3000000), wk =   0.0160000
        k(   48) = (   0.3000000   0.3000000   0.4000000), wk =   0.0480000
        k(   49) = (   0.3000000   0.3000000  -0.5000000), wk =   0.0240000
        k(   50) = (   0.3000000   0.4000000   0.4000000), wk =   0.0480000
        k(   51) = (   0.3000000   0.4000000  -0.5000000), wk =   0.0480000
        k(   52) = (   0.3000000  -0.5000000  -0.5000000), wk =   0.0120000
        k(   53) = (   0.4000000   0.4000000   0.4000000), wk =   0.0160000
        k(   54) = (   0.4000000   0.4000000  -0.5000000), wk =   0.0240000
        k(   55) = (   0.4000000  -0.5000000  -0.5000000), wk =   0.0120000
        k(   56) = (  -0.5000000  -0.5000000  -0.5000000), wk =   0.0020000

     Dense  grid:   411965 G-vectors     FFT dimensions: (  96,  96,  96)

     Smooth grid:   145597 G-vectors     FFT dimensions: (  72,  72,  72)

     Estimated max dynamical RAM per process >     335.24 MB

     Estimated total dynamical RAM >       2.32 GB

     Initial potential from superposition of free atoms

     starting charge      31.9803, renormalised to      32.0000
     Starting wfcs are   24 randomized atomic wfcs
     Checking if some PAW data can be deallocated... 

     total cpu time spent up to now is        9.8 secs

     Self-consistent Calculation

     iteration #  1     ecut=   100.00 Ry     beta= 0.30
     Davidson diagonalization with overlap
     ethr =  1.00E-02,  avg # of iterations =  2.5

     Threshold (ethr) on eigenvalues was too large:
     Diagonalizing with lowered threshold

     Davidson diagonalization with overlap
     ethr =  6.54E-04,  avg # of iterations =  2.0

     total cpu time spent up to now is       41.0 secs

     total energy              =   -1028.71518921 Ry
     estimated scf accuracy    <       0.19646816 Ry

     iteration #  2     ecut=   100.00 Ry     beta= 0.30
     Davidson diagonalization with overlap
     ethr =  6.14E-04,  avg # of iterations =  2.2

     total cpu time spent up to now is       56.9 secs

     total energy              =   -1028.74516368 Ry
     estimated scf accuracy    <       0.00722453 Ry

     iteration #  3     ecut=   100.00 Ry     beta= 0.30
     Davidson diagonalization with overlap
     ethr =  2.26E-05,  avg # of iterations =  8.2

     total cpu time spent up to now is       79.9 secs

     total energy              =   -1028.74726319 Ry
     estimated scf accuracy    <       0.00214244 Ry

     iteration #  4     ecut=   100.00 Ry     beta= 0.30
     Davidson diagonalization with overlap
     ethr =  6.70E-06,  avg # of iterations =  3.9

     total cpu time spent up to now is       97.5 secs

     total energy              =   -1028.74749316 Ry
     estimated scf accuracy    <       0.00032843 Ry

     iteration #  5     ecut=   100.00 Ry     beta= 0.30
     Davidson diagonalization with overlap
     c_bands:  1 eigenvalues not converged
     ethr =  1.03E-06,  avg # of iterations =  4.0

     total cpu time spent up to now is      115.5 secs

     total energy              =   -1028.74753274 Ry
     estimated scf accuracy    <       0.00000787 Ry

     iteration #  6     ecut=   100.00 Ry     beta= 0.30
     Davidson diagonalization with overlap
     c_bands:  1 eigenvalues not converged
     ethr =  2.46E-08,  avg # of iterations =  5.0

     total cpu time spent up to now is      137.4 secs

     total energy              =   -1028.74753876 Ry
     estimated scf accuracy    <       0.00000382 Ry

     iteration #  7     ecut=   100.00 Ry     beta= 0.30
     Davidson diagonalization with overlap
     ethr =  1.19E-08,  avg # of iterations =  2.2

     total cpu time spent up to now is      154.6 secs

     total energy              =   -1028.74754044 Ry
     estimated scf accuracy    <       0.00000046 Ry

     iteration #  8     ecut=   100.00 Ry     beta= 0.30
     Davidson diagonalization with overlap
     ethr =  1.43E-09,  avg # of iterations =  2.1

     total cpu time spent up to now is      172.4 secs

     total energy              =   -1028.74754086 Ry
     estimated scf accuracy    <          8.5E-09 Ry

     iteration #  9     ecut=   100.00 Ry     beta= 0.30
     Davidson diagonalization with overlap
     ethr =  2.66E-11,  avg # of iterations =  4.4

     total cpu time spent up to now is      194.0 secs

     total energy              =   -1028.74754101 Ry
     estimated scf accuracy    <          1.4E-09 Ry

     iteration # 10     ecut=   100.00 Ry     beta= 0.30
     Davidson diagonalization with overlap
     ethr =  4.35E-12,  avg # of iterations =  3.3

     total cpu time spent up to now is      213.8 secs

     total energy              =   -1028.74754108 Ry
     estimated scf accuracy    <          1.3E-09 Ry

     iteration # 11     ecut=   100.00 Ry     beta= 0.30
     Davidson diagonalization with overlap
     ethr =  4.08E-12,  avg # of iterations =  2.0

     total cpu time spent up to now is      230.3 secs

     total energy              =   -1028.74754111 Ry
     estimated scf accuracy    <          3.6E-11 Ry

     iteration # 12     ecut=   100.00 Ry     beta= 0.30
     Davidson diagonalization with overlap
     ethr =  1.14E-13,  avg # of iterations =  3.3

     total cpu time spent up to now is      248.7 secs

     total energy              =   -1028.74754113 Ry
     estimated scf accuracy    <          2.1E-11 Ry

     iteration # 13     ecut=   100.00 Ry     beta= 0.30
     Davidson diagonalization with overlap
     ethr =  1.00E-13,  avg # of iterations =  2.0

     total cpu time spent up to now is      266.9 secs

     total energy              =   -1028.74754114 Ry
     estimated scf accuracy    <          5.7E-12 Ry

     iteration # 14     ecut=   100.00 Ry     beta= 0.30
     Davidson diagonalization with overlap
     ethr =  1.00E-13,  avg # of iterations =  1.0

     total cpu time spent up to now is      281.6 secs

     total energy              =   -1028.74754114 Ry
     estimated scf accuracy    <          2.1E-12 Ry

     iteration # 15     ecut=   100.00 Ry     beta= 0.30
     Davidson diagonalization with overlap
     ethr =  1.00E-13,  avg # of iterations =  1.0

     total cpu time spent up to now is      296.2 secs

     End of self-consistent calculation

          k = 0.0000 0.0000 0.0000 ( 18277 PWs)   bands (ev):

   -25.9589  -9.9523  -9.4335  -9.4335  -9.4335  -7.8997  -7.8997  -2.9403
    -1.4037  -1.4037  -1.4037   2.9708   2.9708   2.9708   3.0563   3.0563
     3.0563   7.0609   8.6804   8.6804

          k = 0.0000 0.0000 0.1000 ( 18185 PWs)   bands (ev):

   -25.9589  -9.9284  -9.4334  -9.4334  -9.4298  -7.9412  -7.8988  -3.1865
    -1.3901  -1.3901  -1.0142   2.9265   2.9265   2.9357   3.0069   3.0337
     3.0337   7.2076   8.7210   8.8249

          k = 0.0000 0.0000 0.2000 ( 18225 PWs)   bands (ev):

   -25.9589  -9.8638  -9.4329  -9.4329  -9.4148  -8.0587  -7.8963  -3.5850
    -1.3537  -1.3537  -0.2097   2.7796   2.7796   2.8475   2.9104   3.0119
     3.0119   7.5969   8.8069   9.1417

          k = 0.0000 0.0000 0.3000 ( 18229 PWs)   bands (ev):

   -25.9588  -9.7817  -9.4324  -9.4324  -9.3778  -8.2276  -7.8932  -3.8978
    -1.3067  -1.3067   0.6684   2.5958   2.5958   2.7451   2.9072   2.9977
     2.9977   7.4315   8.1522   9.0236

          k = 0.0000 0.0000 0.4000 ( 18240 PWs)   bands (ev):

   -25.9588  -9.7188  -9.4320  -9.4320  -9.3154  -8.3955  -7.8906  -4.0838
    -1.2667  -1.2667   1.3125   2.4519   2.4519   2.6670   2.9880   2.9880
     3.2223   6.1015   8.6740   9.2407

          k = 0.0000 0.0000-0.5000 ( 18248 PWs)   bands (ev):

   -25.9588  -9.6973  -9.4318  -9.4318  -9.2765  -8.4727  -7.8897  -4.1445
    -1.2509  -1.2509   1.5082   2.3980   2.3980   2.6382   2.9844   2.9844
     3.6374   5.3571   8.9532   9.3636

          k = 0.0000 0.1000 0.1000 ( 18205 PWs)   bands (ev):

   -25.9589  -9.9043  -9.4360  -9.4332  -9.4234  -7.9589  -7.9200  -3.3976
    -1.3764  -1.1855  -0.8522   2.7469   2.9016   2.9680   2.9698   2.9919
     3.0888   7.3413   8.8294   8.8953

          k = 0.0000 0.1000 0.2000 ( 18203 PWs)   bands (ev):

   -25.9589  -9.8390  -9.4372  -9.4328  -9.4071  -8.0638  -7.9264  -3.7678
    -1.3396  -1.0728  -0.1561   2.5140   2.7735   2.8852   2.9518   2.9695
     3.0993   7.7058   8.8026   8.9502

          k = 0.0000 0.1000 0.3000 ( 18204 PWs)   bands (ev):

   -25.9588  -9.7564  -9.4366  -9.4323  -9.3703  -8.2272  -7.9248  -4.0714
    -1.2919  -1.0123   0.6917   2.3238   2.5924   2.8380   2.9352   2.9739
     3.0767   7.4219   8.2283   9.3072

          k = 0.0000 0.1000 0.4000 ( 18218 PWs)   bands (ev):

   -25.9588  -9.6939  -9.4356  -9.4318  -9.3075  -8.3917  -7.9228  -4.2552
    -1.2513  -0.9671   1.2992   2.2404   2.4489   2.8703   2.9251   2.9605
     3.2779   6.0929   8.7573   9.5440

          k = 0.0000 0.1000-0.5000 ( 18242 PWs)   bands (ev):

   -25.9587  -9.6729  -9.4351  -9.4317  -9.2681  -8.4679  -7.9219  -4.3156
    -1.2353  -0.9498   1.4630   2.2295   2.3950   2.8787   2.9215   2.9481
     3.6586   5.3510   9.0614   9.5478

          k = 0.0000 0.2000 0.2000 ( 18197 PWs)   bands (ev):

   -25.9588  -9.7719  -9.4429  -9.4324  -9.3872  -8.1032  -7.9890  -4.1151
    -1.3015  -0.5744   0.1216   2.2163   2.7346   2.8232   2.8919   2.9097
     3.2564   8.0103   8.5943   8.8446

          k = 0.0000 0.2000 0.3000 ( 18201 PWs)   bands (ev):

   -25.9588  -9.6880  -9.4453  -9.4319  -9.3472  -8.2300  -8.0136  -4.4162
    -1.2520  -0.3397   0.7721   2.0091   2.5825   2.7779   2.8406   2.9604
     3.3319   7.3610   8.4337   8.7606

          k = 0.0000 0.2000 0.4000 ( 18184 PWs)   bands (ev):

   -25.9587  -9.6275  -9.4445  -9.4314  -9.2801  -8.3821  -8.0172  -4.6037
    -1.2099  -0.2484   1.2512   2.0196   2.4410   2.7655   2.8441   3.1365
     3.4328   6.0531   8.6483   9.0425

          k = 0.0000 0.2000-0.5000 ( 18200 PWs)   bands (ev):

   -25.9587  -9.6085  -9.4437  -9.4313  -9.2379  -8.4552  -8.0174  -4.6661
    -1.1933  -0.2193   1.3329   2.0937   2.3873   2.7616   2.8536   3.2243
     3.7261   5.3137   8.6616   9.5892

          k = 0.0000 0.3000 0.3000 ( 18207 PWs)   bands (ev):

   -25.9587  -9.6044  -9.4526  -9.4314  -9.2988  -8.2633  -8.1205  -4.7267
    -1.2002   0.3227   0.9686   1.8073   2.5506   2.6119   2.7784   3.0709
     3.5093   7.0649   7.6177   8.8578

          k = 0.0000 0.3000 0.4000 ( 18199 PWs)   bands (ev):

   -25.9587  -9.5484  -9.4547  -9.4310  -9.2194  -8.3721  -8.1614  -4.9246
    -1.1561   0.6188   1.1669   1.9090   2.4311   2.5766   2.7342   3.3697
     3.6268   5.9608   7.3611   9.3043

          k = 0.0000 0.3000-0.5000 ( 18188 PWs)   bands (ev):

   -25.9587  -9.5327  -9.4540  -9.4308  -9.1702  -8.4398  -8.1666  -4.9912
    -1.1386   0.6908   1.1713   2.0483   2.3777   2.5719   2.7248   3.5572
     3.8693   5.2176   7.3242   9.6781

          k = 0.0000 0.4000 0.4000 ( 18209 PWs)   bands (ev):

   -25.9586  -9.4958  -9.4615  -9.4306  -9.1224  -8.3805  -8.3036  -5.1323
    -1.1099   1.0814   1.3398   1.9328   2.4158   2.4360   2.6251   3.7451
     3.7749   5.6975   6.2393   9.5673

          k = 0.0000 0.4000-0.5000 ( 18226 PWs)   bands (ev):

   -25.9586  -9.4814  -9.4622  -9.4305  -9.0626  -8.4274  -8.3342  -5.2027
    -1.0917   1.0489   1.5605   2.0427   2.3700   2.4231   2.5602   3.8271
     4.1920   5.0831   6.0072   9.8207

          k = 0.0000-0.5000-0.5000 ( 18176 PWs)   bands (ev):

   -25.9586  -9.4653  -9.4653  -9.4303  -8.9945  -8.4228  -8.4228  -5.2746
    -1.0731   1.0044   2.0440   2.0440   2.3671   2.3671   2.3789   3.9423
     4.7849   5.0101   5.0101   9.8396

          k = 0.1000 0.1000 0.1000 ( 18214 PWs)   bands (ev):

   -25.9589  -9.8800  -9.4357  -9.4357  -9.4173  -7.9582  -7.9582  -3.5880
    -1.1715  -1.1715  -0.7129   2.7316   2.7316   2.7946   3.0504   3.0920
     3.0920   7.4603   8.8703   8.8706

          k = 0.1000 0.1000 0.2000 ( 18206 PWs)   bands (ev):

   -25.9588  -9.8142  -9.4380  -9.4348  -9.4004  -8.0674  -7.9562  -3.9395
    -1.1338  -0.9980  -0.1009   2.4950   2.5421   2.7648   3.0646   3.0960
     3.1018   7.7943   8.7721   9.0050

          k = 0.1000 0.1000 0.3000 ( 18198 PWs)   bands (ev):

   -25.9588  -9.7315  -9.4381  -9.4338  -9.3629  -8.2270  -7.9537  -4.2375
    -1.0848  -0.9202   0.7146   2.2740   2.3988   2.7734   3.0502   3.0675
     3.0936   7.4058   8.2778   9.1690

          k = 0.1000 0.1000 0.4000 ( 18217 PWs)   bands (ev):

   -25.9587  -9.6700  -9.4373  -9.4330  -9.2987  -8.3885  -7.9518  -4.4207
    -1.0429  -0.8693   1.2887   2.1180   2.4407   2.7614   3.0102   3.0547
     3.3051   6.0813   8.7791   9.3512

          k = 0.1000 0.1000-0.5000 ( 18254 PWs)   bands (ev):

   -25.9587  -9.6498  -9.4368  -9.4327  -9.2582  -8.4636  -7.9510  -4.4813
    -1.0262  -0.8503   1.4319   2.0616   2.5082   2.7414   2.9909   3.0514
     3.6705   5.3419   9.0467   9.5142

          k = 0.1000 0.2000 0.2000 ( 18198 PWs)   bands (ev):

   -25.9588  -9.7475  -9.4421  -9.4349  -9.3805  -8.1030  -8.0177  -4.2766
    -1.0460  -0.5591   0.1709   2.2204   2.4952   2.5866   3.0850   3.1020
     3.2554   8.0513   8.5554   8.8158

          k = 0.1000 0.2000 0.3000 ( 18184 PWs)   bands (ev):

   -25.9587  -9.6652  -9.4447  -9.4339  -9.3383  -8.2304  -8.0360  -4.5762
    -0.9912  -0.3138   0.7932   2.0050   2.3582   2.5860   3.0643   3.1126
     3.3329   7.3353   8.4093   8.7247

          k = 0.1000 0.2000 0.4000 ( 18209 PWs)   bands (ev):

   -25.9587  -9.6075  -9.4444  -9.4330  -9.2673  -8.3804  -8.0379  -4.7653
    -0.9464  -0.2164   1.2486   1.9267   2.3996   2.6013   3.0622   3.2100
     3.4338   6.0352   8.5746   8.9681

          k = 0.1000 0.2000-0.5000 ( 18206 PWs)   bands (ev):

   -25.9587  -9.5899  -9.4439  -9.4327  -9.2229  -8.4526  -8.0379  -4.8285
    -0.9288  -0.1856   1.3278   1.9077   2.5165   2.5712   3.0641   3.2643
     3.7245   5.2981   8.5869   9.1852

          k = 0.1000 0.3000 0.3000 ( 18207 PWs)   bands (ev):

   -25.9587  -9.5864  -9.4512  -9.4331  -9.2848  -8.2639  -8.1356  -4.8882
    -0.9331   0.3392   0.9818   1.7985   2.2896   2.5193   3.0251   3.1826
     3.5116   7.0358   7.5786   8.7735

          k = 0.1000 0.3000 0.4000 ( 18211 PWs)   bands (ev):

   -25.9587  -9.5358  -9.4534  -9.4324  -9.1986  -8.3722  -8.1721  -5.0897
    -0.8859   0.6377   1.1737   1.8124   2.2675   2.5626   2.9888   3.4085
     3.6286   5.9367   7.3246   9.0868

          k = 0.1000 0.3000-0.5000 ( 18188 PWs)   bands (ev):

   -25.9586  -9.5218  -9.4530  -9.4321  -9.1463  -8.4392  -8.1766  -5.1579
    -0.8673   0.7106   1.1803   1.8484   2.3141   2.5946   2.9802   3.5718
     3.8648   5.1957   7.2873   9.2786

          k = 0.1000 0.4000 0.4000 ( 18206 PWs)   bands (ev):

   -25.9586  -9.4896  -9.4595  -9.4318  -9.0935  -8.3819  -8.3073  -5.3026
    -0.8366   1.0937   1.3380   1.8013   2.1848   2.5813   2.8831   3.7545
     3.7788   5.6685   6.2156   9.2013

          k = 0.1000 0.4000-0.5000 ( 18222 PWs)   bands (ev):

   -25.9586  -9.4770  -9.4602  -9.4315  -9.0300  -8.4285  -8.3370  -5.3753
    -0.8171   1.0629   1.5365   1.8353   2.2223   2.6055   2.8134   3.8320
     4.1877   5.0567   5.9827   9.3567

          k = 0.1000-0.5000-0.5000 ( 18196 PWs)   bands (ev):

   -25.9586  -9.4630  -9.4630  -9.4313  -8.9574  -8.4244  -8.4244  -5.4498
    -0.7973   1.0197   1.8341   1.8341   2.3808   2.6090   2.6090   3.9451
     4.7863   4.9817   4.9817   9.3828

          k = 0.2000 0.2000 0.2000 ( 18193 PWs)   bands (ev):

   -25.9588  -9.6828  -9.4402  -9.4402  -9.3578  -8.1025  -8.1025  -4.6084
    -0.5173  -0.5173   0.3787   2.1931   2.1931   2.3852   3.2409   3.2409
     3.2714   8.1841   8.4532   8.4532

          k = 0.2000 0.2000 0.3000 ( 18200 PWs)   bands (ev):

   -25.9587  -9.6067  -9.4443  -9.4377  -9.3063  -8.2340  -8.1019  -4.9162
    -0.4616  -0.1571   0.8642   1.9323   2.1053   2.4076   3.2434   3.3095
     3.3578   7.2508   8.3633   8.3878

          k = 0.2000 0.2000 0.4000 ( 18230 PWs)   bands (ev):

   -25.9587  -9.5581  -9.4457  -9.4357  -9.2222  -8.3763  -8.1014  -5.1155
    -0.4126  -0.0135   1.2329   1.7544   2.1832   2.6182   3.2400   3.3917
     3.4497   5.9744   8.3141   8.5466

          k = 0.2000 0.2000-0.5000 ( 18210 PWs)   bands (ev):

   -25.9586  -9.5442  -9.4457  -9.4349  -9.1715  -8.4460  -8.1012  -5.1831
    -0.3928   0.0282   1.2938   1.6908   2.2378   2.7830   3.2386   3.3985
     3.7374   5.2391   8.2991   8.5974

          k = 0.2000 0.3000 0.3000 ( 18204 PWs)   bands (ev):

   -25.9587  -9.5435  -9.4475  -9.4376  -9.2358  -8.2655  -8.1835  -5.2431
    -0.2815   0.3860   1.0227   1.7515   1.9626   2.4415   3.3042   3.3501
     3.5214   6.9545   7.4308   8.4016

          k = 0.2000 0.3000 0.4000 ( 18207 PWs)   bands (ev):

   -25.9586  -9.5067  -9.4501  -9.4359  -9.1314  -8.3728  -8.2064  -5.4608
    -0.2150   0.6984   1.1884   1.6303   1.9708   2.7148   3.2858   3.4993
     3.6329   5.8611   7.1980   8.4338

          k = 0.2000 0.3000-0.5000 ( 18214 PWs)   bands (ev):

   -25.9586  -9.4966  -9.4504  -9.4352  -9.0714  -8.4379  -8.2089  -5.5357
    -0.1908   0.7760   1.2001   1.5882   2.0211   2.9042   3.2732   3.6190
     3.8469   5.1210   7.1613   8.4485

          k = 0.2000 0.4000 0.4000 ( 18197 PWs)   bands (ev):

   -25.9586  -9.4755  -9.4542  -9.4349  -9.0069  -8.3855  -8.3199  -5.6956
    -0.1407   1.1261   1.3273   1.5855   1.9327   2.8509   3.2175   3.7671
     3.7898   5.5798   6.1313   8.4202

          k = 0.2000 0.4000-0.5000 ( 18202 PWs)   bands (ev):

   -25.9586  -9.4666  -9.4551  -9.4344  -8.9345  -8.4314  -8.3458  -5.7773
    -0.1143   1.1000   1.4597   1.5665   2.0585   2.9597   3.1428   3.8456
     4.1640   4.9692   5.9002   8.4223

          k = 0.2000-0.5000-0.5000 ( 18176 PWs)   bands (ev):

   -25.9585  -9.4570  -9.4570  -9.4340  -8.8504  -8.4289  -8.4289  -5.8617
    -0.0871   1.0605   1.5649   1.5649   2.3856   2.9759   2.9759   3.9524
     4.7801   4.8877   4.8877   8.4194

          k = 0.3000 0.3000 0.3000 ( 18232 PWs)   bands (ev):

   -25.9586  -9.5022  -9.4429  -9.4429  -9.1395  -8.2676  -8.2676  -5.5996
     0.4538   0.4538   1.1005   1.6816   1.6816   2.5515   3.4678   3.4678
     3.5757   6.8496   6.8496   7.8027

          k = 0.3000 0.3000 0.4000 ( 18174 PWs)   bands (ev):

   -25.9586  -9.4785  -9.4470  -9.4392  -9.0144  -8.3748  -8.2692  -5.8460
     0.5220   0.8816   1.1923   1.4826   1.7295   2.9135   3.4962   3.5883
     3.6770   5.7321   6.7652   7.6398

          k = 0.3000 0.3000-0.5000 ( 18208 PWs)   bands (ev):

   -25.9585  -9.4715  -9.4484  -9.4378  -8.9448  -8.4362  -8.2699  -5.9327
     0.5531   0.9788   1.2008   1.4074   1.8072   3.1635   3.5004   3.7151
     3.8467   4.9833   6.7336   7.6102

          k = 0.3000 0.4000 0.4000 ( 18186 PWs)   bands (ev):

   -25.9585  -9.4609  -9.4476  -9.4388  -8.8712  -8.3900  -8.3462  -6.1220
     0.7547   1.1645   1.2962   1.4133   1.7645   3.1619   3.5173   3.7500
     3.8088   5.4399   5.9100   7.3911

          k = 0.3000 0.4000-0.5000 ( 18178 PWs)   bands (ev):

   -25.9585  -9.4550  -9.4488  -9.4378  -8.7885  -8.4349  -8.3627  -6.2215
     0.8049   1.1458   1.3515   1.3546   1.9959   3.3127   3.4782   3.8670
     4.0979   4.8100   5.7122   7.3474

          k = 0.3000-0.5000-0.5000 ( 18168 PWs)   bands (ev):

   -25.9585  -9.4495  -9.4495  -9.4373  -8.6901  -8.4344  -8.4344  -6.3267
     0.8597   1.1124   1.3524   1.3524   2.3915   3.3555   3.3555   3.9615
     4.7136   4.7136   4.7251   7.3015

          k = 0.4000 0.4000 0.4000 ( 18148 PWs)   bands (ev):

   -25.9585  -9.4507  -9.4422  -9.4422  -8.7161  -8.3937  -8.3937  -6.4461
     1.1824   1.2526   1.2526   1.6856   1.6856   3.5340   3.7140   3.7140
     3.8550   5.2938   5.2938   6.7294

          k = 0.4000 0.4000-0.5000 ( 18160 PWs)   bands (ev):

   -25.9585  -9.4465  -9.4441  -9.4401  -8.6250  -8.4379  -8.3952  -6.5689
     1.1729   1.2317   1.2497   1.6653   2.0764   3.6088   3.7577   3.9080
     4.0516   4.5999   5.2268   6.5756

          k = 0.4000-0.5000-0.5000 ( 18164 PWs)   bands (ev):

   -25.9585  -9.4433  -9.4433  -9.4399  -8.5215  -8.4390  -8.4390  -6.7044
     1.1555   1.2182   1.2182   1.8464   2.3963   3.7228   3.7228   3.9689
     4.4658   4.4658   4.5153   6.3698

          k =-0.5000-0.5000-0.5000 ( 18048 PWs)   bands (ev):

   -25.9584  -9.4410  -9.4410  -9.4410  -8.4408  -8.4408  -8.4408  -6.8585
     1.1724   1.1724   1.1724   2.3982   2.3982   3.9718   3.9718   3.9718
     4.2552   4.2552   4.2552   6.0236

     the Fermi energy is     3.4963 ev

!    total energy              =   -1028.74754115 Ry
     total all-electron energy =    -28748.119069 Ry
     estimated scf accuracy    <          1.1E-13 Ry
     smearing contrib. (-TS)   =      -0.00080591 Ry
     internal energy E=F+TS    =   -1028.74673524 Ry

     The total energy is F=E-TS. E is the sum of the following terms:
     one-electron contribution =     -17.91079089 Ry
     hartree contribution      =      22.47911614 Ry
     xc contribution           =     -42.64537397 Ry
     ewald contribution        =     -98.62112569 Ry
     one-center paw contrib.   =    -892.04856082 Ry

     convergence has been achieved in  15 iterations

     Writing all to output data dir ./tmp/KSbSe3.save/ :
     XML data file, charge density, pseudopotentials, collected wavefunctions

     init_run     :      9.93s CPU      9.26s WALL (       1 calls)
     electrons    :    352.99s CPU    286.55s WALL (       1 calls)

     Called by init_run:
     wfcinit      :      6.34s CPU      5.38s WALL (       1 calls)
     potinit      :      1.17s CPU      1.28s WALL (       1 calls)
     hinit0       :      1.41s CPU      1.45s WALL (       1 calls)

     Called by electrons:
     c_bands      :    253.70s CPU    200.48s WALL (      16 calls)
     sum_band     :     76.76s CPU     61.98s WALL (      16 calls)
     v_of_rho     :      8.30s CPU      8.60s WALL (      16 calls)
     newd         :     11.27s CPU     12.72s WALL (      16 calls)
     PAW_pot      :      2.39s CPU      2.40s WALL (      16 calls)
     mix_rho      :      0.68s CPU      0.70s WALL (      16 calls)

     Called by c_bands:
     init_us_2    :      9.83s CPU      6.92s WALL (     462 calls)
     cegterg      :    223.99s CPU    178.40s WALL (     224 calls)

     Called by *egterg:
     cdiaghg      :      2.01s CPU      1.48s WALL (    1026 calls)
     h_psi        :    194.33s CPU    162.86s WALL (    1054 calls)
     s_psi        :      6.62s CPU      3.55s WALL (    1054 calls)
     g_psi        :      1.14s CPU      0.81s WALL (     816 calls)

     Called by h_psi:
     h_psi:calbec :      8.12s CPU      4.55s WALL (    1054 calls)
     vloc_psi     :    178.10s CPU    153.76s WALL (    1054 calls)
     add_vuspsi   :      7.03s CPU      3.78s WALL (    1054 calls)

     General routines
     calbec       :     11.14s CPU      6.29s WALL (    1278 calls)
     fft          :      6.22s CPU      6.51s WALL (     207 calls)
     ffts         :      0.72s CPU      0.67s WALL (      32 calls)
     fftw         :    163.21s CPU    139.07s WALL (   28124 calls)
     interpolate  :      1.11s CPU      1.15s WALL (      16 calls)

     Parallel routines

     PWSCF        :   6m 3.51s CPU   4m56.56s WALL


   This run was terminated on:  15: 2: 7  15May2025            

=------------------------------------------------------------------------------=
   JOB DONE.
=------------------------------------------------------------------------------=
