
     Program PWSCF v.7.3.1 starts on 11May2025 at 13:21:27 

     This program is part of the open-source Quantum ESPRESSO suite
     for quantum simulation of materials; please cite
         "P. Giannozzi et al., J. Phys.:Condens. Matter 21 395502 (2009);
         "P. Giannozzi et al., J. Phys.:Condens. Matter 29 465901 (2017);
         "P. Giannozzi et al., J. Chem. Phys. 152 154105 (2020);
          URL http://www.quantum-espresso.org", 
     in publications or presentations arising from this work. More details at
     http://www.quantum-espresso.org/quote

     Parallel version (MPI), running on     8 processors

     MPI processes distributed on     1 nodes
     40284 MiB available memory on the printing compute node when the environment starts

     Waiting for input...
     Reading input from standard input

     Current dimensions of program PWSCF are:
     Max number of different atomic species (ntypx) = 10
     Max number of k-points (npk) = 120000
     Max angular momentum in pseudopotentials (lmaxx) =  4
     file Rb.pbe-spn-rrkjus_psl.1.0.0.UPF: wavefunction(s)  4S renormalized
     file Co.pbe-spn-kjpaw_psl.1.0.0.UPF: wavefunction(s)  3P 3D renormalized
     file I.pbe-n-kjpaw_psl.1.0.0.UPF: wavefunction(s)  5S renormalized

     IMPORTANT: XC functional enforced from input :
     Exchange-correlation= PBE
                           (   1   4   3   4   0   0   0)
     Any further DFT definition will be discarded
     Please, verify this is what you really want

     Message from routine setup:
     using ibrav=0 with symmetry is DISCOURAGED, use correct ibrav instead

     K-points division:     npool     =       2
     R & G space division:  proc/nbgrp/npool/nimage =       4
     Subspace diagonalization in iterative solution of the eigenvalue problem:
     a serial algorithm will be used


     Parallelization info
     --------------------
     sticks:   dense  smooth     PW     G-vecs:    dense   smooth      PW
     Min        1715     856    237               106803    37776    5529
     Max        1716     857    238               106806    37778    5532
     Sum        6861    3425    949               427217   151107   22119

     Using Slab Decomposition



     bravais-lattice index     =            0
     lattice parameter (alat)  =      10.3793  a.u.
     unit-cell volume          =    1118.1498 (a.u.)^3
     number of atoms/cell      =            5
     number of atomic types    =            3
     number of electrons       =        47.00
     number of Kohn-Sham states=           29
     kinetic-energy cutoff     =     100.0000  Ry
     charge density cutoff     =     800.0000  Ry
     scf convergence threshold =      1.0E-12
     mixing beta               =       0.3000
     number of iterations used =            8  plain     mixing
     Exchange-correlation= PBE
                           (   1   4   3   4   0   0   0)

     celldm(1)=  10.379267  celldm(2)=   0.000000  celldm(3)=   0.000000
     celldm(4)=   0.000000  celldm(5)=   0.000000  celldm(6)=   0.000000

     crystal axes: (cart. coord. in units of alat)
               a(1) = (   1.000000   0.000000   0.000000 )  
               a(2) = (   0.000000   1.000000   0.000000 )  
               a(3) = (   0.000000   0.000000   1.000000 )  

     reciprocal axes: (cart. coord. in units 2 pi/alat)
               b(1) = (  1.000000  0.000000  0.000000 )  
               b(2) = (  0.000000  1.000000  0.000000 )  
               b(3) = (  0.000000  0.000000  1.000000 )  


     PseudoPot. # 1 for Rb read from file:
     /home/administrator/Downloads/BURAI/BURAI1.3/pseudopot/Rb.pbe-spn-rrkjus_psl.1.0.0.UPF
     MD5 check sum: 8db0524251f08d4bb5a0a04c31658078
     Pseudo is Ultrasoft + core correction, Zval =  9.0
     Generated using "atomic" code by A. Dal Corso  v.5.1.2
     Using radial grid of 1219 points,  6 beta functions with: 
                l(1) =   0
                l(2) =   0
                l(3) =   1
                l(4) =   1
                l(5) =   2
                l(6) =   2
     Q(r) pseudized with 0 coefficients 


     PseudoPot. # 2 for Co read from file:
     /home/administrator/Downloads/BURAI/BURAI1.3/pseudopot/Co.pbe-spn-kjpaw_psl.1.0.0.UPF
     MD5 check sum: debeb0e0a2756593e9907dd3738e3b12
     Pseudo is Projector augmented-wave + core cor, Zval = 17.0
     Generated using "atomic" code by A. Dal Corso  v.5.1.2
     Shape of augmentation charge: PSQ
     Using radial grid of 1193 points,  6 beta functions with: 
                l(1) =   0
                l(2) =   0
                l(3) =   1
                l(4) =   1
                l(5) =   2
                l(6) =   2
     Q(r) pseudized with 0 coefficients 


     PseudoPot. # 3 for I  read from file:
     /home/administrator/Downloads/BURAI/BURAI1.3/pseudopot/I.pbe-n-kjpaw_psl.1.0.0.UPF
     MD5 check sum: e1b2a55c91904a364f23c37cb15bc296
     Pseudo is Projector augmented-wave + core cor, Zval =  7.0
     Generated using "atomic" code by A. Dal Corso  v.5.1.2
     Shape of augmentation charge: PSQ
     Using radial grid of 1247 points,  6 beta functions with: 
                l(1) =   0
                l(2) =   0
                l(3) =   1
                l(4) =   1
                l(5) =   2
                l(6) =   2
     Q(r) pseudized with 0 coefficients 


     atomic species   valence    mass     pseudopotential
     Rb                9.00    85.46780     Rb( 1.00)
     Co               17.00    58.93320     Co( 1.00)
     I                 7.00   126.90450     I ( 1.00)

     48 Sym. Ops., with inversion, found



   Cartesian axes

     site n.     atom                  positions (alat units)
         1        Rb     tau(   1) = (   0.0000000   0.0000000   0.0000000  )
         2        Co     tau(   2) = (   0.5000000   0.5000000   0.5000000  )
         3        I      tau(   3) = (   0.5000000   0.5000000   0.0000000  )
         4        I      tau(   4) = (   0.5000000   0.0000000   0.5000000  )
         5        I      tau(   5) = (   0.0000000   0.5000000   0.5000000  )

     number of k points=    35  Gaussian smearing, width (Ry)=  0.0100
                       cart. coord. in units 2pi/alat
        k(    1) = (   0.0000000   0.0000000   0.0000000), wk =   0.0039062
        k(    2) = (   0.0000000   0.0000000   0.1250000), wk =   0.0234375
        k(    3) = (   0.0000000   0.0000000   0.2500000), wk =   0.0234375
        k(    4) = (   0.0000000   0.0000000   0.3750000), wk =   0.0234375
        k(    5) = (   0.0000000   0.0000000  -0.5000000), wk =   0.0117188
        k(    6) = (   0.0000000   0.1250000   0.1250000), wk =   0.0468750
        k(    7) = (   0.0000000   0.1250000   0.2500000), wk =   0.0937500
        k(    8) = (   0.0000000   0.1250000   0.3750000), wk =   0.0937500
        k(    9) = (   0.0000000   0.1250000  -0.5000000), wk =   0.0468750
        k(   10) = (   0.0000000   0.2500000   0.2500000), wk =   0.0468750
        k(   11) = (   0.0000000   0.2500000   0.3750000), wk =   0.0937500
        k(   12) = (   0.0000000   0.2500000  -0.5000000), wk =   0.0468750
        k(   13) = (   0.0000000   0.3750000   0.3750000), wk =   0.0468750
        k(   14) = (   0.0000000   0.3750000  -0.5000000), wk =   0.0468750
        k(   15) = (   0.0000000  -0.5000000  -0.5000000), wk =   0.0117188
        k(   16) = (   0.1250000   0.1250000   0.1250000), wk =   0.0312500
        k(   17) = (   0.1250000   0.1250000   0.2500000), wk =   0.0937500
        k(   18) = (   0.1250000   0.1250000   0.3750000), wk =   0.0937500
        k(   19) = (   0.1250000   0.1250000  -0.5000000), wk =   0.0468750
        k(   20) = (   0.1250000   0.2500000   0.2500000), wk =   0.0937500
        k(   21) = (   0.1250000   0.2500000   0.3750000), wk =   0.1875000
        k(   22) = (   0.1250000   0.2500000  -0.5000000), wk =   0.0937500
        k(   23) = (   0.1250000   0.3750000   0.3750000), wk =   0.0937500
        k(   24) = (   0.1250000   0.3750000  -0.5000000), wk =   0.0937500
        k(   25) = (   0.1250000  -0.5000000  -0.5000000), wk =   0.0234375
        k(   26) = (   0.2500000   0.2500000   0.2500000), wk =   0.0312500
        k(   27) = (   0.2500000   0.2500000   0.3750000), wk =   0.0937500
        k(   28) = (   0.2500000   0.2500000  -0.5000000), wk =   0.0468750
        k(   29) = (   0.2500000   0.3750000   0.3750000), wk =   0.0937500
        k(   30) = (   0.2500000   0.3750000  -0.5000000), wk =   0.0937500
        k(   31) = (   0.2500000  -0.5000000  -0.5000000), wk =   0.0234375
        k(   32) = (   0.3750000   0.3750000   0.3750000), wk =   0.0312500
        k(   33) = (   0.3750000   0.3750000  -0.5000000), wk =   0.0468750
        k(   34) = (   0.3750000  -0.5000000  -0.5000000), wk =   0.0234375
        k(   35) = (  -0.5000000  -0.5000000  -0.5000000), wk =   0.0039062

     Dense  grid:   427217 G-vectors     FFT dimensions: (  96,  96,  96)

     Smooth grid:   151107 G-vectors     FFT dimensions: (  72,  72,  72)

     Estimated max dynamical RAM per process >     273.39 MB

     Estimated total dynamical RAM >       2.03 GB

     Initial potential from superposition of free atoms

     starting charge      46.9766, renormalised to      47.0000
     Starting wfcs are   30 randomized atomic wfcs
     Checking if some PAW data can be deallocated... 

     total cpu time spent up to now is        8.9 secs

     Self-consistent Calculation

     iteration #  1     ecut=   100.00 Ry     beta= 0.30
     Davidson diagonalization with overlap
     ethr =  1.00E-02,  avg # of iterations =  6.3

     total cpu time spent up to now is       27.9 secs

     total energy              =   -1571.80991487 Ry
     estimated scf accuracy    <       2.29385444 Ry

     iteration #  2     ecut=   100.00 Ry     beta= 0.30
     Davidson diagonalization with overlap
     ethr =  4.88E-03,  avg # of iterations =  4.3

     total cpu time spent up to now is       46.0 secs

     total energy              =   -1570.83428860 Ry
     estimated scf accuracy    <      26.28666840 Ry

     iteration #  3     ecut=   100.00 Ry     beta= 0.30
     Davidson diagonalization with overlap
     ethr =  4.88E-03,  avg # of iterations =  4.0

     total cpu time spent up to now is       63.3 secs

     total energy              =   -1572.78487069 Ry
     estimated scf accuracy    <       0.07452162 Ry

     iteration #  4     ecut=   100.00 Ry     beta= 0.30
     Davidson diagonalization with overlap
     ethr =  1.59E-04,  avg # of iterations =  4.8

     total cpu time spent up to now is       81.5 secs

     total energy              =   -1572.79802335 Ry
     estimated scf accuracy    <       0.03219862 Ry

     iteration #  5     ecut=   100.00 Ry     beta= 0.30
     Davidson diagonalization with overlap
     ethr =  6.85E-05,  avg # of iterations =  1.3

     total cpu time spent up to now is       95.9 secs

     total energy              =   -1572.79435721 Ry
     estimated scf accuracy    <       0.02760529 Ry

     iteration #  6     ecut=   100.00 Ry     beta= 0.30
     Davidson diagonalization with overlap
     ethr =  5.87E-05,  avg # of iterations =  2.0

     total cpu time spent up to now is      110.8 secs

     total energy              =   -1572.79449220 Ry
     estimated scf accuracy    <       0.01184126 Ry

     iteration #  7     ecut=   100.00 Ry     beta= 0.30
     Davidson diagonalization with overlap
     ethr =  2.52E-05,  avg # of iterations =  3.1

     total cpu time spent up to now is      126.5 secs

     total energy              =   -1572.79434428 Ry
     estimated scf accuracy    <       0.00294739 Ry

     iteration #  8     ecut=   100.00 Ry     beta= 0.30
     Davidson diagonalization with overlap
     ethr =  6.27E-06,  avg # of iterations =  7.7

     total cpu time spent up to now is      146.3 secs

     total energy              =   -1572.79475158 Ry
     estimated scf accuracy    <       0.00218211 Ry

     iteration #  9     ecut=   100.00 Ry     beta= 0.30
     Davidson diagonalization with overlap
     ethr =  4.64E-06,  avg # of iterations =  1.6

     total cpu time spent up to now is      161.3 secs

     total energy              =   -1572.79484515 Ry
     estimated scf accuracy    <       0.00017771 Ry

     iteration # 10     ecut=   100.00 Ry     beta= 0.30
     Davidson diagonalization with overlap
     ethr =  3.78E-07,  avg # of iterations =  1.9

     total cpu time spent up to now is      176.8 secs

     total energy              =   -1572.79482909 Ry
     estimated scf accuracy    <       0.00019457 Ry

     iteration # 11     ecut=   100.00 Ry     beta= 0.30
     Davidson diagonalization with overlap
     ethr =  3.78E-07,  avg # of iterations =  1.9

     total cpu time spent up to now is      192.6 secs

     total energy              =   -1572.79483919 Ry
     estimated scf accuracy    <       0.00001009 Ry

     iteration # 12     ecut=   100.00 Ry     beta= 0.30
     Davidson diagonalization with overlap
     ethr =  2.15E-08,  avg # of iterations =  3.9

     total cpu time spent up to now is      210.2 secs

     total energy              =   -1572.79484150 Ry
     estimated scf accuracy    <       0.00000329 Ry

     iteration # 13     ecut=   100.00 Ry     beta= 0.30
     Davidson diagonalization with overlap
     ethr =  7.00E-09,  avg # of iterations =  2.0

     total cpu time spent up to now is      225.9 secs

     total energy              =   -1572.79484182 Ry
     estimated scf accuracy    <       0.00000005 Ry

     iteration # 14     ecut=   100.00 Ry     beta= 0.30
     Davidson diagonalization with overlap
     ethr =  1.13E-10,  avg # of iterations =  4.4

     total cpu time spent up to now is      246.9 secs

     total energy              =   -1572.79484185 Ry
     estimated scf accuracy    <       0.00000001 Ry

     iteration # 15     ecut=   100.00 Ry     beta= 0.30
     Davidson diagonalization with overlap
     ethr =  2.37E-11,  avg # of iterations =  2.7

     total cpu time spent up to now is      265.1 secs

     total energy              =   -1572.79484185 Ry
     estimated scf accuracy    <          7.5E-09 Ry

     iteration # 16     ecut=   100.00 Ry     beta= 0.30
     Davidson diagonalization with overlap
     ethr =  1.60E-11,  avg # of iterations =  3.5

     total cpu time spent up to now is      282.9 secs

     total energy              =   -1572.79484185 Ry
     estimated scf accuracy    <       0.00000004 Ry

     iteration # 17     ecut=   100.00 Ry     beta= 0.30
     Davidson diagonalization with overlap
     ethr =  1.60E-11,  avg # of iterations =  2.7

     total cpu time spent up to now is      299.4 secs

     total energy              =   -1572.79484185 Ry
     estimated scf accuracy    <          6.3E-09 Ry

     iteration # 18     ecut=   100.00 Ry     beta= 0.30
     Davidson diagonalization with overlap
     ethr =  1.34E-11,  avg # of iterations =  2.0

     total cpu time spent up to now is      315.2 secs

     total energy              =   -1572.79484185 Ry
     estimated scf accuracy    <          6.3E-10 Ry

     iteration # 19     ecut=   100.00 Ry     beta= 0.30
     Davidson diagonalization with overlap
     ethr =  1.35E-12,  avg # of iterations =  3.2

     total cpu time spent up to now is      332.2 secs

     total energy              =   -1572.79484185 Ry
     estimated scf accuracy    <          3.9E-11 Ry

     iteration # 20     ecut=   100.00 Ry     beta= 0.30
     Davidson diagonalization with overlap
     ethr =  1.00E-13,  avg # of iterations =  4.0

     total cpu time spent up to now is      351.1 secs

     total energy              =   -1572.79484185 Ry
     estimated scf accuracy    <          2.8E-11 Ry

     iteration # 21     ecut=   100.00 Ry     beta= 0.30
     Davidson diagonalization with overlap
     ethr =  1.00E-13,  avg # of iterations =  1.6

     total cpu time spent up to now is      366.3 secs

     total energy              =   -1572.79484185 Ry
     estimated scf accuracy    <          1.3E-12 Ry

     iteration # 22     ecut=   100.00 Ry     beta= 0.30
     Davidson diagonalization with overlap
     ethr =  1.00E-13,  avg # of iterations =  1.0

     total cpu time spent up to now is      381.1 secs

     End of self-consistent calculation

          k = 0.0000 0.0000 0.0000 ( 18853 PWs)   bands (ev):

   -88.6769 -52.0050 -52.0050 -52.0050 -20.9551  -7.6599  -6.4947  -6.4947
    -5.0687  -5.0687  -5.0687   1.4456   1.4456   1.4456   3.9096   3.9096
     3.9096   4.5629   4.5629   4.5629   4.6306   4.6306   4.6306   4.8521
     4.8521   6.6388   8.9846   9.6023   9.6023

          k = 0.0000 0.0000 0.1250 ( 18945 PWs)   bands (ev):

   -88.6769 -52.0051 -52.0051 -52.0051 -20.9550  -7.6296  -6.5401  -6.4927
    -5.0673  -5.0673  -5.0538   1.4291   1.4784   1.4784   3.7700   3.7700
     3.8448   4.1257   4.4015   4.4015   4.6320   4.8530   4.8598   4.8598
     5.0758   6.9429   9.2605   9.7350   9.8314

          k = 0.0000 0.0000 0.2500 ( 18893 PWs)   bands (ev):

   -88.6769 -52.0050 -52.0050 -52.0050 -20.9548  -7.5460  -6.6571  -6.4878
    -5.0641  -5.0641  -5.0216   1.4136   1.5676   1.5676   3.4629   3.4629
     3.5268   3.6994   4.3098   4.3098   4.6351   4.8545   5.0762   5.0762
     5.2109   7.7387   9.8394  10.2037  10.4430

          k = 0.0000 0.0000 0.3750 ( 18869 PWs)   bands (ev):

   -88.6769 -52.0050 -52.0050 -52.0050 -20.9546  -7.4373  -6.7956  -6.4830
    -5.0608  -5.0608  -4.9943   1.4415   1.6777   1.6777   3.0439   3.1773
     3.1773   3.5665   4.2624   4.2624   4.6383   4.8557   5.2078   5.2078
     5.2619   8.8324  10.3262  10.7740  10.9856

          k = 0.0000 0.0000-0.5000 ( 18882 PWs)   bands (ev):

   -88.6769 -52.0050 -52.0050 -52.0050 -20.9545  -7.3769  -6.8674  -6.4810
    -5.0595  -5.0595  -4.9841   1.4716   1.7330   1.7330   2.8489   3.0576
     3.0576   3.5145   4.2462   4.2462   4.6396   4.8561   5.2509   5.2509
     5.2754   9.8002  10.3186  10.6660  11.1699

          k = 0.0000 0.1250 0.1250 ( 18925 PWs)   bands (ev):

   -88.6769 -52.0051 -52.0051 -52.0050 -20.9549  -7.5990  -6.5593  -6.5144
    -5.0660  -5.0580  -5.0496   1.2972   1.5126   1.6246   3.4693   3.6846
     3.9373   3.9717   4.2125   4.2425   4.8038   4.8402   4.8898   4.9561
     5.2961   7.1689   9.5012   9.9055   9.9473

          k = 0.0000 0.1250 0.2500 ( 18896 PWs)   bands (ev):

   -88.6769 -52.0050 -52.0050 -52.0050 -20.9547  -7.5148  -6.6631  -6.5176
    -5.0628  -5.0548  -5.0235   1.1946   1.6058   1.7889   3.0214   3.4352
     3.5904   3.9419   4.0626   4.1129   4.8345   4.9282   5.0350   5.0740
     5.5105   7.8615  10.0391  10.3069  10.4540

          k = 0.0000 0.1250 0.3750 ( 18875 PWs)   bands (ev):

   -88.6769 -52.0050 -52.0050 -52.0050 -20.9545  -7.4041  -6.7982  -6.5127
    -5.0596  -5.0540  -4.9991   1.1657   1.7220   1.9304   2.6316   3.1644
     3.2945   3.8878   3.9991   4.0283   4.8330   4.9431   5.1729   5.2043
     5.5667   8.9073  10.5125  10.8645  11.1545

          k = 0.0000 0.1250-0.5000 ( 18870 PWs)   bands (ev):

   -88.6769 -52.0051 -52.0050 -52.0049 -20.9544  -7.3416  -6.8704  -6.5104
    -5.0583  -5.0537  -4.9901   1.1715   1.7811   1.9929   2.4723   3.0456
     3.1799   3.8509   3.9804   4.0065   4.8318   4.9452   5.2349   5.2473
     5.5658   9.8408  10.4460  10.8717  11.2378

          k = 0.0000 0.2500 0.2500 ( 18905 PWs)   bands (ev):

   -88.6769 -52.0050 -52.0050 -52.0050 -20.9545  -7.4279  -6.7041  -6.5733
    -5.0598  -5.0379  -5.0240   0.9744   1.7115   2.0285   2.5382   3.3295
     3.5268   3.7511   3.7541   4.2945   4.9663   5.0375   5.0434   5.0854
     5.9547   8.3013  10.5122  10.6170  10.7184

          k = 0.0000 0.2500 0.3750 ( 18880 PWs)   bands (ev):

   -88.6769 -52.0050 -52.0050 -52.0050 -20.9543  -7.3110  -6.8075  -6.5950
    -5.0567  -5.0378  -5.0102   0.8480   1.8471   2.1827   2.1996   3.1300
     3.3460   3.5988   3.6846   4.3897   4.9774   5.0534   5.1378   5.1963
     6.1780   9.1439  10.9690  11.1202  11.1985

          k = 0.0000 0.2500-0.5000 ( 18892 PWs)   bands (ev):

   -88.6769 -52.0051 -52.0050 -52.0050 -20.9542  -7.2408  -6.8775  -6.5981
    -5.0555  -5.0396  -5.0034   0.8109   1.9191   2.0499   2.2656   3.0168
     3.2592   3.5615   3.6773   4.4017   4.9795   5.0517   5.1985   5.2388
     6.2229   9.9840  10.6927  11.4373  11.4921

          k = 0.0000 0.3750 0.3750 ( 18890 PWs)   bands (ev):

   -88.6769 -52.0051 -52.0050 -52.0050 -20.9541  -7.1802  -6.8360  -6.6960
    -5.0538  -5.0238  -5.0188   0.6334   1.8774   2.0174   2.3798   3.0695
     3.2685   3.3656   3.4719   4.7354   4.9857   5.1377   5.1812   5.1937
     6.6810   9.6440  11.1416  11.4857  11.5409

          k = 0.0000 0.3750-0.5000 ( 18858 PWs)   bands (ev):

   -88.6769 -52.0050 -52.0050 -52.0050 -20.9540  -7.0902  -6.8846  -6.7370
    -5.0526  -5.0252  -5.0149   0.5586   1.7697   2.1164   2.4467   2.9882
     3.1714   3.3247   3.4411   4.8367   4.9875   5.1696   5.1844   5.2308
     6.8552  10.3125  10.7408  11.2972  11.5712

          k = 0.0000-0.5000-0.5000 ( 18848 PWs)   bands (ev):

   -88.6769 -52.0050 -52.0050 -52.0050 -20.9540  -6.9353  -6.8875  -6.8875
    -5.0515  -5.0193  -5.0193   0.4688   1.6723   2.2436   2.5145   2.9765
     2.9765   3.3515   3.3515   4.9893   4.9928   5.1703   5.2276   5.2276
     7.1237  10.8561  10.8561  10.9060  11.0553

          k = 0.1250 0.1250 0.1250 ( 18916 PWs)   bands (ev):

   -88.6769 -52.0050 -52.0050 -52.0050 -20.9548  -7.5685  -6.5560  -6.5560
    -5.0590  -5.0590  -5.0437   1.1687   1.6554   1.6554   3.4389   3.4389
     3.5820   4.0459   4.2292   4.2292   4.8383   4.8565   4.8565   5.2940
     5.2940   7.3527   9.6937  10.0389  10.0389

          k = 0.1250 0.1250 0.2500 ( 18910 PWs)   bands (ev):

   -88.6769 -52.0051 -52.0050 -52.0050 -20.9546  -7.4839  -6.6650  -6.5478
    -5.0614  -5.0508  -5.0236   1.0287   1.7412   1.8505   2.9778   3.0870
     3.4794   4.0091   4.0649   4.1834   4.8490   4.9920   5.0108   5.2858
     5.5876   7.9684  10.1562  10.3720  10.4657

          k = 0.1250 0.1250 0.3750 ( 18887 PWs)   bands (ev):

   -88.6769 -52.0050 -52.0050 -52.0050 -20.9544  -7.3720  -6.7988  -6.5395
    -5.0640  -5.0456  -5.0040   0.9658   1.8539   2.0042   2.5551   2.7989
     3.4976   3.7627   3.9991   4.1498   4.8513   5.1219   5.1619   5.2663
     5.6795   8.9700  10.6161  10.8120  11.1355

          k = 0.1250 0.1250-0.5000 ( 18866 PWs)   bands (ev):

   -88.6769 -52.0050 -52.0050 -52.0049 -20.9543  -7.3076  -6.8716  -6.5360
    -5.0651  -5.0436  -4.9968   0.9559   1.9164   2.0662   2.3921   2.6769
     3.5714   3.5955   3.9613   4.1398   4.8520   5.1865   5.2247   5.2415
     5.6864   9.8842  10.4830  10.9515  11.2878

          k = 0.1250 0.2500 0.2500 ( 18887 PWs)   bands (ev):

   -88.6769 -52.0050 -52.0050 -52.0050 -20.9544  -7.3980  -6.6981  -6.6024
    -5.0608  -5.0437  -5.0201   0.8047   1.8652   2.0441   2.5453   3.0623
     3.0776   3.9994   4.0433   4.3087   4.9665   5.0354   5.0366   5.3798
     5.9467   8.3708  10.4336  10.6341  10.6847

          k = 0.1250 0.2500 0.3750 ( 18885 PWs)   bands (ev):

   -88.6769 -52.0050 -52.0050 -52.0050 -20.9542  -7.2818  -6.8033  -6.6139
    -5.0643  -5.0372  -5.0141   0.6628   1.9849   2.1962   2.2058   2.7465
     3.1152   3.8296   4.0163   4.4042   4.9922   5.1366   5.1561   5.3553
     6.1791   9.1825  10.6985  10.9747  11.1893

          k = 0.1250 0.2500-0.5000 ( 18876 PWs)   bands (ev):

   -88.6769 -52.0050 -52.0050 -52.0050 -20.9542  -7.2108  -6.8746  -6.6133
    -5.0665  -5.0341  -5.0118   0.6176   2.0590   2.0633   2.2681   2.6034
     3.1473   3.7397   4.0129   4.4163   4.9950   5.1967   5.2327   5.3170
     6.2274  10.0305  10.4945  11.2204  11.3087

          k = 0.1250 0.3750 0.3750 ( 18879 PWs)   bands (ev):

   -88.6769 -52.0050 -52.0050 -52.0050 -20.9540  -7.1553  -6.8281  -6.7047
    -5.0623  -5.0335  -5.0213   0.4447   1.9010   2.1288   2.3633   2.7740
     2.7909   3.8473   3.8538   4.7413   5.1094   5.1424   5.1753   5.3378
     6.6782   9.6595  10.6008  11.4127  11.4561

          k = 0.1250 0.3750-0.5000 ( 18862 PWs)   bands (ev):

   -88.6769 -52.0050 -52.0050 -52.0050 -20.9540  -7.0674  -6.8777  -6.7388
    -5.0619  -5.0304  -5.0253   0.3670   1.8005   2.2105   2.4365   2.6127
     2.8067   3.7775   3.8573   4.8424   5.1331   5.1736   5.2257   5.3029
     6.8545  10.3528  10.3990  11.0115  11.5050

          k = 0.1250-0.5000-0.5000 ( 18868 PWs)   bands (ev):

   -88.6769 -52.0050 -52.0050 -52.0050 -20.9539  -6.9200  -6.8790  -6.8790
    -5.0584  -5.0304  -5.0304   0.2765   1.7080   2.3197   2.5161   2.6188
     2.6188   3.7903   3.7903   4.9986   5.1758   5.2230   5.2230   5.2518
     7.1268  10.3563  10.8236  10.8236  11.1249

          k = 0.2500 0.2500 0.2500 ( 18892 PWs)   bands (ev):

   -88.6769 -52.0050 -52.0050 -52.0050 -20.9542  -7.3147  -6.6835  -6.6835
    -5.0579  -5.0579  -5.0165   0.5330   2.0892   2.0892   2.4540   2.7160
     2.7160   4.1997   4.1997   4.4078   5.0017   5.0619   5.0619   5.9172
     5.9172   8.6526  10.2963  10.8107  10.8107

          k = 0.2500 0.2500 0.3750 ( 18880 PWs)   bands (ev):

   -88.6769 -52.0050 -52.0050 -52.0050 -20.9540  -7.2004  -6.7953  -6.6686
    -5.0725  -5.0478  -5.0212   0.3378   2.1527   2.1621   2.2361   2.4501
     2.7356   4.2334   4.2342   4.5056   5.0406   5.1362   5.1573   5.8673
     6.2600   9.3164  10.2459  11.0248  11.2425

          k = 0.2500 0.2500-0.5000 ( 18880 PWs)   bands (ev):

   -88.6769 -52.0050 -52.0050 -52.0050 -20.9540  -7.1267  -6.8677  -6.6623
    -5.0786  -5.0354  -5.0317   0.2693   2.0451   2.2666   2.2682   2.2805
     2.7668   4.2306   4.2407   4.5221   5.0487   5.1903   5.2206   5.8369
     6.3423  10.0900  10.1491  11.0379  11.1360

          k = 0.2500 0.3750 0.3750 ( 18862 PWs)   bands (ev):

   -88.6769 -52.0050 -52.0050 -52.0050 -20.9539  -7.0867  -6.8087  -6.7341
    -5.0764  -5.0574  -5.0333   0.0881   1.9612   2.2202   2.2540   2.4611
     2.5369   4.3235   4.3481   4.7617   5.1267   5.1606   5.1649   5.9702
     6.6646   9.6399   9.9963  11.1329  11.2705

          k = 0.2500 0.3750-0.5000 ( 18856 PWs)   bands (ev):

   -88.6769 -52.0050 -52.0050 -52.0050 -20.9538  -7.0052  -6.8608  -6.7492
    -5.0802  -5.0505  -5.0472  -0.0030   1.8753   2.2303   2.2583   2.4156
     2.5537   4.3492   4.3596   4.8588   5.1509   5.1834   5.2142   5.9497
     6.8520   9.7652  10.3462  10.7474  11.1376

          k = 0.2500-0.5000-0.5000 ( 18860 PWs)   bands (ev):

   -88.6769 -52.0050 -52.0050 -52.0050 -20.9537  -6.8824  -6.8580  -6.8580
    -5.0749  -5.0579  -5.0579  -0.1031   1.7960   2.2431   2.2431   2.4350
     2.5200   4.3772   4.3772   5.0126   5.1901   5.2128   5.2128   5.9281
     7.1345   9.6452  10.5755  10.5755  11.2008

          k = 0.3750 0.3750 0.3750 ( 18871 PWs)   bands (ev):

   -88.6769 -52.0050 -52.0050 -52.0050 -20.9537  -6.9927  -6.7888  -6.7888
    -5.0820  -5.0820  -5.0536  -0.1974   1.9858   2.0803   2.0803   2.4901
     2.4901   4.6717   4.6717   4.8317   5.1496   5.1765   5.1765   6.6361
     6.6361   9.4403   9.8395  10.9365  10.9367

          k = 0.3750 0.3750-0.5000 ( 18878 PWs)   bands (ev):

   -88.6769 -52.0050 -52.0050 -52.0050 -20.9536  -6.9216  -6.8435  -6.7803
    -5.0923  -5.0757  -5.0704  -0.3030   1.9308   2.0109   2.0801   2.4848
     2.5194   4.7237   4.7891   4.9085   5.1732   5.1938   5.2078   6.6175
     6.9110   9.3113  10.1582  10.3498  10.8203

          k = 0.3750-0.5000-0.5000 ( 18864 PWs)   bands (ev):

   -88.6769 -52.0050 -52.0050 -52.0050 -20.9535  -6.8435  -6.8363  -6.8363
    -5.0913  -5.0861  -5.0861  -0.4146   1.8868   2.0058   2.0058   2.5041
     2.5240   4.8515   4.8515   5.0268   5.2066   5.2071   5.2071   6.7283
     7.1423   9.1492  10.1683  10.1683  10.3764

          k =-0.5000-0.5000-0.5000 ( 19064 PWs)   bands (ev):

   -88.6769 -52.0051 -52.0051 -52.0051 -20.9535  -6.8271  -6.8271  -6.8271
    -5.0981  -5.0981  -5.0981  -0.5310   1.9253   1.9253   1.9253   2.5256
     2.5256   5.0327   5.0327   5.0327   5.2142   5.2142   5.2142   7.1456
     7.1456   8.9718   9.9789   9.9789   9.9789

     the Fermi energy is     5.3290 ev

!    total energy              =   -1572.79484185 Ry
     estimated scf accuracy    <          1.1E-13 Ry
     smearing contrib. (-TS)   =      -0.00582452 Ry
     internal energy E=F+TS    =   -1572.78901733 Ry

     The total energy is F=E-TS. E is the sum of the following terms:
     one-electron contribution =    -315.84375483 Ry
     hartree contribution      =     179.78284961 Ry
     xc contribution           =     -97.75584819 Ry
     ewald contribution        =    -209.28505023 Ry
     one-center paw contrib.   =   -1129.68721369 Ry

     convergence has been achieved in  22 iterations

     Writing all to output data dir ./tmp/RbCoI3.save/ :
     XML data file, charge density, pseudopotentials, collected wavefunctions

     init_run     :      9.15s CPU      8.26s WALL (       1 calls)
     electrons    :    468.10s CPU    372.33s WALL (       1 calls)

     Called by init_run:
     wfcinit      :      5.83s CPU      4.69s WALL (       1 calls)
     potinit      :      0.95s CPU      1.01s WALL (       1 calls)
     hinit0       :      1.04s CPU      1.07s WALL (       1 calls)

     Called by electrons:
     c_bands      :    330.54s CPU    252.05s WALL (      22 calls)
     sum_band     :    106.43s CPU     84.58s WALL (      22 calls)
     v_of_rho     :      5.69s CPU      6.26s WALL (      23 calls)
     newd         :     21.16s CPU     25.33s WALL (      23 calls)
     PAW_pot      :      4.38s CPU      4.38s WALL (      23 calls)
     mix_rho      :      0.66s CPU      0.68s WALL (      22 calls)

     Called by c_bands:
     init_us_2    :     11.18s CPU      7.83s WALL (     810 calls)
     cegterg      :    300.89s CPU    230.41s WALL (     396 calls)

     Called by *egterg:
     cdiaghg      :      6.40s CPU      4.66s WALL (    1696 calls)
     h_psi        :    249.79s CPU    201.52s WALL (    1714 calls)
     s_psi        :     11.74s CPU      6.36s WALL (    1714 calls)
     g_psi        :      1.34s CPU      0.97s WALL (    1300 calls)

     Called by h_psi:
     h_psi:calbec :     13.58s CPU      7.74s WALL (    1714 calls)
     vloc_psi     :    222.08s CPU    185.89s WALL (    1714 calls)
     add_vuspsi   :     12.91s CPU      7.01s WALL (    1714 calls)

     General routines
     calbec       :     18.78s CPU     10.66s WALL (    2110 calls)
     fft          :      4.05s CPU      4.36s WALL (     297 calls)
     ffts         :      0.58s CPU      0.56s WALL (      45 calls)
     fftw         :    229.14s CPU    187.84s WALL (   66430 calls)
     interpolate  :      0.83s CPU      0.86s WALL (      23 calls)

     Parallel routines

     PWSCF        :   7m57.94s CPU   6m21.48s WALL


   This run was terminated on:  13:27:49  11May2025            

=------------------------------------------------------------------------------=
   JOB DONE.
=------------------------------------------------------------------------------=
