
     Program PWSCF v.7.3.1 starts on 13May2025 at 20:57:47 

     This program is part of the open-source Quantum ESPRESSO suite
     for quantum simulation of materials; please cite
         "P. Giannozzi et al., J. Phys.:Condens. Matter 21 395502 (2009);
         "P. Giannozzi et al., J. Phys.:Condens. Matter 29 465901 (2017);
         "P. Giannozzi et al., J. Chem. Phys. 152 154105 (2020);
          URL http://www.quantum-espresso.org", 
     in publications or presentations arising from this work. More details at
     http://www.quantum-espresso.org/quote

     Parallel version (MPI), running on     8 processors

     MPI processes distributed on     1 nodes
     59168 MiB available memory on the printing compute node when the environment starts

     Waiting for input...
     Reading input from standard input

     Current dimensions of program PWSCF are:
     Max number of different atomic species (ntypx) = 10
     Max number of k-points (npk) = 120000
     Max angular momentum in pseudopotentials (lmaxx) =  4
     file K.pbe-spn-kjpaw_psl.1.0.0.UPF: wavefunction(s)  3S renormalized
     file Nb.pbe-spn-kjpaw_psl.1.0.0.UPF: wavefunction(s)  4S 4P 4D renormalized

     IMPORTANT: XC functional enforced from input :
     Exchange-correlation= PBE
                           (   1   4   3   4   0   0   0)
     Any further DFT definition will be discarded
     Please, verify this is what you really want

     Message from routine setup:
     using ibrav=0 with symmetry is DISCOURAGED, use correct ibrav instead

     K-points division:     npool     =       4
     R & G space division:  proc/nbgrp/npool/nimage =       2
     Subspace diagonalization in iterative solution of the eigenvalue problem:
     a serial algorithm will be used


     Parallelization info
     --------------------
     sticks:   dense  smooth     PW     G-vecs:    dense   smooth      PW
     Min        2990    1490    421               173797    61484    9018
     Max        2991    1491    424               173798    61485    9019
     Sum        5981    2981    845               347595   122969   18037

     Using Slab Decomposition



     bravais-lattice index     =            0
     lattice parameter (alat)  =       9.6872  a.u.
     unit-cell volume          =     909.0768 (a.u.)^3
     number of atoms/cell      =            5
     number of atomic types    =            3
     number of electrons       =        70.00
     number of Kohn-Sham states=           42
     kinetic-energy cutoff     =     100.0000  Ry
     charge density cutoff     =     800.0000  Ry
     scf convergence threshold =      1.0E-12
     mixing beta               =       0.3000
     number of iterations used =            8  plain     mixing
     Exchange-correlation= PBE
                           (   1   4   3   4   0   0   0)

     celldm(1)=   9.687243  celldm(2)=   0.000000  celldm(3)=   0.000000
     celldm(4)=   0.000000  celldm(5)=   0.000000  celldm(6)=   0.000000

     crystal axes: (cart. coord. in units of alat)
               a(1) = (   1.000000   0.000000   0.000000 )  
               a(2) = (   0.000000   1.000000   0.000000 )  
               a(3) = (   0.000000   0.000000   1.000000 )  

     reciprocal axes: (cart. coord. in units 2 pi/alat)
               b(1) = (  1.000000  0.000000  0.000000 )  
               b(2) = (  0.000000  1.000000  0.000000 )  
               b(3) = (  0.000000  0.000000  1.000000 )  


     PseudoPot. # 1 for K  read from file:
     /home/administrator/Downloads/BURAI/BURAI1.3/pseudopot/K.pbe-spn-kjpaw_psl.1.0.0.UPF
     MD5 check sum: 14ff5a24ff9f8afecca2cb30191d3c3d
     Pseudo is Projector augmented-wave + core cor, Zval =  9.0
     Generated using "atomic" code by A. Dal Corso  v.5.1.2
     Shape of augmentation charge: PSQ
     Using radial grid of 1165 points,  6 beta functions with: 
                l(1) =   0
                l(2) =   0
                l(3) =   1
                l(4) =   1
                l(5) =   2
                l(6) =   2
     Q(r) pseudized with 0 coefficients 


     PseudoPot. # 2 for Nb read from file:
     /home/administrator/Downloads/BURAI/BURAI1.3/pseudopot/Nb.pbe-spn-kjpaw_psl.1.0.0.UPF
     MD5 check sum: b00631c500922d21a0ac96a4ccc82b41
     Pseudo is Projector augmented-wave + core cor, Zval = 13.0
     Generated using "atomic" code by A. Dal Corso  v.5.1.2
     Shape of augmentation charge: PSQ
     Using radial grid of 1227 points,  6 beta functions with: 
                l(1) =   0
                l(2) =   0
                l(3) =   1
                l(4) =   1
                l(5) =   2
                l(6) =   2
     Q(r) pseudized with 0 coefficients 


     PseudoPot. # 3 for Se read from file:
     /home/administrator/Downloads/BURAI/BURAI1.3/pseudopot/Se.pbe-dn-rrkjus_psl.1.0.0.UPF
     MD5 check sum: 52ed0f01d9466caabcc79b3d6a0154cf
     Pseudo is Ultrasoft + core correction, Zval = 16.0
     Generated using "atomic" code by A. Dal Corso  v.5.1.2
     Using radial grid of 1211 points,  6 beta functions with: 
                l(1) =   0
                l(2) =   0
                l(3) =   1
                l(4) =   1
                l(5) =   2
                l(6) =   2
     Q(r) pseudized with 0 coefficients 


     atomic species   valence    mass     pseudopotential
     K                 9.00    39.09830     K ( 1.00)
     Nb               13.00    92.90640     Nb( 1.00)
     Se               16.00    78.97100     Se( 1.00)

     48 Sym. Ops., with inversion, found



   Cartesian axes

     site n.     atom                  positions (alat units)
         1        K      tau(   1) = (   0.0000000   0.0000000   0.0000000  )
         2        Nb     tau(   2) = (   0.5000000   0.5000000   0.5000000  )
         3        Se     tau(   3) = (   0.5000000   0.5000000   0.0000000  )
         4        Se     tau(   4) = (   0.5000000   0.0000000   0.5000000  )
         5        Se     tau(   5) = (   0.0000000   0.5000000   0.5000000  )

     number of k points=    35  Gaussian smearing, width (Ry)=  0.0050
                       cart. coord. in units 2pi/alat
        k(    1) = (   0.0000000   0.0000000   0.0000000), wk =   0.0039062
        k(    2) = (   0.0000000   0.0000000   0.1250000), wk =   0.0234375
        k(    3) = (   0.0000000   0.0000000   0.2500000), wk =   0.0234375
        k(    4) = (   0.0000000   0.0000000   0.3750000), wk =   0.0234375
        k(    5) = (   0.0000000   0.0000000  -0.5000000), wk =   0.0117188
        k(    6) = (   0.0000000   0.1250000   0.1250000), wk =   0.0468750
        k(    7) = (   0.0000000   0.1250000   0.2500000), wk =   0.0937500
        k(    8) = (   0.0000000   0.1250000   0.3750000), wk =   0.0937500
        k(    9) = (   0.0000000   0.1250000  -0.5000000), wk =   0.0468750
        k(   10) = (   0.0000000   0.2500000   0.2500000), wk =   0.0468750
        k(   11) = (   0.0000000   0.2500000   0.3750000), wk =   0.0937500
        k(   12) = (   0.0000000   0.2500000  -0.5000000), wk =   0.0468750
        k(   13) = (   0.0000000   0.3750000   0.3750000), wk =   0.0468750
        k(   14) = (   0.0000000   0.3750000  -0.5000000), wk =   0.0468750
        k(   15) = (   0.0000000  -0.5000000  -0.5000000), wk =   0.0117188
        k(   16) = (   0.1250000   0.1250000   0.1250000), wk =   0.0312500
        k(   17) = (   0.1250000   0.1250000   0.2500000), wk =   0.0937500
        k(   18) = (   0.1250000   0.1250000   0.3750000), wk =   0.0937500
        k(   19) = (   0.1250000   0.1250000  -0.5000000), wk =   0.0468750
        k(   20) = (   0.1250000   0.2500000   0.2500000), wk =   0.0937500
        k(   21) = (   0.1250000   0.2500000   0.3750000), wk =   0.1875000
        k(   22) = (   0.1250000   0.2500000  -0.5000000), wk =   0.0937500
        k(   23) = (   0.1250000   0.3750000   0.3750000), wk =   0.0937500
        k(   24) = (   0.1250000   0.3750000  -0.5000000), wk =   0.0937500
        k(   25) = (   0.1250000  -0.5000000  -0.5000000), wk =   0.0234375
        k(   26) = (   0.2500000   0.2500000   0.2500000), wk =   0.0312500
        k(   27) = (   0.2500000   0.2500000   0.3750000), wk =   0.0937500
        k(   28) = (   0.2500000   0.2500000  -0.5000000), wk =   0.0468750
        k(   29) = (   0.2500000   0.3750000   0.3750000), wk =   0.0937500
        k(   30) = (   0.2500000   0.3750000  -0.5000000), wk =   0.0937500
        k(   31) = (   0.2500000  -0.5000000  -0.5000000), wk =   0.0234375
        k(   32) = (   0.3750000   0.3750000   0.3750000), wk =   0.0312500
        k(   33) = (   0.3750000   0.3750000  -0.5000000), wk =   0.0468750
        k(   34) = (   0.3750000  -0.5000000  -0.5000000), wk =   0.0234375
        k(   35) = (  -0.5000000  -0.5000000  -0.5000000), wk =   0.0039062

     Dense  grid:   347595 G-vectors     FFT dimensions: (  90,  90,  90)

     Smooth grid:   122969 G-vectors     FFT dimensions: (  64,  64,  64)

     Estimated max dynamical RAM per process >     300.87 MB

     Estimated total dynamical RAM >       2.10 GB

     Initial potential from superposition of free atoms

     starting charge      69.9796, renormalised to      70.0000
     Starting wfcs are   48 randomized atomic wfcs
     Checking if some PAW data can be deallocated... 

     total cpu time spent up to now is        8.6 secs

     Self-consistent Calculation

     iteration #  1     ecut=   100.00 Ry     beta= 0.30
     Davidson diagonalization with overlap
     ethr =  1.00E-02,  avg # of iterations =  4.9

     Threshold (ethr) on eigenvalues was too large:
     Diagonalizing with lowered threshold

     Davidson diagonalization with overlap
     ethr =  3.14E-04,  avg # of iterations =  4.1

     total cpu time spent up to now is       39.4 secs

     total energy              =   -1222.87901302 Ry
     estimated scf accuracy    <       0.21460889 Ry

     iteration #  2     ecut=   100.00 Ry     beta= 0.30
     Davidson diagonalization with overlap
     ethr =  3.07E-04,  avg # of iterations =  2.4

     total cpu time spent up to now is       54.8 secs

     total energy              =   -1222.89566182 Ry
     estimated scf accuracy    <       0.26171574 Ry

     iteration #  3     ecut=   100.00 Ry     beta= 0.30
     Davidson diagonalization with overlap
     ethr =  3.07E-04,  avg # of iterations =  1.8

     total cpu time spent up to now is       69.0 secs

     total energy              =   -1222.92151000 Ry
     estimated scf accuracy    <       0.02170158 Ry

     iteration #  4     ecut=   100.00 Ry     beta= 0.30
     Davidson diagonalization with overlap
     ethr =  3.10E-05,  avg # of iterations =  7.8

     total cpu time spent up to now is       86.8 secs

     total energy              =   -1222.92412474 Ry
     estimated scf accuracy    <       0.00245959 Ry

     iteration #  5     ecut=   100.00 Ry     beta= 0.30
     Davidson diagonalization with overlap
     ethr =  3.51E-06,  avg # of iterations =  6.2

     total cpu time spent up to now is      103.9 secs

     total energy              =   -1222.92452730 Ry
     estimated scf accuracy    <       0.00135964 Ry

     iteration #  6     ecut=   100.00 Ry     beta= 0.30
     Davidson diagonalization with overlap
     ethr =  1.94E-06,  avg # of iterations =  2.4

     total cpu time spent up to now is      118.7 secs

     total energy              =   -1222.92471731 Ry
     estimated scf accuracy    <       0.00010362 Ry

     iteration #  7     ecut=   100.00 Ry     beta= 0.30
     Davidson diagonalization with overlap
     ethr =  1.48E-07,  avg # of iterations =  2.4

     total cpu time spent up to now is      133.5 secs

     total energy              =   -1222.92473220 Ry
     estimated scf accuracy    <       0.00000244 Ry

     iteration #  8     ecut=   100.00 Ry     beta= 0.30
     Davidson diagonalization with overlap
     ethr =  3.49E-09,  avg # of iterations =  4.4

     total cpu time spent up to now is      151.9 secs

     total energy              =   -1222.92473326 Ry
     estimated scf accuracy    <       0.00000133 Ry

     iteration #  9     ecut=   100.00 Ry     beta= 0.30
     Davidson diagonalization with overlap
     ethr =  1.90E-09,  avg # of iterations =  2.3

     total cpu time spent up to now is      167.3 secs

     total energy              =   -1222.92473352 Ry
     estimated scf accuracy    <       0.00000013 Ry

     iteration # 10     ecut=   100.00 Ry     beta= 0.30
     Davidson diagonalization with overlap
     ethr =  1.82E-10,  avg # of iterations =  2.1

     total cpu time spent up to now is      183.5 secs

     total energy              =   -1222.92473360 Ry
     estimated scf accuracy    <          3.1E-09 Ry

     iteration # 11     ecut=   100.00 Ry     beta= 0.30
     Davidson diagonalization with overlap
     ethr =  4.47E-12,  avg # of iterations =  3.1

     total cpu time spent up to now is      199.6 secs

     total energy              =   -1222.92473363 Ry
     estimated scf accuracy    <          2.4E-09 Ry

     iteration # 12     ecut=   100.00 Ry     beta= 0.30
     Davidson diagonalization with overlap
     ethr =  3.38E-12,  avg # of iterations =  2.8

     total cpu time spent up to now is      217.2 secs

     total energy              =   -1222.92473365 Ry
     estimated scf accuracy    <          1.1E-09 Ry

     iteration # 13     ecut=   100.00 Ry     beta= 0.30
     Davidson diagonalization with overlap
     ethr =  1.61E-12,  avg # of iterations =  2.0

     total cpu time spent up to now is      232.5 secs

     total energy              =   -1222.92473365 Ry
     estimated scf accuracy    <          2.7E-10 Ry

     iteration # 14     ecut=   100.00 Ry     beta= 0.30
     Davidson diagonalization with overlap
     ethr =  3.86E-13,  avg # of iterations =  2.7

     total cpu time spent up to now is      249.5 secs

     total energy              =   -1222.92473366 Ry
     estimated scf accuracy    <          1.8E-11 Ry

     iteration # 15     ecut=   100.00 Ry     beta= 0.30
     Davidson diagonalization with overlap
     ethr =  1.00E-13,  avg # of iterations =  1.8

     total cpu time spent up to now is      263.7 secs

     End of self-consistent calculation

          k = 0.0000 0.0000 0.0000 ( 15419 PWs)   bands (ev):

   -48.7523 -39.8530 -39.8530 -39.8510 -39.8305 -39.8305 -39.8305 -39.8286
   -39.8286 -39.8286 -39.8079 -39.8079 -39.8079 -39.8073 -39.8073 -39.8065
   -24.8013 -24.8013 -24.8013 -22.5633  -6.0578  -6.0578  -6.0578  -5.9750
    -4.8938  -4.8938   3.8407   3.8407   3.8407   6.2617   6.2617   6.2617
     6.5931   6.5931   6.5931   6.9665   6.9665   6.9665   8.3079   8.3079
    10.6206  12.0024

          k = 0.0000 0.0000 0.1250 ( 15387 PWs)   bands (ev):

   -48.7522 -39.8531 -39.8530 -39.8511 -39.8305 -39.8304 -39.8304 -39.8287
   -39.8287 -39.8286 -39.8079 -39.8079 -39.8079 -39.8073 -39.8073 -39.8065
   -24.8015 -24.8012 -24.8012 -22.5632  -6.1272  -6.0572  -6.0572  -5.8645
    -4.8911  -4.8850   3.6592   3.8671   3.8671   5.7831   5.7831   6.1778
     6.3472   6.5994   6.6958   6.6958   7.4041   7.4041   8.3127   8.9059
    10.8495  12.1263

          k = 0.0000 0.0000 0.2500 ( 15355 PWs)   bands (ev):

   -48.7520 -39.8535 -39.8530 -39.8514 -39.8305 -39.8302 -39.8302 -39.8289
   -39.8289 -39.8286 -39.8079 -39.8079 -39.8079 -39.8073 -39.8072 -39.8066
   -24.8021 -24.8011 -24.8011 -22.5631  -6.1992  -6.0559  -6.0559  -5.6818
    -4.8847  -4.8719   3.2243   3.9494   3.9494   5.2200   5.2200   5.5791
     5.9922   6.6145   6.6959   6.6959   8.1144   8.1144   8.3223   9.5593
    11.4576  12.4405

          k = 0.0000 0.0000 0.3750 ( 15367 PWs)   bands (ev):

   -48.7518 -39.8540 -39.8530 -39.8516 -39.8305 -39.8299 -39.8299 -39.8292
   -39.8292 -39.8286 -39.8079 -39.8079 -39.8079 -39.8073 -39.8071 -39.8067
   -24.8027 -24.8009 -24.8009 -22.5629  -6.2470  -6.0546  -6.0546  -5.4998
    -4.8782  -4.8764   2.7963   4.0914   4.0914   4.7718   4.7718   5.1046
     5.8253   6.6299   6.6835   6.6835   8.3297   8.6921   8.6921   9.8709
    12.2268  12.8818

          k = 0.0000 0.0000-0.5000 ( 15366 PWs)   bands (ev):

   -48.7517 -39.8542 -39.8530 -39.8516 -39.8305 -39.8296 -39.8296 -39.8295
   -39.8295 -39.8286 -39.8079 -39.8079 -39.8079 -39.8073 -39.8070 -39.8068
   -24.8029 -24.8009 -24.8009 -22.5628  -6.2639  -6.0540  -6.0540  -5.4158
    -4.8877  -4.8755   2.6217   4.2217   4.2217   4.5371   4.5371   4.9485
     5.7607   6.6363   6.6778   6.6778   8.3323   8.9202   8.9202   9.9551
    12.6326  13.1448

          k = 0.0000 0.1250 0.1250 ( 15350 PWs)   bands (ev):

   -48.7521 -39.8532 -39.8531 -39.8513 -39.8304 -39.8304 -39.8303 -39.8287
   -39.8287 -39.8286 -39.8079 -39.8079 -39.8079 -39.8073 -39.8073 -39.8065
   -24.8015 -24.8015 -24.8012 -22.5632  -6.1453  -6.0683  -6.0567  -5.7936
    -4.8867  -4.8781   3.5943   3.7688   3.8927   5.3531   5.6232   6.1611
     6.2619   6.2767   6.4533   7.3091   7.4560   7.4608   8.5988   9.2798
    11.0633  12.3411

          k = 0.0000 0.1250 0.2500 ( 15343 PWs)   bands (ev):

   -48.7519 -39.8535 -39.8531 -39.8516 -39.8304 -39.8302 -39.8301 -39.8289
   -39.8289 -39.8287 -39.8079 -39.8079 -39.8079 -39.8073 -39.8072 -39.8066
   -24.8020 -24.8013 -24.8010 -22.5630  -6.1897  -6.0704  -6.0553  -5.6354
    -4.8815  -4.8627   3.2052   3.7773   3.9730   4.7600   5.1812   5.7235
     6.0362   6.2638   6.3187   7.3812   8.0227   8.1117   8.6812   9.9775
    11.6399  12.6760

          k = 0.0000 0.1250 0.3750 ( 15388 PWs)   bands (ev):

   -48.7518 -39.8540 -39.8531 -39.8518 -39.8304 -39.8299 -39.8299 -39.8292
   -39.8292 -39.8287 -39.8080 -39.8079 -39.8079 -39.8073 -39.8071 -39.8067
   -24.8026 -24.8012 -24.8009 -22.5628  -6.2282  -6.0667  -6.0540  -5.4677
    -4.8766  -4.8618   2.7806   3.8633   4.1123   4.3067   4.7609   5.3608
     6.0116   6.1394   6.2834   7.3818   8.5692   8.6875   8.7311  10.3206
    12.4014  13.0902

          k = 0.0000 0.1250-0.5000 ( 15356 PWs)   bands (ev):

   -48.7517 -39.8542 -39.8531 -39.8518 -39.8304 -39.8296 -39.8295 -39.8295
   -39.8295 -39.8287 -39.8080 -39.8079 -39.8079 -39.8073 -39.8070 -39.8068
   -24.8029 -24.8011 -24.8008 -22.5627  -6.2428  -6.0649  -6.0535  -5.3901
    -4.8720  -4.8719   2.6048   3.9842   4.0650   4.2430   4.5313   5.2388
     6.0065   6.0766   6.2802   7.3815   8.6737   8.8762   8.9147  10.4002
    12.8499  13.2977

          k = 0.0000 0.2500 0.2500 ( 15372 PWs)   bands (ev):

   -48.7517 -39.8536 -39.8534 -39.8519 -39.8303 -39.8301 -39.8300 -39.8291
   -39.8289 -39.8288 -39.8080 -39.8079 -39.8078 -39.8072 -39.8072 -39.8067
   -24.8019 -24.8019 -24.8009 -22.5628  -6.1778  -6.0924  -6.0540  -5.5181
    -4.8772  -4.8398   3.0541   3.4914   4.0471   4.1491   5.0151   5.6426
     5.7449   5.8222   6.6813   8.1041   8.1067   8.1713   8.8614  10.9133
    12.1072  13.2400

          k = 0.0000 0.2500 0.3750 ( 15357 PWs)   bands (ev):

   -48.7516 -39.8540 -39.8534 -39.8521 -39.8302 -39.8299 -39.8298 -39.8293
   -39.8292 -39.8289 -39.8080 -39.8079 -39.8078 -39.8072 -39.8071 -39.8068
   -24.8025 -24.8017 -24.8007 -22.5627  -6.1854  -6.0940  -6.0526  -5.3897
    -4.8663  -4.8281   2.7002   3.4248   3.7189   4.1774   4.7222   5.4875
     5.5011   5.8175   6.7831   8.0999   8.5780   8.6769   8.9106  11.4963
    12.7880  13.6621

          k = 0.0000 0.2500-0.5000 ( 15340 PWs)   bands (ev):

   -48.7515 -39.8542 -39.8535 -39.8521 -39.8302 -39.8295 -39.8295 -39.8295
   -39.8295 -39.8289 -39.8080 -39.8079 -39.8078 -39.8072 -39.8070 -39.8068
   -24.8027 -24.8017 -24.8007 -22.5626  -6.1929  -6.0902  -6.0521  -5.3324
    -4.8519  -4.8349   2.5270   3.4578   3.5395   4.3082   4.5173   5.3943
     5.4717   5.8263   6.7809   8.0978   8.8107   8.9018   8.9160  11.6235
    13.4070  13.5446

          k = 0.0000 0.3750 0.3750 ( 15354 PWs)   bands (ev):

   -48.7514 -39.8540 -39.8539 -39.8522 -39.8300 -39.8298 -39.8297 -39.8294
   -39.8293 -39.8291 -39.8080 -39.8079 -39.8078 -39.8071 -39.8071 -39.8069
   -24.8023 -24.8023 -24.8006 -22.5625  -6.1493  -6.1151  -6.0513  -5.3148
    -4.8373  -4.8006   2.4776   3.1454   3.3279   4.2907   4.6293   5.1779
     5.5379   5.5797   7.2364   8.6569   8.6764   8.7144   8.9740  12.6531
    13.1513  13.7099

          k = 0.0000 0.3750-0.5000 ( 15360 PWs)   bands (ev):

   -48.7513 -39.8542 -39.8540 -39.8523 -39.8299 -39.8295 -39.8295 -39.8295
   -39.8295 -39.8291 -39.8080 -39.8079 -39.8078 -39.8071 -39.8070 -39.8069
   -24.8026 -24.8023 -24.8005 -22.5624  -6.1440  -6.1144  -6.0507  -5.2865
    -4.8098  -4.7988   2.3310   3.0880   3.1966   4.4148   4.5034   5.0767
     5.4776   5.5839   7.3596   8.6625   8.8524   8.8898   8.9880  13.0254
    13.4043  13.9836

          k = 0.0000-0.5000-0.5000 ( 15380 PWs)   bands (ev):

   -48.7513 -39.8542 -39.8542 -39.8523 -39.8298 -39.8295 -39.8295 -39.8295
   -39.8295 -39.8294 -39.8080 -39.8079 -39.8078 -39.8070 -39.8070 -39.8070
   -24.8025 -24.8025 -24.8005 -22.5624  -6.1240  -6.1240  -6.0501  -5.2724
    -4.7841  -4.7841   2.1983   2.9976   3.0784   4.4976   4.4976   4.8968
     5.5082   5.5082   7.5523   8.8851   8.8851   8.9343   9.0047  13.3173
    13.7528  13.9552

          k = 0.1250 0.1250 0.1250 ( 15351 PWs)   bands (ev):

   -48.7520 -39.8532 -39.8532 -39.8514 -39.8304 -39.8303 -39.8303 -39.8287
   -39.8287 -39.8287 -39.8079 -39.8079 -39.8079 -39.8073 -39.8073 -39.8066
   -24.8014 -24.8014 -24.8014 -22.5631  -6.1532  -6.0666  -6.0666  -5.7345
    -4.8769  -4.8769   3.5339   3.7878   3.7878   5.2807   5.2807   5.5796
     6.4203   6.4494   6.4494   7.4083   7.4984   7.4984   9.2826   9.2826
    11.2603  12.5539

          k = 0.1250 0.1250 0.2500 ( 15374 PWs)   bands (ev):

   -48.7518 -39.8535 -39.8532 -39.8518 -39.8303 -39.8302 -39.8301 -39.8289
   -39.8289 -39.8287 -39.8080 -39.8079 -39.8079 -39.8073 -39.8072 -39.8066
   -24.8020 -24.8013 -24.8013 -22.5629  -6.1809  -6.0729  -6.0627  -5.5907
    -4.8741  -4.8594   3.1839   3.7490   3.8471   4.7218   4.8010   5.4312
     6.0781   6.3991   6.4305   7.4704   8.0252   8.0469   9.2809  10.1419
    11.7947  12.8660

          k = 0.1250 0.1250 0.3750 ( 15363 PWs)   bands (ev):

   -48.7517 -39.8540 -39.8532 -39.8520 -39.8303 -39.8299 -39.8299 -39.8292
   -39.8292 -39.8287 -39.8080 -39.8079 -39.8078 -39.8073 -39.8071 -39.8067
   -24.8026 -24.8011 -24.8011 -22.5627  -6.2113  -6.0709  -6.0587  -5.4329
    -4.8713  -4.8548   2.7642   3.8121   3.9548   4.2363   4.4168   5.4408
     5.7696   6.2755   6.4170   7.4860   8.6072   8.6215   9.2529  10.5530
    12.5131  13.2104

          k = 0.1250 0.1250-0.5000 ( 15350 PWs)   bands (ev):

   -48.7516 -39.8542 -39.8532 -39.8520 -39.8303 -39.8296 -39.8296 -39.8295
   -39.8295 -39.8287 -39.8080 -39.8079 -39.8078 -39.8073 -39.8070 -39.8068
   -24.8028 -24.8011 -24.8011 -22.5627  -6.2237  -6.0694  -6.0571  -5.3595
    -4.8701  -4.8597   2.5870   3.9199   3.9928   4.0907   4.1866   5.4630
     5.6438   6.2196   6.4113   7.4914   8.8548   8.8971   9.2037  10.6449
    13.0273  13.1646

          k = 0.1250 0.2500 0.2500 ( 15377 PWs)   bands (ev):

   -48.7517 -39.8536 -39.8534 -39.8521 -39.8302 -39.8301 -39.8300 -39.8291
   -39.8290 -39.8289 -39.8080 -39.8079 -39.8078 -39.8072 -39.8072 -39.8067
   -24.8018 -24.8018 -24.8011 -22.5628  -6.1687  -6.0884  -6.0621  -5.4754
    -4.8682  -4.8420   3.0312   3.4995   3.8594   4.1613   4.6708   4.9482
     6.1772   6.2055   6.7090   7.9477   8.1174   8.1950   9.6430  10.9168
    12.1802  13.3247

          k = 0.1250 0.2500 0.3750 ( 15329 PWs)   bands (ev):

   -48.7515 -39.8540 -39.8535 -39.8523 -39.8302 -39.8299 -39.8298 -39.8293
   -39.8292 -39.8289 -39.8080 -39.8079 -39.8078 -39.8072 -39.8071 -39.8068
   -24.8024 -24.8017 -24.8010 -22.5626  -6.1729  -6.0912  -6.0585  -5.3470
    -4.8622  -4.8293   2.6802   3.4266   3.7297   3.9468   4.3502   4.8892
     5.9696   6.2139   6.8047   8.0352   8.5802   8.6359   9.6672  11.5243
    12.6686  13.4927

          k = 0.1250 0.2500-0.5000 ( 15340 PWs)   bands (ev):

   -48.7514 -39.8542 -39.8535 -39.8524 -39.8302 -39.8296 -39.8296 -39.8295
   -39.8295 -39.8289 -39.8080 -39.8079 -39.8078 -39.8072 -39.8070 -39.8068
   -24.8026 -24.8016 -24.8009 -22.5625  -6.1787  -6.0886  -6.0568  -5.2892
    -4.8550  -4.8306   2.5056   3.4559   3.5521   4.0718   4.1310   4.8942
     5.8852   6.2196   6.8025   8.0441   8.8077   8.8877   9.6416  11.6605
    12.9203  13.4509

          k = 0.1250 0.3750 0.3750 ( 15341 PWs)   bands (ev):

   -48.7513 -39.8540 -39.8539 -39.8525 -39.8300 -39.8298 -39.8297 -39.8294
   -39.8293 -39.8291 -39.8080 -39.8079 -39.8078 -39.8071 -39.8071 -39.8069
   -24.8023 -24.8022 -24.8008 -22.5624  -6.1405  -6.1089  -6.0559  -5.2634
    -4.8383  -4.8058   2.4525   3.1489   3.3492   4.0135   4.2780   4.6056
     6.0224   6.0306   7.2441   8.5643   8.6659   8.7341   9.7260  12.6613
    12.6846  13.7105

          k = 0.1250 0.3750-0.5000 ( 15368 PWs)   bands (ev):

   -48.7513 -39.8542 -39.8540 -39.8526 -39.8299 -39.8296 -39.8296 -39.8295
   -39.8295 -39.8292 -39.8081 -39.8079 -39.8078 -39.8071 -39.8070 -39.8069
   -24.8025 -24.8022 -24.8008 -22.5624  -6.1349  -6.1089  -6.0548  -5.2317
    -4.8161  -4.8021   2.3037   3.0904   3.2207   4.1155   4.1419   4.5523
     5.9563   6.0434   7.3670   8.6162   8.8509   8.8913   9.7076  12.6720
    13.0371  13.8247

          k = 0.1250-0.5000-0.5000 ( 15348 PWs)   bands (ev):

   -48.7512 -39.8542 -39.8542 -39.8526 -39.8297 -39.8296 -39.8296 -39.8295
   -39.8295 -39.8294 -39.8081 -39.8079 -39.8078 -39.8070 -39.8070 -39.8070
   -24.8024 -24.8024 -24.8007 -22.5623  -6.1171  -6.1171  -6.0538  -5.2138
    -4.7905  -4.7905   2.1687   2.9995   3.1056   4.1475   4.1475   4.4280
     5.9783   5.9783   7.5595   8.8751   8.8751   8.9499   9.6870  12.5718
    13.9610  14.1567

          k = 0.2500 0.2500 0.2500 ( 15390 PWs)   bands (ev):

   -48.7515 -39.8536 -39.8536 -39.8526 -39.8301 -39.8300 -39.8300 -39.8291
   -39.8291 -39.8290 -39.8080 -39.8078 -39.8078 -39.8072 -39.8072 -39.8068
   -24.8017 -24.8017 -24.8017 -22.5626  -6.1518  -6.0786  -6.0786  -5.3639
    -4.8473  -4.8473   2.8994   3.5248   3.5248   4.1596   4.2102   4.2102
     6.5022   6.5022   6.8458   8.0517   8.2783   8.2783  10.9035  10.9035
    12.2915  13.6337

          k = 0.2500 0.2500 0.3750 ( 15354 PWs)   bands (ev):

   -48.7513 -39.8540 -39.8536 -39.8529 -39.8300 -39.8298 -39.8298 -39.8293
   -39.8293 -39.8290 -39.8081 -39.8078 -39.8078 -39.8072 -39.8071 -39.8068
   -24.8023 -24.8015 -24.8015 -22.5624  -6.1446  -6.0877  -6.0687  -5.2399
    -4.8528  -4.8278   2.5834   3.3792   3.5734   3.6992   3.8753   4.2237
     6.5520   6.5762   6.9432   8.2017   8.5849   8.6619  10.8465  11.7423
    12.3346  13.5556

          k = 0.2500 0.2500-0.5000 ( 15312 PWs)   bands (ev):

   -48.7512 -39.8542 -39.8536 -39.8529 -39.8300 -39.8296 -39.8296 -39.8295
   -39.8295 -39.8290 -39.8081 -39.8078 -39.8078 -39.8071 -39.8070 -39.8069
   -24.8025 -24.8015 -24.8015 -22.5624  -6.1454  -6.0883  -6.0645  -5.1844
    -4.8551  -4.8203   2.4103   3.3780   3.5295   3.6484   3.7023   4.2366
     6.5399   6.5925   6.9479   8.2291   8.8000   8.8865  10.8005  11.9345
    12.3304  13.5146

          k = 0.2500 0.3750 0.3750 ( 15353 PWs)   bands (ev):

   -48.7512 -39.8540 -39.8539 -39.8532 -39.8299 -39.8298 -39.8297 -39.8294
   -39.8293 -39.8292 -39.8081 -39.8078 -39.8078 -39.8071 -39.8071 -39.8069
   -24.8021 -24.8021 -24.8014 -22.5623  -6.1199  -6.0939  -6.0672  -5.1328
    -4.8392  -4.8186   2.3439   3.1591   3.3996   3.5362   3.8133   3.8618
     6.6933   6.7245   7.2696   8.5676   8.6871   8.7817  11.1518  12.0361
    12.6354  13.5191

          k = 0.2500 0.3750-0.5000 ( 15354 PWs)   bands (ev):

   -48.7511 -39.8542 -39.8540 -39.8532 -39.8299 -39.8296 -39.8296 -39.8295
   -39.8294 -39.8292 -39.8081 -39.8078 -39.8078 -39.8071 -39.8070 -39.8069
   -24.8023 -24.8020 -24.8013 -22.5622  -6.1132  -6.0956  -6.0643  -5.0922
    -4.8306  -4.8103   2.1922   3.0954   3.2792   3.5858   3.6706   3.8536
     6.7249   6.7304   7.3879   8.6445   8.8479   8.9254  11.1289  11.9250
    12.9687  13.5547

          k = 0.2500-0.5000-0.5000 ( 15324 PWs)   bands (ev):

   -48.7510 -39.8542 -39.8542 -39.8533 -39.8297 -39.8297 -39.8297 -39.8294
   -39.8294 -39.8294 -39.8081 -39.8078 -39.8078 -39.8070 -39.8070 -39.8070
   -24.8023 -24.8023 -24.8013 -22.5621  -6.1001  -6.1001  -6.0627  -5.0643
    -4.8062  -4.8062   2.0527   3.0043   3.1725   3.6405   3.6835   3.6835
     6.7505   6.7505   7.5769   8.8787   8.8787   8.9916  11.1056  11.7807
    13.5375  13.9764

          k = 0.3750 0.3750 0.3750 ( 15345 PWs)   bands (ev):

   -48.7510 -39.8540 -39.8540 -39.8537 -39.8298 -39.8297 -39.8297 -39.8294
   -39.8294 -39.8293 -39.8081 -39.8078 -39.8078 -39.8070 -39.8070 -39.8069
   -24.8020 -24.8020 -24.8020 -22.5621  -6.1002  -6.0785  -6.0785  -4.9979
    -4.8318  -4.8318   2.1110   3.1758   3.1758   3.4128   3.4975   3.4975
     7.1589   7.1589   7.3550   8.7266   8.8416   8.8416  11.5825  12.4904
    12.4905  13.1114

          k = 0.3750 0.3750-0.5000 ( 15310 PWs)   bands (ev):

   -48.7509 -39.8542 -39.8540 -39.8538 -39.8298 -39.8297 -39.8296 -39.8294
   -39.8294 -39.8293 -39.8081 -39.8078 -39.8078 -39.8070 -39.8070 -39.8070
   -24.8022 -24.8019 -24.8019 -22.5620  -6.0916  -6.0839  -6.0721  -4.9477
    -4.8374  -4.8188   1.9678   3.0767   3.1904   3.3184   3.3805   3.4928
     7.2243   7.2958   7.4507   8.8198   8.9178   8.9801  11.4208  12.3677
    12.7399  13.1988

          k = 0.3750-0.5000-0.5000 ( 15328 PWs)   bands (ev):

   -48.7508 -39.8542 -39.8542 -39.8539 -39.8297 -39.8297 -39.8297 -39.8294
   -39.8294 -39.8294 -39.8081 -39.8078 -39.8078 -39.8070 -39.8070 -39.8070
   -24.8021 -24.8021 -24.8018 -22.5620  -6.0826  -6.0826  -6.0715  -4.9014
    -4.8224  -4.8224   1.8318   3.0090   3.1466   3.2414   3.3761   3.3761
     7.3767   7.3767   7.5946   8.9690   8.9690   9.0416  11.2414  12.3699
    12.9279  12.9279

          k =-0.5000-0.5000-0.5000 ( 15312 PWs)   bands (ev):

   -48.7508 -39.8542 -39.8542 -39.8542 -39.8297 -39.8297 -39.8297 -39.8294
   -39.8294 -39.8294 -39.8082 -39.8078 -39.8078 -39.8070 -39.8070 -39.8070
   -24.8021 -24.8021 -24.8021 -22.5619  -6.0752  -6.0752  -6.0752  -4.8293
    -4.8293  -4.8293   1.7002   3.0110   3.0110   3.2705   3.2705   3.2705
     7.6020   7.6020   7.6020   9.0659   9.0659   9.0659  11.0475  12.6397
    12.6397  12.6397

     the Fermi energy is     7.3788 ev

!    total energy              =   -1222.92473366 Ry
     estimated scf accuracy    <          8.1E-13 Ry
     smearing contrib. (-TS)   =      -0.00099671 Ry
     internal energy E=F+TS    =   -1222.92373695 Ry

     The total energy is F=E-TS. E is the sum of the following terms:
     one-electron contribution =    -754.09535712 Ry
     hartree contribution      =     394.75034621 Ry
     xc contribution           =    -115.16788900 Ry
     ewald contribution        =    -474.21098864 Ry
     one-center paw contrib.   =    -274.19984840 Ry

     convergence has been achieved in  15 iterations

     Writing all to output data dir ./tmp/KNbSe3.save/ :
     XML data file, charge density, pseudopotentials, collected wavefunctions

     init_run     :      8.58s CPU      8.01s WALL (       1 calls)
     electrons    :    310.01s CPU    255.12s WALL (       1 calls)

     Called by init_run:
     wfcinit      :      5.27s CPU      4.42s WALL (       1 calls)
     potinit      :      0.84s CPU      0.93s WALL (       1 calls)
     hinit0       :      1.36s CPU      1.39s WALL (       1 calls)

     Called by electrons:
     c_bands      :    221.54s CPU    174.71s WALL (      16 calls)
     sum_band     :     67.64s CPU     57.31s WALL (      16 calls)
     v_of_rho     :      5.96s CPU      6.61s WALL (      16 calls)
     newd         :     12.64s CPU     14.50s WALL (      16 calls)
     PAW_pot      :      2.10s CPU      2.13s WALL (      16 calls)
     mix_rho      :      0.50s CPU      0.51s WALL (      16 calls)

     Called by c_bands:
     init_us_2    :      6.55s CPU      4.69s WALL (     297 calls)
     cegterg      :    194.59s CPU    153.76s WALL (     144 calls)

     Called by *egterg:
     cdiaghg      :      4.46s CPU      3.18s WALL (     588 calls)
     h_psi        :    144.06s CPU    124.74s WALL (     606 calls)
     s_psi        :      9.11s CPU      4.89s WALL (     606 calls)
     g_psi        :      1.11s CPU      0.79s WALL (     453 calls)

     Called by h_psi:
     h_psi:calbec :     10.09s CPU      5.50s WALL (     606 calls)
     vloc_psi     :    122.97s CPU    112.15s WALL (     606 calls)
     add_vuspsi   :      9.40s CPU      5.02s WALL (     606 calls)

     General routines
     calbec       :     14.19s CPU      7.73s WALL (     750 calls)
     fft          :      3.68s CPU      4.00s WALL (     207 calls)
     ffts         :      0.43s CPU      0.39s WALL (      32 calls)
     fftw         :    108.93s CPU     98.01s WALL (   35428 calls)
     interpolate  :      0.65s CPU      0.66s WALL (      16 calls)

     Parallel routines

     PWSCF        :   5m19.26s CPU   4m23.97s WALL


   This run was terminated on:  21: 2:11  13May2025            

=------------------------------------------------------------------------------=
   JOB DONE.
=------------------------------------------------------------------------------=
