
     Program PWSCF v.7.3.1 starts on  7May2025 at 15:36:42 

     This program is part of the open-source Quantum ESPRESSO suite
     for quantum simulation of materials; please cite
         "P. Giannozzi et al., J. Phys.:Condens. Matter 21 395502 (2009);
         "P. Giannozzi et al., J. Phys.:Condens. Matter 29 465901 (2017);
         "P. Giannozzi et al., J. Chem. Phys. 152 154105 (2020);
          URL http://www.quantum-espresso.org", 
     in publications or presentations arising from this work. More details at
     http://www.quantum-espresso.org/quote

     Parallel version (MPI), running on     8 processors

     MPI processes distributed on     1 nodes
     47526 MiB available memory on the printing compute node when the environment starts

     Waiting for input...
     Reading input from standard input

     Current dimensions of program PWSCF are:
     Max number of different atomic species (ntypx) = 10
     Max number of k-points (npk) = 120000
     Max angular momentum in pseudopotentials (lmaxx) =  4
     file Rb.pbe-spn-rrkjus_psl.1.0.0.UPF: wavefunction(s)  4S renormalized
     file Sb.pbe-n-rrkjus_psl.1.0.0.UPF: wavefunction(s)  5S renormalized
     file S.pbe-n-kjpaw_psl.1.0.0.UPF: wavefunction(s)  3S 3P renormalized

     IMPORTANT: XC functional enforced from input :
     Exchange-correlation= PBE
                           (   1   4   3   4   0   0   0)
     Any further DFT definition will be discarded
     Please, verify this is what you really want

     Message from routine setup:
     using ibrav=0 with symmetry is DISCOURAGED, use correct ibrav instead

     K-points division:     npool     =       2
     R & G space division:  proc/nbgrp/npool/nimage =       4
     Subspace diagonalization in iterative solution of the eigenvalue problem:
     a serial algorithm will be used


     Parallelization info
     --------------------
     sticks:   dense  smooth     PW     G-vecs:    dense   smooth      PW
     Min        1516     760    212                88779    31427    4653
     Max        1517     761    215                88780    31428    4654
     Sum        6065    3041    853               355119   125711   18613

     Using Slab Decomposition



     bravais-lattice index     =            0
     lattice parameter (alat)  =       9.7614  a.u.
     unit-cell volume          =     930.1080 (a.u.)^3
     number of atoms/cell      =            5
     number of atomic types    =            3
     number of electrons       =        32.00
     number of Kohn-Sham states=           16
     kinetic-energy cutoff     =     100.0000  Ry
     charge density cutoff     =     800.0000  Ry
     scf convergence threshold =      1.0E-12
     mixing beta               =       0.3000
     number of iterations used =            8  plain     mixing
     Exchange-correlation= PBE
                           (   1   4   3   4   0   0   0)

     celldm(1)=   9.761378  celldm(2)=   0.000000  celldm(3)=   0.000000
     celldm(4)=   0.000000  celldm(5)=   0.000000  celldm(6)=   0.000000

     crystal axes: (cart. coord. in units of alat)
               a(1) = (   1.000000   0.000000   0.000000 )  
               a(2) = (   0.000000   1.000000   0.000000 )  
               a(3) = (   0.000000   0.000000   1.000000 )  

     reciprocal axes: (cart. coord. in units 2 pi/alat)
               b(1) = (  1.000000  0.000000  0.000000 )  
               b(2) = (  0.000000  1.000000  0.000000 )  
               b(3) = (  0.000000  0.000000  1.000000 )  


     PseudoPot. # 1 for Rb read from file:
     /home/administrator/Downloads/BURAI/BURAI1.3/pseudopot/Rb.pbe-spn-rrkjus_psl.1.0.0.UPF
     MD5 check sum: 8db0524251f08d4bb5a0a04c31658078
     Pseudo is Ultrasoft + core correction, Zval =  9.0
     Generated using "atomic" code by A. Dal Corso  v.5.1.2
     Using radial grid of 1219 points,  6 beta functions with: 
                l(1) =   0
                l(2) =   0
                l(3) =   1
                l(4) =   1
                l(5) =   2
                l(6) =   2
     Q(r) pseudized with 0 coefficients 


     PseudoPot. # 2 for Sb read from file:
     /home/administrator/Downloads/BURAI/BURAI1.3/pseudopot/Sb.pbe-n-rrkjus_psl.1.0.0.UPF
     MD5 check sum: 99f1e92b97b0a665abbfefde3108088e
     Pseudo is Ultrasoft + core correction, Zval =  5.0
     Generated using "atomic" code by A. Dal Corso  v.5.1.2
     Using radial grid of 1243 points,  6 beta functions with: 
                l(1) =   0
                l(2) =   0
                l(3) =   1
                l(4) =   1
                l(5) =   2
                l(6) =   2
     Q(r) pseudized with 0 coefficients 


     PseudoPot. # 3 for S  read from file:
     /home/administrator/Downloads/BURAI/BURAI1.3/pseudopot/S.pbe-n-kjpaw_psl.1.0.0.UPF
     MD5 check sum: cb96b46a5ee63c4f5db34501b74ad364
     Pseudo is Projector augmented-wave + core cor, Zval =  6.0
     Generated using "atomic" code by A. Dal Corso  v.5.1.2
     Shape of augmentation charge: PSQ
     Using radial grid of 1151 points,  6 beta functions with: 
                l(1) =   0
                l(2) =   0
                l(3) =   1
                l(4) =   1
                l(5) =   2
                l(6) =   2
     Q(r) pseudized with 0 coefficients 


     atomic species   valence    mass     pseudopotential
     Rb                9.00    85.46780     Rb( 1.00)
     Sb                5.00   121.76000     Sb( 1.00)
     S                 6.00    32.06500     S ( 1.00)

     48 Sym. Ops., with inversion, found


                                    s                        frac. trans.

      isym =  1     identity                                     

 cryst.   s( 1) = (     1          0          0      )
                  (     0          1          0      )
                  (     0          0          1      )

 cart.    s( 1) = (  1.0000000  0.0000000  0.0000000 )
                  (  0.0000000  1.0000000  0.0000000 )
                  (  0.0000000  0.0000000  1.0000000 )


      isym =  2     180 deg rotation - cart. axis [0,0,1]        

 cryst.   s( 2) = (    -1          0          0      )
                  (     0         -1          0      )
                  (     0          0          1      )

 cart.    s( 2) = ( -1.0000000  0.0000000  0.0000000 )
                  (  0.0000000 -1.0000000  0.0000000 )
                  (  0.0000000  0.0000000  1.0000000 )


      isym =  3     180 deg rotation - cart. axis [0,1,0]        

 cryst.   s( 3) = (    -1          0          0      )
                  (     0          1          0      )
                  (     0          0         -1      )

 cart.    s( 3) = ( -1.0000000  0.0000000  0.0000000 )
                  (  0.0000000  1.0000000  0.0000000 )
                  (  0.0000000  0.0000000 -1.0000000 )


      isym =  4     180 deg rotation - cart. axis [1,0,0]        

 cryst.   s( 4) = (     1          0          0      )
                  (     0         -1          0      )
                  (     0          0         -1      )

 cart.    s( 4) = (  1.0000000  0.0000000  0.0000000 )
                  (  0.0000000 -1.0000000  0.0000000 )
                  (  0.0000000  0.0000000 -1.0000000 )


      isym =  5     180 deg rotation - cart. axis [1,1,0]        

 cryst.   s( 5) = (     0          1          0      )
                  (     1          0          0      )
                  (     0          0         -1      )

 cart.    s( 5) = (  0.0000000  1.0000000  0.0000000 )
                  (  1.0000000  0.0000000  0.0000000 )
                  (  0.0000000  0.0000000 -1.0000000 )


      isym =  6     180 deg rotation - cart. axis [1,-1,0]       

 cryst.   s( 6) = (     0         -1          0      )
                  (    -1          0          0      )
                  (     0          0         -1      )

 cart.    s( 6) = (  0.0000000 -1.0000000  0.0000000 )
                  ( -1.0000000  0.0000000  0.0000000 )
                  (  0.0000000  0.0000000 -1.0000000 )


      isym =  7      90 deg rotation - cart. axis [0,0,-1]       

 cryst.   s( 7) = (     0         -1          0      )
                  (     1          0          0      )
                  (     0          0          1      )

 cart.    s( 7) = (  0.0000000  1.0000000  0.0000000 )
                  ( -1.0000000  0.0000000  0.0000000 )
                  (  0.0000000  0.0000000  1.0000000 )


      isym =  8      90 deg rotation - cart. axis [0,0,1]        

 cryst.   s( 8) = (     0          1          0      )
                  (    -1          0          0      )
                  (     0          0          1      )

 cart.    s( 8) = (  0.0000000 -1.0000000  0.0000000 )
                  (  1.0000000  0.0000000  0.0000000 )
                  (  0.0000000  0.0000000  1.0000000 )


      isym =  9     180 deg rotation - cart. axis [1,0,1]        

 cryst.   s( 9) = (     0          0          1      )
                  (     0         -1          0      )
                  (     1          0          0      )

 cart.    s( 9) = (  0.0000000  0.0000000  1.0000000 )
                  (  0.0000000 -1.0000000  0.0000000 )
                  (  1.0000000  0.0000000  0.0000000 )


      isym = 10     180 deg rotation - cart. axis [-1,0,1]       

 cryst.   s(10) = (     0          0         -1      )
                  (     0         -1          0      )
                  (    -1          0          0      )

 cart.    s(10) = (  0.0000000  0.0000000 -1.0000000 )
                  (  0.0000000 -1.0000000  0.0000000 )
                  ( -1.0000000  0.0000000  0.0000000 )


      isym = 11      90 deg rotation - cart. axis [0,1,0]        

 cryst.   s(11) = (     0          0         -1      )
                  (     0          1          0      )
                  (     1          0          0      )

 cart.    s(11) = (  0.0000000  0.0000000  1.0000000 )
                  (  0.0000000  1.0000000  0.0000000 )
                  ( -1.0000000  0.0000000  0.0000000 )


      isym = 12      90 deg rotation - cart. axis [0,-1,0]       

 cryst.   s(12) = (     0          0          1      )
                  (     0          1          0      )
                  (    -1          0          0      )

 cart.    s(12) = (  0.0000000  0.0000000 -1.0000000 )
                  (  0.0000000  1.0000000  0.0000000 )
                  (  1.0000000  0.0000000  0.0000000 )


      isym = 13     180 deg rotation - cart. axis [0,1,1]        

 cryst.   s(13) = (    -1          0          0      )
                  (     0          0          1      )
                  (     0          1          0      )

 cart.    s(13) = ( -1.0000000  0.0000000  0.0000000 )
                  (  0.0000000  0.0000000  1.0000000 )
                  (  0.0000000  1.0000000  0.0000000 )


      isym = 14     180 deg rotation - cart. axis [0,1,-1]       

 cryst.   s(14) = (    -1          0          0      )
                  (     0          0         -1      )
                  (     0         -1          0      )

 cart.    s(14) = ( -1.0000000  0.0000000  0.0000000 )
                  (  0.0000000  0.0000000 -1.0000000 )
                  (  0.0000000 -1.0000000  0.0000000 )


      isym = 15      90 deg rotation - cart. axis [-1,0,0]       

 cryst.   s(15) = (     1          0          0      )
                  (     0          0         -1      )
                  (     0          1          0      )

 cart.    s(15) = (  1.0000000  0.0000000  0.0000000 )
                  (  0.0000000  0.0000000  1.0000000 )
                  (  0.0000000 -1.0000000  0.0000000 )


      isym = 16      90 deg rotation - cart. axis [1,0,0]        

 cryst.   s(16) = (     1          0          0      )
                  (     0          0          1      )
                  (     0         -1          0      )

 cart.    s(16) = (  1.0000000  0.0000000  0.0000000 )
                  (  0.0000000  0.0000000 -1.0000000 )
                  (  0.0000000  1.0000000  0.0000000 )


      isym = 17     120 deg rotation - cart. axis [-1,-1,-1]     

 cryst.   s(17) = (     0          0          1      )
                  (     1          0          0      )
                  (     0          1          0      )

 cart.    s(17) = (  0.0000000  1.0000000  0.0000000 )
                  (  0.0000000  0.0000000  1.0000000 )
                  (  1.0000000  0.0000000  0.0000000 )


      isym = 18     120 deg rotation - cart. axis [-1,1,1]       

 cryst.   s(18) = (     0          0         -1      )
                  (    -1          0          0      )
                  (     0          1          0      )

 cart.    s(18) = (  0.0000000 -1.0000000  0.0000000 )
                  (  0.0000000  0.0000000  1.0000000 )
                  ( -1.0000000  0.0000000  0.0000000 )


      isym = 19     120 deg rotation - cart. axis [1,1,-1]       

 cryst.   s(19) = (     0          0         -1      )
                  (     1          0          0      )
                  (     0         -1          0      )

 cart.    s(19) = (  0.0000000  1.0000000  0.0000000 )
                  (  0.0000000  0.0000000 -1.0000000 )
                  ( -1.0000000  0.0000000  0.0000000 )


      isym = 20     120 deg rotation - cart. axis [1,-1,1]       

 cryst.   s(20) = (     0          0          1      )
                  (    -1          0          0      )
                  (     0         -1          0      )

 cart.    s(20) = (  0.0000000 -1.0000000  0.0000000 )
                  (  0.0000000  0.0000000 -1.0000000 )
                  (  1.0000000  0.0000000  0.0000000 )


      isym = 21     120 deg rotation - cart. axis [1,1,1]        

 cryst.   s(21) = (     0          1          0      )
                  (     0          0          1      )
                  (     1          0          0      )

 cart.    s(21) = (  0.0000000  0.0000000  1.0000000 )
                  (  1.0000000  0.0000000  0.0000000 )
                  (  0.0000000  1.0000000  0.0000000 )


      isym = 22     120 deg rotation - cart. axis [-1,1,-1]      

 cryst.   s(22) = (     0         -1          0      )
                  (     0          0         -1      )
                  (     1          0          0      )

 cart.    s(22) = (  0.0000000  0.0000000  1.0000000 )
                  ( -1.0000000  0.0000000  0.0000000 )
                  (  0.0000000 -1.0000000  0.0000000 )


      isym = 23     120 deg rotation - cart. axis [1,-1,-1]      

 cryst.   s(23) = (     0         -1          0      )
                  (     0          0          1      )
                  (    -1          0          0      )

 cart.    s(23) = (  0.0000000  0.0000000 -1.0000000 )
                  ( -1.0000000  0.0000000  0.0000000 )
                  (  0.0000000  1.0000000  0.0000000 )


      isym = 24     120 deg rotation - cart. axis [-1,-1,1]      

 cryst.   s(24) = (     0          1          0      )
                  (     0          0         -1      )
                  (    -1          0          0      )

 cart.    s(24) = (  0.0000000  0.0000000 -1.0000000 )
                  (  1.0000000  0.0000000  0.0000000 )
                  (  0.0000000 -1.0000000  0.0000000 )


      isym = 25     inversion                                    

 cryst.   s(25) = (    -1          0          0      )
                  (     0         -1          0      )
                  (     0          0         -1      )

 cart.    s(25) = ( -1.0000000  0.0000000  0.0000000 )
                  (  0.0000000 -1.0000000  0.0000000 )
                  (  0.0000000  0.0000000 -1.0000000 )


      isym = 26     inv. 180 deg rotation - cart. axis [0,0,1]   

 cryst.   s(26) = (     1          0          0      )
                  (     0          1          0      )
                  (     0          0         -1      )

 cart.    s(26) = (  1.0000000  0.0000000  0.0000000 )
                  (  0.0000000  1.0000000  0.0000000 )
                  (  0.0000000  0.0000000 -1.0000000 )


      isym = 27     inv. 180 deg rotation - cart. axis [0,1,0]   

 cryst.   s(27) = (     1          0          0      )
                  (     0         -1          0      )
                  (     0          0          1      )

 cart.    s(27) = (  1.0000000  0.0000000  0.0000000 )
                  (  0.0000000 -1.0000000  0.0000000 )
                  (  0.0000000  0.0000000  1.0000000 )


      isym = 28     inv. 180 deg rotation - cart. axis [1,0,0]   

 cryst.   s(28) = (    -1          0          0      )
                  (     0          1          0      )
                  (     0          0          1      )

 cart.    s(28) = ( -1.0000000  0.0000000  0.0000000 )
                  (  0.0000000  1.0000000  0.0000000 )
                  (  0.0000000  0.0000000  1.0000000 )


      isym = 29     inv. 180 deg rotation - cart. axis [1,1,0]   

 cryst.   s(29) = (     0         -1          0      )
                  (    -1          0          0      )
                  (     0          0          1      )

 cart.    s(29) = (  0.0000000 -1.0000000  0.0000000 )
                  ( -1.0000000  0.0000000  0.0000000 )
                  (  0.0000000  0.0000000  1.0000000 )


      isym = 30     inv. 180 deg rotation - cart. axis [1,-1,0]  

 cryst.   s(30) = (     0          1          0      )
                  (     1          0          0      )
                  (     0          0          1      )

 cart.    s(30) = (  0.0000000  1.0000000  0.0000000 )
                  (  1.0000000  0.0000000  0.0000000 )
                  (  0.0000000  0.0000000  1.0000000 )


      isym = 31     inv.  90 deg rotation - cart. axis [0,0,-1]  

 cryst.   s(31) = (     0          1          0      )
                  (    -1          0          0      )
                  (     0          0         -1      )

 cart.    s(31) = (  0.0000000 -1.0000000  0.0000000 )
                  (  1.0000000  0.0000000  0.0000000 )
                  (  0.0000000  0.0000000 -1.0000000 )


      isym = 32     inv.  90 deg rotation - cart. axis [0,0,1]   

 cryst.   s(32) = (     0         -1          0      )
                  (     1          0          0      )
                  (     0          0         -1      )

 cart.    s(32) = (  0.0000000  1.0000000  0.0000000 )
                  ( -1.0000000  0.0000000  0.0000000 )
                  (  0.0000000  0.0000000 -1.0000000 )


      isym = 33     inv. 180 deg rotation - cart. axis [1,0,1]   

 cryst.   s(33) = (     0          0         -1      )
                  (     0          1          0      )
                  (    -1          0          0      )

 cart.    s(33) = (  0.0000000  0.0000000 -1.0000000 )
                  (  0.0000000  1.0000000  0.0000000 )
                  ( -1.0000000  0.0000000  0.0000000 )


      isym = 34     inv. 180 deg rotation - cart. axis [-1,0,1]  

 cryst.   s(34) = (     0          0          1      )
                  (     0          1          0      )
                  (     1          0          0      )

 cart.    s(34) = (  0.0000000  0.0000000  1.0000000 )
                  (  0.0000000  1.0000000  0.0000000 )
                  (  1.0000000  0.0000000  0.0000000 )


      isym = 35     inv.  90 deg rotation - cart. axis [0,1,0]   

 cryst.   s(35) = (     0          0          1      )
                  (     0         -1          0      )
                  (    -1          0          0      )

 cart.    s(35) = (  0.0000000  0.0000000 -1.0000000 )
                  (  0.0000000 -1.0000000  0.0000000 )
                  (  1.0000000  0.0000000  0.0000000 )


      isym = 36     inv.  90 deg rotation - cart. axis [0,-1,0]  

 cryst.   s(36) = (     0          0         -1      )
                  (     0         -1          0      )
                  (     1          0          0      )

 cart.    s(36) = (  0.0000000  0.0000000  1.0000000 )
                  (  0.0000000 -1.0000000  0.0000000 )
                  ( -1.0000000  0.0000000  0.0000000 )


      isym = 37     inv. 180 deg rotation - cart. axis [0,1,1]   

 cryst.   s(37) = (     1          0          0      )
                  (     0          0         -1      )
                  (     0         -1          0      )

 cart.    s(37) = (  1.0000000  0.0000000  0.0000000 )
                  (  0.0000000  0.0000000 -1.0000000 )
                  (  0.0000000 -1.0000000  0.0000000 )


      isym = 38     inv. 180 deg rotation - cart. axis [0,1,-1]  

 cryst.   s(38) = (     1          0          0      )
                  (     0          0          1      )
                  (     0          1          0      )

 cart.    s(38) = (  1.0000000  0.0000000  0.0000000 )
                  (  0.0000000  0.0000000  1.0000000 )
                  (  0.0000000  1.0000000  0.0000000 )


      isym = 39     inv.  90 deg rotation - cart. axis [-1,0,0]  

 cryst.   s(39) = (    -1          0          0      )
                  (     0          0          1      )
                  (     0         -1          0      )

 cart.    s(39) = ( -1.0000000  0.0000000  0.0000000 )
                  (  0.0000000  0.0000000 -1.0000000 )
                  (  0.0000000  1.0000000  0.0000000 )


      isym = 40     inv.  90 deg rotation - cart. axis [1,0,0]   

 cryst.   s(40) = (    -1          0          0      )
                  (     0          0         -1      )
                  (     0          1          0      )

 cart.    s(40) = ( -1.0000000  0.0000000  0.0000000 )
                  (  0.0000000  0.0000000  1.0000000 )
                  (  0.0000000 -1.0000000  0.0000000 )


      isym = 41     inv. 120 deg rotation - cart. axis [-1,-1,-1]

 cryst.   s(41) = (     0          0         -1      )
                  (    -1          0          0      )
                  (     0         -1          0      )

 cart.    s(41) = (  0.0000000 -1.0000000  0.0000000 )
                  (  0.0000000  0.0000000 -1.0000000 )
                  ( -1.0000000  0.0000000  0.0000000 )


      isym = 42     inv. 120 deg rotation - cart. axis [-1,1,1]  

 cryst.   s(42) = (     0          0          1      )
                  (     1          0          0      )
                  (     0         -1          0      )

 cart.    s(42) = (  0.0000000  1.0000000  0.0000000 )
                  (  0.0000000  0.0000000 -1.0000000 )
                  (  1.0000000  0.0000000  0.0000000 )


      isym = 43     inv. 120 deg rotation - cart. axis [1,1,-1]  

 cryst.   s(43) = (     0          0          1      )
                  (    -1          0          0      )
                  (     0          1          0      )

 cart.    s(43) = (  0.0000000 -1.0000000  0.0000000 )
                  (  0.0000000  0.0000000  1.0000000 )
                  (  1.0000000  0.0000000  0.0000000 )


      isym = 44     inv. 120 deg rotation - cart. axis [1,-1,1]  

 cryst.   s(44) = (     0          0         -1      )
                  (     1          0          0      )
                  (     0          1          0      )

 cart.    s(44) = (  0.0000000  1.0000000  0.0000000 )
                  (  0.0000000  0.0000000  1.0000000 )
                  ( -1.0000000  0.0000000  0.0000000 )


      isym = 45     inv. 120 deg rotation - cart. axis [1,1,1]   

 cryst.   s(45) = (     0         -1          0      )
                  (     0          0         -1      )
                  (    -1          0          0      )

 cart.    s(45) = (  0.0000000  0.0000000 -1.0000000 )
                  ( -1.0000000  0.0000000  0.0000000 )
                  (  0.0000000 -1.0000000  0.0000000 )


      isym = 46     inv. 120 deg rotation - cart. axis [-1,1,-1] 

 cryst.   s(46) = (     0          1          0      )
                  (     0          0          1      )
                  (    -1          0          0      )

 cart.    s(46) = (  0.0000000  0.0000000 -1.0000000 )
                  (  1.0000000  0.0000000  0.0000000 )
                  (  0.0000000  1.0000000  0.0000000 )


      isym = 47     inv. 120 deg rotation - cart. axis [1,-1,-1] 

 cryst.   s(47) = (     0          1          0      )
                  (     0          0         -1      )
                  (     1          0          0      )

 cart.    s(47) = (  0.0000000  0.0000000  1.0000000 )
                  (  1.0000000  0.0000000  0.0000000 )
                  (  0.0000000 -1.0000000  0.0000000 )


      isym = 48     inv. 120 deg rotation - cart. axis [-1,-1,1] 

 cryst.   s(48) = (     0         -1          0      )
                  (     0          0          1      )
                  (     1          0          0      )

 cart.    s(48) = (  0.0000000  0.0000000  1.0000000 )
                  ( -1.0000000  0.0000000  0.0000000 )
                  (  0.0000000  1.0000000  0.0000000 )


   Cartesian axes

     site n.     atom                  positions (alat units)
         1        Rb     tau(   1) = (   0.0000000   0.0000000   0.0000000  )
         2        Sb     tau(   2) = (   0.5000000   0.5000000   0.5000000  )
         3        S      tau(   3) = (   0.5000000   0.5000000   0.0000000  )
         4        S      tau(   4) = (   0.5000000   0.0000000   0.5000000  )
         5        S      tau(   5) = (   0.0000000   0.5000000   0.5000000  )

   Crystallographic axes

     site n.     atom                  positions (cryst. coord.)
         1        Rb     tau(   1) = (  0.0000000  0.0000000  0.0000000  )
         2        Sb     tau(   2) = (  0.5000000  0.5000000  0.5000000  )
         3        S      tau(   3) = (  0.5000000  0.5000000  0.0000000  )
         4        S      tau(   4) = (  0.5000000  0.0000000  0.5000000  )
         5        S      tau(   5) = (  0.0000000  0.5000000  0.5000000  )

     number of k points=    35
                       cart. coord. in units 2pi/alat
        k(    1) = (   0.0000000   0.0000000   0.0000000), wk =   0.0039062
        k(    2) = (   0.0000000   0.0000000   0.1250000), wk =   0.0234375
        k(    3) = (   0.0000000   0.0000000   0.2500000), wk =   0.0234375
        k(    4) = (   0.0000000   0.0000000   0.3750000), wk =   0.0234375
        k(    5) = (   0.0000000   0.0000000  -0.5000000), wk =   0.0117188
        k(    6) = (   0.0000000   0.1250000   0.1250000), wk =   0.0468750
        k(    7) = (   0.0000000   0.1250000   0.2500000), wk =   0.0937500
        k(    8) = (   0.0000000   0.1250000   0.3750000), wk =   0.0937500
        k(    9) = (   0.0000000   0.1250000  -0.5000000), wk =   0.0468750
        k(   10) = (   0.0000000   0.2500000   0.2500000), wk =   0.0468750
        k(   11) = (   0.0000000   0.2500000   0.3750000), wk =   0.0937500
        k(   12) = (   0.0000000   0.2500000  -0.5000000), wk =   0.0468750
        k(   13) = (   0.0000000   0.3750000   0.3750000), wk =   0.0468750
        k(   14) = (   0.0000000   0.3750000  -0.5000000), wk =   0.0468750
        k(   15) = (   0.0000000  -0.5000000  -0.5000000), wk =   0.0117188
        k(   16) = (   0.1250000   0.1250000   0.1250000), wk =   0.0312500
        k(   17) = (   0.1250000   0.1250000   0.2500000), wk =   0.0937500
        k(   18) = (   0.1250000   0.1250000   0.3750000), wk =   0.0937500
        k(   19) = (   0.1250000   0.1250000  -0.5000000), wk =   0.0468750
        k(   20) = (   0.1250000   0.2500000   0.2500000), wk =   0.0937500
        k(   21) = (   0.1250000   0.2500000   0.3750000), wk =   0.1875000
        k(   22) = (   0.1250000   0.2500000  -0.5000000), wk =   0.0937500
        k(   23) = (   0.1250000   0.3750000   0.3750000), wk =   0.0937500
        k(   24) = (   0.1250000   0.3750000  -0.5000000), wk =   0.0937500
        k(   25) = (   0.1250000  -0.5000000  -0.5000000), wk =   0.0234375
        k(   26) = (   0.2500000   0.2500000   0.2500000), wk =   0.0312500
        k(   27) = (   0.2500000   0.2500000   0.3750000), wk =   0.0937500
        k(   28) = (   0.2500000   0.2500000  -0.5000000), wk =   0.0468750
        k(   29) = (   0.2500000   0.3750000   0.3750000), wk =   0.0937500
        k(   30) = (   0.2500000   0.3750000  -0.5000000), wk =   0.0937500
        k(   31) = (   0.2500000  -0.5000000  -0.5000000), wk =   0.0234375
        k(   32) = (   0.3750000   0.3750000   0.3750000), wk =   0.0312500
        k(   33) = (   0.3750000   0.3750000  -0.5000000), wk =   0.0468750
        k(   34) = (   0.3750000  -0.5000000  -0.5000000), wk =   0.0234375
        k(   35) = (  -0.5000000  -0.5000000  -0.5000000), wk =   0.0039062

                       cryst. coord.
        k(    1) = (   0.0000000   0.0000000   0.0000000), wk =   0.0039062
        k(    2) = (   0.0000000   0.0000000   0.1250000), wk =   0.0234375
        k(    3) = (   0.0000000   0.0000000   0.2500000), wk =   0.0234375
        k(    4) = (   0.0000000   0.0000000   0.3750000), wk =   0.0234375
        k(    5) = (   0.0000000   0.0000000  -0.5000000), wk =   0.0117188
        k(    6) = (   0.0000000   0.1250000   0.1250000), wk =   0.0468750
        k(    7) = (   0.0000000   0.1250000   0.2500000), wk =   0.0937500
        k(    8) = (   0.0000000   0.1250000   0.3750000), wk =   0.0937500
        k(    9) = (   0.0000000   0.1250000  -0.5000000), wk =   0.0468750
        k(   10) = (   0.0000000   0.2500000   0.2500000), wk =   0.0468750
        k(   11) = (   0.0000000   0.2500000   0.3750000), wk =   0.0937500
        k(   12) = (   0.0000000   0.2500000  -0.5000000), wk =   0.0468750
        k(   13) = (   0.0000000   0.3750000   0.3750000), wk =   0.0468750
        k(   14) = (   0.0000000   0.3750000  -0.5000000), wk =   0.0468750
        k(   15) = (   0.0000000  -0.5000000  -0.5000000), wk =   0.0117188
        k(   16) = (   0.1250000   0.1250000   0.1250000), wk =   0.0312500
        k(   17) = (   0.1250000   0.1250000   0.2500000), wk =   0.0937500
        k(   18) = (   0.1250000   0.1250000   0.3750000), wk =   0.0937500
        k(   19) = (   0.1250000   0.1250000  -0.5000000), wk =   0.0468750
        k(   20) = (   0.1250000   0.2500000   0.2500000), wk =   0.0937500
        k(   21) = (   0.1250000   0.2500000   0.3750000), wk =   0.1875000
        k(   22) = (   0.1250000   0.2500000  -0.5000000), wk =   0.0937500
        k(   23) = (   0.1250000   0.3750000   0.3750000), wk =   0.0937500
        k(   24) = (   0.1250000   0.3750000  -0.5000000), wk =   0.0937500
        k(   25) = (   0.1250000  -0.5000000  -0.5000000), wk =   0.0234375
        k(   26) = (   0.2500000   0.2500000   0.2500000), wk =   0.0312500
        k(   27) = (   0.2500000   0.2500000   0.3750000), wk =   0.0937500
        k(   28) = (   0.2500000   0.2500000  -0.5000000), wk =   0.0468750
        k(   29) = (   0.2500000   0.3750000   0.3750000), wk =   0.0937500
        k(   30) = (   0.2500000   0.3750000  -0.5000000), wk =   0.0937500
        k(   31) = (   0.2500000  -0.5000000  -0.5000000), wk =   0.0234375
        k(   32) = (   0.3750000   0.3750000   0.3750000), wk =   0.0312500
        k(   33) = (   0.3750000   0.3750000  -0.5000000), wk =   0.0468750
        k(   34) = (   0.3750000  -0.5000000  -0.5000000), wk =   0.0234375
        k(   35) = (  -0.5000000  -0.5000000  -0.5000000), wk =   0.0039062

     Dense  grid:   355119 G-vectors     FFT dimensions: (  90,  90,  90)

     Smooth grid:   125711 G-vectors     FFT dimensions: (  64,  64,  64)

     Dynamical RAM for                 wfc:       0.96 MB

     Dynamical RAM for     wfc (w. buffer):      18.21 MB

     Dynamical RAM for           str. fact:       4.06 MB

     Dynamical RAM for           local pot:       0.00 MB

     Dynamical RAM for          nlocal pot:       5.39 MB

     Dynamical RAM for                qrad:       6.81 MB

     Dynamical RAM for          rho,v,vnew:       8.33 MB

     Dynamical RAM for               rhoin:       2.78 MB

     Dynamical RAM for            rho*nmix:      21.67 MB

     Dynamical RAM for           G-vectors:       5.32 MB

     Dynamical RAM for          h,s,v(r/c):       0.05 MB

     Dynamical RAM for          <psi|beta>:       0.02 MB

     Dynamical RAM for                 psi:       1.92 MB

     Dynamical RAM for                hpsi:       1.92 MB

     Dynamical RAM for                spsi:       1.92 MB

     Dynamical RAM for      wfcinit/wfcrot:       1.92 MB

     Dynamical RAM for           addusdens:     128.69 MB

     Dynamical RAM for          addusforce:     131.42 MB

     Dynamical RAM for         addusstress:     136.48 MB

     Estimated static dynamical RAM per process >      63.42 MB

     Estimated max dynamical RAM per process >     221.58 MB

     Estimated total dynamical RAM >       1.65 GB

     Atomic positions and unit cell read from directory:
     ./tmp/rbsbs3.save/
     Atomic positions from file used, from input discarded


     The initial density is read from file :
     ./tmp/rbsbs3.save/charge-density

     Starting wfcs from file
     Checking if some PAW data can be deallocated... 
       PAW data deallocated on    4 nodes for type:  3

     total cpu time spent up to now is        3.3 secs

     Self-consistent Calculation

     iteration #  1     ecut=   100.00 Ry     beta= 0.30
     Davidson diagonalization with overlap

---- Real-time Memory Report at c_bands before calling an iterative solver
           197 MiB given to the printing process from OS
             0 MiB allocation reported by mallinfo(arena+hblkhd)
         46047 MiB available memory on the node where the printing process lives
------------------
     c_bands:  1 eigenvalues not converged
     c_bands:  3 eigenvalues not converged
     c_bands:  3 eigenvalues not converged
     c_bands:  5 eigenvalues not converged
     c_bands:  1 eigenvalues not converged
     c_bands:  1 eigenvalues not converged
     c_bands:  3 eigenvalues not converged
     c_bands:  3 eigenvalues not converged
     c_bands:  2 eigenvalues not converged
     ethr =  1.00E-05,  avg # of iterations = 18.9

     total cpu time spent up to now is       33.0 secs

     total energy              =    -280.74928274 Ry
     estimated scf accuracy    <       0.20540228 Ry

     iteration #  2     ecut=   100.00 Ry     beta= 0.30
     Davidson diagonalization with overlap

---- Real-time Memory Report at c_bands before calling an iterative solver
           231 MiB given to the printing process from OS
             0 MiB allocation reported by mallinfo(arena+hblkhd)
         45744 MiB available memory on the node where the printing process lives
------------------
     ethr =  6.42E-04,  avg # of iterations =  1.4

     total cpu time spent up to now is       40.3 secs

     total energy              =    -280.73351874 Ry
     estimated scf accuracy    <       0.05964531 Ry

     iteration #  3     ecut=   100.00 Ry     beta= 0.30
     Davidson diagonalization with overlap

---- Real-time Memory Report at c_bands before calling an iterative solver
           232 MiB given to the printing process from OS
             0 MiB allocation reported by mallinfo(arena+hblkhd)
         45790 MiB available memory on the node where the printing process lives
------------------
     ethr =  1.86E-04,  avg # of iterations =  2.6

     total cpu time spent up to now is       49.1 secs

     total energy              =    -280.75075087 Ry
     estimated scf accuracy    <       0.00196567 Ry

     iteration #  4     ecut=   100.00 Ry     beta= 0.30
     Davidson diagonalization with overlap

---- Real-time Memory Report at c_bands before calling an iterative solver
           233 MiB given to the printing process from OS
             0 MiB allocation reported by mallinfo(arena+hblkhd)
         45540 MiB available memory on the node where the printing process lives
------------------
     ethr =  6.14E-06,  avg # of iterations =  7.2

     total cpu time spent up to now is       60.3 secs

     total energy              =    -280.75437237 Ry
     estimated scf accuracy    <       0.00124315 Ry

     iteration #  5     ecut=   100.00 Ry     beta= 0.30
     Davidson diagonalization with overlap

---- Real-time Memory Report at c_bands before calling an iterative solver
           234 MiB given to the printing process from OS
             0 MiB allocation reported by mallinfo(arena+hblkhd)
         45645 MiB available memory on the node where the printing process lives
------------------
     ethr =  3.88E-06,  avg # of iterations =  1.0

     total cpu time spent up to now is       67.6 secs

     total energy              =    -280.75383476 Ry
     estimated scf accuracy    <       0.00096451 Ry

     iteration #  6     ecut=   100.00 Ry     beta= 0.30
     Davidson diagonalization with overlap

---- Real-time Memory Report at c_bands before calling an iterative solver
           235 MiB given to the printing process from OS
             0 MiB allocation reported by mallinfo(arena+hblkhd)
         45598 MiB available memory on the node where the printing process lives
------------------
     ethr =  3.01E-06,  avg # of iterations =  5.4

     total cpu time spent up to now is       77.9 secs

     total energy              =    -280.75455879 Ry
     estimated scf accuracy    <       0.00065501 Ry

     iteration #  7     ecut=   100.00 Ry     beta= 0.30
     Davidson diagonalization with overlap

---- Real-time Memory Report at c_bands before calling an iterative solver
           236 MiB given to the printing process from OS
             0 MiB allocation reported by mallinfo(arena+hblkhd)
         45649 MiB available memory on the node where the printing process lives
------------------
     ethr =  2.05E-06,  avg # of iterations =  3.9

     total cpu time spent up to now is       87.2 secs

     total energy              =    -280.75482401 Ry
     estimated scf accuracy    <       0.00002664 Ry

     iteration #  8     ecut=   100.00 Ry     beta= 0.30
     Davidson diagonalization with overlap

---- Real-time Memory Report at c_bands before calling an iterative solver
           237 MiB given to the printing process from OS
             0 MiB allocation reported by mallinfo(arena+hblkhd)
         45574 MiB available memory on the node where the printing process lives
------------------
     c_bands:  1 eigenvalues not converged
     ethr =  8.33E-08,  avg # of iterations =  9.3

     total cpu time spent up to now is      100.8 secs

     total energy              =    -280.75513729 Ry
     estimated scf accuracy    <       0.00048742 Ry

     iteration #  9     ecut=   100.00 Ry     beta= 0.30
     Davidson diagonalization with overlap

---- Real-time Memory Report at c_bands before calling an iterative solver
           238 MiB given to the printing process from OS
             0 MiB allocation reported by mallinfo(arena+hblkhd)
         45467 MiB available memory on the node where the printing process lives
------------------
     ethr =  8.33E-08,  avg # of iterations =  7.9

     total cpu time spent up to now is      112.4 secs

     total energy              =    -280.75515317 Ry
     estimated scf accuracy    <       0.00005302 Ry

     iteration # 10     ecut=   100.00 Ry     beta= 0.30
     Davidson diagonalization with overlap

---- Real-time Memory Report at c_bands before calling an iterative solver
           239 MiB given to the printing process from OS
             0 MiB allocation reported by mallinfo(arena+hblkhd)
         45781 MiB available memory on the node where the printing process lives
------------------
     ethr =  8.33E-08,  avg # of iterations =  1.2

     total cpu time spent up to now is      119.7 secs

     total energy              =    -280.75513982 Ry
     estimated scf accuracy    <       0.00003750 Ry

     iteration # 11     ecut=   100.00 Ry     beta= 0.30
     Davidson diagonalization with overlap

---- Real-time Memory Report at c_bands before calling an iterative solver
           239 MiB given to the printing process from OS
             0 MiB allocation reported by mallinfo(arena+hblkhd)
         45773 MiB available memory on the node where the printing process lives
------------------
     ethr =  8.33E-08,  avg # of iterations =  4.2

     total cpu time spent up to now is      128.8 secs

     total energy              =    -280.75513820 Ry
     estimated scf accuracy    <       0.00000236 Ry

     iteration # 12     ecut=   100.00 Ry     beta= 0.30
     Davidson diagonalization with overlap

---- Real-time Memory Report at c_bands before calling an iterative solver
           239 MiB given to the printing process from OS
             0 MiB allocation reported by mallinfo(arena+hblkhd)
         45573 MiB available memory on the node where the printing process lives
------------------
     c_bands:  1 eigenvalues not converged
     ethr =  7.38E-09,  avg # of iterations =  7.5

     total cpu time spent up to now is      139.4 secs

     total energy              =    -280.75513489 Ry
     estimated scf accuracy    <       0.00000005 Ry

     iteration # 13     ecut=   100.00 Ry     beta= 0.30
     Davidson diagonalization with overlap

---- Real-time Memory Report at c_bands before calling an iterative solver
           239 MiB given to the printing process from OS
             0 MiB allocation reported by mallinfo(arena+hblkhd)
         45661 MiB available memory on the node where the printing process lives
------------------
     ethr =  1.63E-10,  avg # of iterations =  9.1

     total cpu time spent up to now is      151.6 secs

     total energy              =    -280.75513481 Ry
     estimated scf accuracy    <       0.00000002 Ry

     iteration # 14     ecut=   100.00 Ry     beta= 0.30
     Davidson diagonalization with overlap

---- Real-time Memory Report at c_bands before calling an iterative solver
           239 MiB given to the printing process from OS
             0 MiB allocation reported by mallinfo(arena+hblkhd)
         45748 MiB available memory on the node where the printing process lives
------------------
     ethr =  6.79E-11,  avg # of iterations =  1.6

     total cpu time spent up to now is      159.1 secs

     total energy              =    -280.75513524 Ry
     estimated scf accuracy    <       0.00000001 Ry

     iteration # 15     ecut=   100.00 Ry     beta= 0.30
     Davidson diagonalization with overlap

---- Real-time Memory Report at c_bands before calling an iterative solver
           239 MiB given to the printing process from OS
             0 MiB allocation reported by mallinfo(arena+hblkhd)
         45565 MiB available memory on the node where the printing process lives
------------------
     ethr =  4.54E-11,  avg # of iterations =  9.4

     total cpu time spent up to now is      171.8 secs

     total energy              =    -280.75843310 Ry
     estimated scf accuracy    <       0.00008571 Ry

     iteration # 16     ecut=   100.00 Ry     beta= 0.30
     Davidson diagonalization with overlap

---- Real-time Memory Report at c_bands before calling an iterative solver
           239 MiB given to the printing process from OS
             0 MiB allocation reported by mallinfo(arena+hblkhd)
         45630 MiB available memory on the node where the printing process lives
------------------
     ethr =  4.54E-11,  avg # of iterations =  2.6

     total cpu time spent up to now is      180.0 secs

     total energy              =    -280.75843342 Ry
     estimated scf accuracy    <       0.00008696 Ry

     iteration # 17     ecut=   100.00 Ry     beta= 0.30
     Davidson diagonalization with overlap

---- Real-time Memory Report at c_bands before calling an iterative solver
           239 MiB given to the printing process from OS
             0 MiB allocation reported by mallinfo(arena+hblkhd)
         45725 MiB available memory on the node where the printing process lives
------------------
     ethr =  4.54E-11,  avg # of iterations =  3.4

     total cpu time spent up to now is      188.6 secs

     total energy              =    -280.75843317 Ry
     estimated scf accuracy    <       0.00008836 Ry

     iteration # 18     ecut=   100.00 Ry     beta= 0.30
     Davidson diagonalization with overlap

---- Real-time Memory Report at c_bands before calling an iterative solver
           239 MiB given to the printing process from OS
             0 MiB allocation reported by mallinfo(arena+hblkhd)
         45595 MiB available memory on the node where the printing process lives
------------------
     ethr =  4.54E-11,  avg # of iterations =  1.3

     total cpu time spent up to now is      196.1 secs

     total energy              =    -280.75843291 Ry
     estimated scf accuracy    <       0.00008802 Ry

     iteration # 19     ecut=   100.00 Ry     beta= 0.30
     Davidson diagonalization with overlap

---- Real-time Memory Report at c_bands before calling an iterative solver
           239 MiB given to the printing process from OS
             0 MiB allocation reported by mallinfo(arena+hblkhd)
         45318 MiB available memory on the node where the printing process lives
------------------
     ethr =  4.54E-11,  avg # of iterations =  1.3

     total cpu time spent up to now is      203.5 secs

     total energy              =    -280.75843258 Ry
     estimated scf accuracy    <       0.00008838 Ry

     iteration # 20     ecut=   100.00 Ry     beta= 0.30
     Davidson diagonalization with overlap

---- Real-time Memory Report at c_bands before calling an iterative solver
           239 MiB given to the printing process from OS
             0 MiB allocation reported by mallinfo(arena+hblkhd)
         45603 MiB available memory on the node where the printing process lives
------------------
     ethr =  4.54E-11,  avg # of iterations =  2.2

     total cpu time spent up to now is      211.6 secs

     total energy              =    -280.75843590 Ry
     estimated scf accuracy    <       0.00008699 Ry

     iteration # 21     ecut=   100.00 Ry     beta= 0.30
     Davidson diagonalization with overlap

---- Real-time Memory Report at c_bands before calling an iterative solver
           239 MiB given to the printing process from OS
             0 MiB allocation reported by mallinfo(arena+hblkhd)
         45693 MiB available memory on the node where the printing process lives
------------------
     c_bands:  1 eigenvalues not converged
     ethr =  4.54E-11,  avg # of iterations = 10.2

     total cpu time spent up to now is      225.5 secs

     total energy              =    -280.75843480 Ry
     estimated scf accuracy    <       0.00009680 Ry

     iteration # 22     ecut=   100.00 Ry     beta= 0.30
     Davidson diagonalization with overlap

---- Real-time Memory Report at c_bands before calling an iterative solver
           239 MiB given to the printing process from OS
             0 MiB allocation reported by mallinfo(arena+hblkhd)
         45706 MiB available memory on the node where the printing process lives
------------------
     ethr =  4.54E-11,  avg # of iterations =  3.3

     total cpu time spent up to now is      234.2 secs

     total energy              =    -280.75843488 Ry
     estimated scf accuracy    <       0.00009839 Ry

     iteration # 23     ecut=   100.00 Ry     beta= 0.30
     Davidson diagonalization with overlap

---- Real-time Memory Report at c_bands before calling an iterative solver
           239 MiB given to the printing process from OS
             0 MiB allocation reported by mallinfo(arena+hblkhd)
         45499 MiB available memory on the node where the printing process lives
------------------
     ethr =  4.54E-11,  avg # of iterations =  1.3

     total cpu time spent up to now is      241.7 secs

     total energy              =    -280.75838369 Ry
     estimated scf accuracy    <       0.00009900 Ry

     iteration # 24     ecut=   100.00 Ry     beta= 0.30
     Davidson diagonalization with overlap

---- Real-time Memory Report at c_bands before calling an iterative solver
           239 MiB given to the printing process from OS
             0 MiB allocation reported by mallinfo(arena+hblkhd)
         45629 MiB available memory on the node where the printing process lives
------------------
     c_bands:  1 eigenvalues not converged
     c_bands:  1 eigenvalues not converged
     c_bands:  2 eigenvalues not converged
     c_bands:  1 eigenvalues not converged
     c_bands:  1 eigenvalues not converged
     c_bands:  1 eigenvalues not converged
     c_bands:  1 eigenvalues not converged
     c_bands:  1 eigenvalues not converged
     c_bands:  3 eigenvalues not converged
     ethr =  4.54E-11,  avg # of iterations = 24.3

     total cpu time spent up to now is      276.7 secs

     total energy              =    -280.75844316 Ry
     estimated scf accuracy    <       0.00000080 Ry

     iteration # 25     ecut=   100.00 Ry     beta= 0.30
     Davidson diagonalization with overlap

---- Real-time Memory Report at c_bands before calling an iterative solver
           239 MiB given to the printing process from OS
             0 MiB allocation reported by mallinfo(arena+hblkhd)
         45696 MiB available memory on the node where the printing process lives
------------------
     ethr =  4.54E-11,  avg # of iterations =  6.1

     total cpu time spent up to now is      286.7 secs

     total energy              =    -280.75844080 Ry
     estimated scf accuracy    <       0.00000107 Ry

     iteration # 26     ecut=   100.00 Ry     beta= 0.30
     Davidson diagonalization with overlap

---- Real-time Memory Report at c_bands before calling an iterative solver
           239 MiB given to the printing process from OS
             0 MiB allocation reported by mallinfo(arena+hblkhd)
         45459 MiB available memory on the node where the printing process lives
------------------
     ethr =  4.54E-11,  avg # of iterations = 10.6

     total cpu time spent up to now is      301.3 secs

     total energy              =    -280.75843659 Ry
     estimated scf accuracy    <       0.00000008 Ry

     iteration # 27     ecut=   100.00 Ry     beta= 0.30
     Davidson diagonalization with overlap

---- Real-time Memory Report at c_bands before calling an iterative solver
           239 MiB given to the printing process from OS
             0 MiB allocation reported by mallinfo(arena+hblkhd)
         45595 MiB available memory on the node where the printing process lives
------------------
     ethr =  4.54E-11,  avg # of iterations =  9.0

     total cpu time spent up to now is      313.7 secs

     total energy              =    -280.75843527 Ry
     estimated scf accuracy    <       0.00000002 Ry

     iteration # 28     ecut=   100.00 Ry     beta= 0.30
     Davidson diagonalization with overlap

---- Real-time Memory Report at c_bands before calling an iterative solver
           239 MiB given to the printing process from OS
             0 MiB allocation reported by mallinfo(arena+hblkhd)
         45662 MiB available memory on the node where the printing process lives
------------------
     ethr =  4.54E-11,  avg # of iterations =  7.0

     total cpu time spent up to now is      325.2 secs

     total energy              =    -280.75843787 Ry
     estimated scf accuracy    <       0.00000004 Ry

     iteration # 29     ecut=   100.00 Ry     beta= 0.30
     Davidson diagonalization with overlap

---- Real-time Memory Report at c_bands before calling an iterative solver
           239 MiB given to the printing process from OS
             0 MiB allocation reported by mallinfo(arena+hblkhd)
         45505 MiB available memory on the node where the printing process lives
------------------
     ethr =  4.54E-11,  avg # of iterations =  4.6

     total cpu time spent up to now is      335.4 secs

     total energy              =    -280.75843708 Ry
     estimated scf accuracy    <          3.1E-10 Ry

     iteration # 30     ecut=   100.00 Ry     beta= 0.30
     Davidson diagonalization with overlap

---- Real-time Memory Report at c_bands before calling an iterative solver
           239 MiB given to the printing process from OS
             0 MiB allocation reported by mallinfo(arena+hblkhd)
         45426 MiB available memory on the node where the printing process lives
------------------
     ethr =  9.80E-13,  avg # of iterations =  9.7

     total cpu time spent up to now is      348.8 secs

     total energy              =    -280.75843702 Ry
     estimated scf accuracy    <          6.0E-10 Ry

     iteration # 31     ecut=   100.00 Ry     beta= 0.30
     Davidson diagonalization with overlap

---- Real-time Memory Report at c_bands before calling an iterative solver
           239 MiB given to the printing process from OS
             0 MiB allocation reported by mallinfo(arena+hblkhd)
         45736 MiB available memory on the node where the printing process lives
------------------
     ethr =  9.80E-13,  avg # of iterations =  5.9

     total cpu time spent up to now is      359.7 secs

     total energy              =    -280.75843717 Ry
     estimated scf accuracy    <          1.7E-10 Ry

     iteration # 32     ecut=   100.00 Ry     beta= 0.30
     Davidson diagonalization with overlap

---- Real-time Memory Report at c_bands before calling an iterative solver
           239 MiB given to the printing process from OS
             0 MiB allocation reported by mallinfo(arena+hblkhd)
         45548 MiB available memory on the node where the printing process lives
------------------
     ethr =  5.21E-13,  avg # of iterations =  4.5

     total cpu time spent up to now is      369.7 secs

     total energy              =    -280.75843706 Ry
     estimated scf accuracy    <          2.9E-11 Ry

     iteration # 33     ecut=   100.00 Ry     beta= 0.30
     Davidson diagonalization with overlap

---- Real-time Memory Report at c_bands before calling an iterative solver
           239 MiB given to the printing process from OS
             0 MiB allocation reported by mallinfo(arena+hblkhd)
         45581 MiB available memory on the node where the printing process lives
------------------
     ethr =  1.00E-13,  avg # of iterations =  3.4

     total cpu time spent up to now is      378.2 secs

     total energy              =    -280.75843706 Ry
     estimated scf accuracy    <          1.9E-11 Ry

     iteration # 34     ecut=   100.00 Ry     beta= 0.30
     Davidson diagonalization with overlap

---- Real-time Memory Report at c_bands before calling an iterative solver
           239 MiB given to the printing process from OS
             0 MiB allocation reported by mallinfo(arena+hblkhd)
         45501 MiB available memory on the node where the printing process lives
------------------
     ethr =  1.00E-13,  avg # of iterations =  3.3

     total cpu time spent up to now is      386.8 secs

     End of self-consistent calculation

          k = 0.0000 0.0000 0.0000 ( 15659 PWs)   bands (ev):

   -21.3876 -13.7712 -10.8371 -10.8371  -5.6613  -5.4083  -5.4083  -5.0694
    -3.1945  -3.1945  -2.0878   0.7242   0.7242   1.3708   2.1950   2.4960

     occupation numbers 
     1.0000   1.0000   1.0000   1.0000   1.0000   1.0000   1.0000   1.0000
     1.0000   1.0000   1.0000   1.0000   1.0000   1.0000   1.0000   1.0000

          k = 0.0000 0.0000 0.1250 ( 15691 PWs)   bands (ev):

   -21.3873 -13.7489 -10.8844 -10.8358  -5.7279  -5.4044  -5.3967  -5.1846
    -3.1891  -3.0154  -1.8813   0.6402   0.7029   1.3913   2.0629   2.5025

     occupation numbers 
     1.0000   1.0000   1.0000   1.0000   1.0000   1.0000   1.0000   1.0000
     1.0000   1.0000   1.0000   1.0000   1.0000   1.0000   1.0000   1.0000

          k = 0.0000 0.0000 0.2500 ( 15739 PWs)   bands (ev):

   -21.3865 -13.6922 -11.0012 -10.8329  -5.9230  -5.3951  -5.3891  -5.2834
    -3.1755  -2.8055  -1.2280   0.4643   0.6587   1.4178   1.8679   2.5142

     occupation numbers 
     1.0000   1.0000   1.0000   1.0000   1.0000   1.0000   1.0000   1.0000
     1.0000   1.0000   1.0000   1.0000   1.0000   1.0000   1.0000   1.0000

          k = 0.0000 0.0000 0.3750 ( 15735 PWs)   bands (ev):

   -21.3858 -13.6309 -11.1221 -10.8299  -6.1147  -5.4001  -5.3858  -5.2791
    -3.1610  -2.7150  -0.4453   0.3106   0.6710   1.4274   1.7384   2.5212

     occupation numbers 
     1.0000   1.0000   1.0000   1.0000   1.0000   1.0000   1.0000   1.0000
     1.0000   1.0000   1.0000   1.0000   1.0000   1.0000   1.0000   1.0000

          k = 0.0000 0.0000-0.5000 ( 15800 PWs)   bands (ev):

   -21.3855 -13.6040 -11.1736 -10.8287  -6.1875  -5.4035  -5.3819  -5.2698
    -3.1547  -2.6902  -0.1196   0.2512   0.7613   1.4286   1.6984   2.5228

     occupation numbers 
     1.0000   1.0000   1.0000   1.0000   1.0000   1.0000   1.0000   1.0000
     1.0000   1.0000   1.0000   1.0000   1.0000   1.0000   1.0000   1.0000

          k = 0.0000 0.1250 0.1250 ( 15710 PWs)   bands (ev):

   -21.3870 -13.7263 -10.9061 -10.8593  -5.8113  -5.3966  -5.3958  -5.2635
    -3.0956  -2.9337  -1.6733   0.5819   0.6580   1.4189   2.0073   2.4871

     occupation numbers 
     1.0000   1.0000   1.0000   1.0000   1.0000   1.0000   1.0000   1.0000
     1.0000   1.0000   1.0000   1.0000   1.0000   1.0000   1.0000   1.0000

          k = 0.0000 0.1250 0.2500 ( 15705 PWs)   bands (ev):

   -21.3862 -13.6690 -11.0109 -10.8656  -6.0407  -5.3947  -5.3888  -5.3172
    -3.0654  -2.6665  -1.0946   0.4166   0.6030   1.4513   1.8553   2.4636

     occupation numbers 
     1.0000   1.0000   1.0000   1.0000   1.0000   1.0000   1.0000   1.0000
     1.0000   1.0000   1.0000   1.0000   1.0000   1.0000   1.0000   1.0000

          k = 0.0000 0.1250 0.3750 ( 15729 PWs)   bands (ev):

   -21.3855 -13.6071 -11.1282 -10.8638  -6.2469  -5.4051  -5.3817  -5.3024
    -3.0493  -2.5137  -0.3803   0.2740   0.6093   1.4562   1.7606   2.3807

     occupation numbers 
     1.0000   1.0000   1.0000   1.0000   1.0000   1.0000   1.0000   1.0000
     1.0000   1.0000   1.0000   1.0000   1.0000   1.0000   1.0000   1.0000

          k = 0.0000 0.1250-0.5000 ( 15722 PWs)   bands (ev):

   -21.3852 -13.5799 -11.1784 -10.8628  -6.3262  -5.4083  -5.3784  -5.2906
    -3.0441  -2.4522  -0.1199   0.2187   0.7311   1.4408   1.6803   2.3379

     occupation numbers 
     1.0000   1.0000   1.0000   1.0000   1.0000   1.0000   1.0000   1.0000
     1.0000   1.0000   1.0000   1.0000   1.0000   1.0000   1.0000   1.0000

          k = 0.0000 0.2500 0.2500 ( 15720 PWs)   bands (ev):

   -21.3856 -13.6103 -11.0624 -10.9193  -6.3039  -5.4026  -5.3793  -5.3376
    -2.9923  -2.2123  -0.7455   0.2928   0.5176   1.4898   1.7372   2.4358

     occupation numbers 
     1.0000   1.0000   1.0000   1.0000   1.0000   1.0000   1.0000   1.0000
     1.0000   1.0000   1.0000   1.0000   1.0000   1.0000   1.0000   1.0000

          k = 0.0000 0.2500 0.3750 ( 15723 PWs)   bands (ev):

   -21.3849 -13.5466 -11.1538 -10.9383  -6.5203  -5.4099  -5.3747  -5.3282
    -2.9620  -1.8736  -0.2742   0.2323   0.4989   1.4845   1.6791   2.3330

     occupation numbers 
     1.0000   1.0000   1.0000   1.0000   1.0000   1.0000   1.0000   1.0000
     1.0000   1.0000   1.0000   1.0000   1.0000   1.0000   1.0000   1.0000

          k = 0.0000 0.2500-0.5000 ( 15720 PWs)   bands (ev):

   -21.3846 -13.5186 -11.1979 -10.9415  -6.6020  -5.4144  -5.3723  -5.3188
    -2.9530  -1.7369  -0.1441   0.1732   0.6739   1.4157   1.6732   2.2392

     occupation numbers 
     1.0000   1.0000   1.0000   1.0000   1.0000   1.0000   1.0000   1.0000
     1.0000   1.0000   1.0000   1.0000   1.0000   1.0000   1.0000   1.0000

          k = 0.0000 0.3750 0.3750 ( 15694 PWs)   bands (ev):

   -21.3842 -13.4810 -11.2064 -10.9920  -6.7397  -5.4111  -5.3719  -5.3376
    -2.9213  -1.2375  -0.2320   0.3586   0.4212   1.4601   1.6388   2.2658

     occupation numbers 
     1.0000   1.0000   1.0000   1.0000   1.0000   1.0000   1.0000   1.0000
     1.0000   1.0000   1.0000   1.0000   1.0000   1.0000   1.0000   1.0000

          k = 0.0000 0.3750-0.5000 ( 15694 PWs)   bands (ev):

   -21.3839 -13.4520 -11.2378 -11.0067  -6.8206  -5.4140  -5.3701  -5.3367
    -2.9078  -0.9536  -0.2173   0.1844   0.6615   1.3598   1.6939   2.1767

     occupation numbers 
     1.0000   1.0000   1.0000   1.0000   1.0000   1.0000   1.0000   1.0000
     1.0000   1.0000   1.0000   1.0000   1.0000   1.0000   1.0000   1.0000

          k = 0.0000-0.5000-0.5000 ( 15676 PWs)   bands (ev):

   -21.3837 -13.4225 -11.2630 -11.0271  -6.8994  -5.4119  -5.3707  -5.3429
    -2.8919  -0.5944  -0.2836   0.2009   0.7057   1.3421   1.7067   2.1309

     occupation numbers 
     1.0000   1.0000   1.0000   1.0000   1.0000   1.0000   1.0000   1.0000
     1.0000   1.0000   1.0000   1.0000   1.0000   1.0000   1.0000   1.0000

          k = 0.1250 0.1250 0.1250 ( 15708 PWs)   bands (ev):

   -21.3867 -13.7035 -10.9046 -10.9046  -5.9097  -5.3948  -5.3948  -5.3134
    -2.9276  -2.9276  -1.4689   0.5686   0.5686   1.4606   2.0129   2.4956

     occupation numbers 
     1.0000   1.0000   1.0000   1.0000   1.0000   1.0000   1.0000   1.0000
     1.0000   1.0000   1.0000   1.0000   1.0000   1.0000   1.0000   1.0000

          k = 0.1250 0.1250 0.2500 ( 15725 PWs)   bands (ev):

   -21.3860 -13.6457 -11.0163 -10.9012  -6.1620  -5.3935  -5.3907  -5.3408
    -2.9102  -2.5857  -0.9523   0.3896   0.5237   1.5105   1.9018   2.4757

     occupation numbers 
     1.0000   1.0000   1.0000   1.0000   1.0000   1.0000   1.0000   1.0000
     1.0000   1.0000   1.0000   1.0000   1.0000   1.0000   1.0000   1.0000

          k = 0.1250 0.1250 0.3750 ( 15736 PWs)   bands (ev):

   -21.3853 -13.5832 -11.1325 -10.8977  -6.3779  -5.4025  -5.3866  -5.3212
    -2.8908  -2.3712  -0.3028   0.2358   0.5286   1.5315   1.8226   2.4346

     occupation numbers 
     1.0000   1.0000   1.0000   1.0000   1.0000   1.0000   1.0000   1.0000
     1.0000   1.0000   1.0000   1.0000   1.0000   1.0000   1.0000   1.0000

          k = 0.1250 0.1250-0.5000 ( 15718 PWs)   bands (ev):

   -21.3850 -13.5557 -11.1820 -10.8963  -6.4619  -5.4065  -5.3850  -5.3064
    -2.8815  -2.2767  -0.1005   0.1769   0.6726   1.5305   1.6177   2.5559

     occupation numbers 
     1.0000   1.0000   1.0000   1.0000   1.0000   1.0000   1.0000   1.0000
     1.0000   1.0000   1.0000   1.0000   1.0000   1.0000   1.0000   1.0000

          k = 0.1250 0.2500 0.2500 ( 15711 PWs)   bands (ev):

   -21.3853 -13.5865 -11.0605 -10.9585  -6.4323  -5.3978  -5.3819  -5.3588
    -2.7540  -2.2028  -0.6153   0.2769   0.4190   1.5794   1.8452   2.4382

     occupation numbers 
     1.0000   1.0000   1.0000   1.0000   1.0000   1.0000   1.0000   1.0000
     1.0000   1.0000   1.0000   1.0000   1.0000   1.0000   1.0000   1.0000

          k = 0.1250 0.2500 0.3750 ( 15713 PWs)   bands (ev):

   -21.3846 -13.5223 -11.1538 -10.9722  -6.6535  -5.4046  -5.3832  -5.3466
    -2.7048  -1.8378  -0.1810   0.1800   0.4054   1.6015   1.8227   2.3550

     occupation numbers 
     1.0000   1.0000   1.0000   1.0000   1.0000   1.0000   1.0000   1.0000
     1.0000   1.0000   1.0000   1.0000   1.0000   1.0000   1.0000   1.0000

          k = 0.1250 0.2500-0.5000 ( 15692 PWs)   bands (ev):

   -21.3843 -13.4940 -11.1983 -10.9734  -6.7385  -5.4122  -5.3848  -5.3311
    -2.6858  -1.6746  -0.1061   0.1209   0.6008   1.4973   1.6864   2.4123

     occupation numbers 
     1.0000   1.0000   1.0000   1.0000   1.0000   1.0000   1.0000   1.0000
     1.0000   1.0000   1.0000   1.0000   1.0000   1.0000   1.0000   1.0000

          k = 0.1250 0.3750 0.3750 ( 15696 PWs)   bands (ev):

   -21.3840 -13.4561 -11.2042 -11.0238  -6.8764  -5.4092  -5.3781  -5.3589
    -2.6314  -1.2234  -0.1601   0.2610   0.3602   1.5979   1.8548   2.2357

     occupation numbers 
     1.0000   1.0000   1.0000   1.0000   1.0000   1.0000   1.0000   1.0000
     1.0000   1.0000   1.0000   1.0000   1.0000   1.0000   1.0000   1.0000

          k = 0.1250 0.3750-0.5000 ( 15688 PWs)   bands (ev):

   -21.3837 -13.4269 -11.2357 -11.0365  -6.9603  -5.4175  -5.3804  -5.3498
    -2.6024  -0.9304  -0.1793   0.1207   0.5986   1.4410   1.7853   2.2343

     occupation numbers 
     1.0000   1.0000   1.0000   1.0000   1.0000   1.0000   1.0000   1.0000
     1.0000   1.0000   1.0000   1.0000   1.0000   1.0000   1.0000   1.0000

          k = 0.1250-0.5000-0.5000 ( 15708 PWs)   bands (ev):

   -21.3834 -13.3973 -11.2607 -11.0554  -7.0420  -5.4227  -5.3783  -5.3529
    -2.5685  -0.5857  -0.2577   0.1484   0.6766   1.4114   1.7285   2.1267

     occupation numbers 
     1.0000   1.0000   1.0000   1.0000   1.0000   1.0000   1.0000   1.0000
     1.0000   1.0000   1.0000   1.0000   1.0000   1.0000   1.0000   1.0000

          k = 0.2500 0.2500 0.2500 ( 15705 PWs)   bands (ev):

   -21.3846 -13.5259 -11.0561 -11.0561  -6.7081  -5.3884  -5.3884  -5.3825
    -2.1763  -2.1763  -0.3425   0.2390   0.2390   1.6911   1.8823   2.4728

     occupation numbers 
     1.0000   1.0000   1.0000   1.0000   1.0000   1.0000   1.0000   1.0000
     1.0000   1.0000   1.0000   1.0000   1.0000   1.0000   1.0000   1.0000

          k = 0.2500 0.2500 0.3750 ( 15703 PWs)   bands (ev):

   -21.3840 -13.4603 -11.1598 -11.0516  -6.9330  -5.4036  -5.3949  -5.3706
    -2.1465  -1.6752  -0.0308   0.0895   0.2787   1.7481   1.9237   2.4011

     occupation numbers 
     1.0000   1.0000   1.0000   1.0000   1.0000   1.0000   1.0000   1.0000
     1.0000   1.0000   1.0000   1.0000   1.0000   1.0000   1.0000   1.0000

          k = 0.2500 0.2500-0.5000 ( 15674 PWs)   bands (ev):

   -21.3837 -13.4313 -11.2045 -11.0498  -7.0190  -5.4199  -5.3976  -5.3516
    -2.1324  -1.4379  -0.0689   0.0354   0.5243   1.5396   1.7475   2.5504

     occupation numbers 
     1.0000   1.0000   1.0000   1.0000   1.0000   1.0000   1.0000   1.0000
     1.0000   1.0000   1.0000   1.0000   1.0000   1.0000   1.0000   1.0000

          k = 0.2500 0.3750 0.3750 ( 15709 PWs)   bands (ev):

   -21.3834 -13.3928 -11.1989 -11.1049  -7.1608  -5.4152  -5.3933  -5.3870
    -1.9110  -1.1878  -0.0633   0.0987   0.3187   1.8016   2.0867   2.2054

     occupation numbers 
     1.0000   1.0000   1.0000   1.0000   1.0000   1.0000   1.0000   1.0000
     1.0000   1.0000   1.0000   1.0000   1.0000   1.0000   1.0000   1.0000

          k = 0.2500 0.3750-0.5000 ( 15692 PWs)   bands (ev):

   -21.3831 -13.3630 -11.2314 -11.1128  -7.2467  -5.4318  -5.3998  -5.3715
    -1.8611  -0.8757  -0.1196   0.0092   0.5282   1.5567   1.8589   2.3245

     occupation numbers 
     1.0000   1.0000   1.0000   1.0000   1.0000   1.0000   1.0000   1.0000
     1.0000   1.0000   1.0000   1.0000   1.0000   1.0000   1.0000   1.0000

          k = 0.2500-0.5000-0.5000 ( 15708 PWs)   bands (ev):

   -21.3829 -13.3327 -11.2551 -11.1287  -7.3314  -5.4430  -5.3966  -5.3756
    -1.7885  -0.5587  -0.1959   0.0312   0.6116   1.5696   1.7752   2.1114

     occupation numbers 
     1.0000   1.0000   1.0000   1.0000   1.0000   1.0000   1.0000   1.0000
     1.0000   1.0000   1.0000   1.0000   1.0000   1.0000   1.0000   1.0000

          k = 0.3750 0.3750 0.3750 ( 15696 PWs)   bands (ev):

   -21.3828 -13.3238 -11.1936 -11.1936  -7.3937  -5.4211  -5.4084  -5.4084
    -1.1474  -1.1474  -0.0344  -0.0344   0.3737   1.9442   2.1976   2.1976

     occupation numbers 
     1.0000   1.0000   1.0000   1.0000   1.0000   1.0000   1.0000   1.0000
     1.0000   1.0000   1.0000   1.0000   1.0000   1.0000   1.0000   1.0000

          k = 0.3750 0.3750-0.5000 ( 15658 PWs)   bands (ev):

   -21.3825 -13.2932 -11.2328 -11.1915  -7.4811  -5.4428  -5.4147  -5.3956
    -1.1299  -0.7410  -0.1009  -0.0773   0.5092   1.6636   1.9314   2.2470

     occupation numbers 
     1.0000   1.0000   1.0000   1.0000   1.0000   1.0000   1.0000   1.0000
     1.0000   1.0000   1.0000   1.0000   1.0000   1.0000   1.0000   1.0000

          k = 0.3750-0.5000-0.5000 ( 15628 PWs)   bands (ev):

   -21.3823 -13.2623 -11.2495 -11.2105  -7.5680  -5.4526  -5.4150  -5.4046
    -0.9260  -0.5184  -0.1408  -0.0848   0.5555   1.7301   1.8060   2.0812

     occupation numbers 
     1.0000   1.0000   1.0000   1.0000   1.0000   1.0000   1.0000   1.0000
     1.0000   1.0000   1.0000   1.0000   1.0000   1.0000   1.0000   1.0000

          k =-0.5000-0.5000-0.5000 ( 15624 PWs)   bands (ev):

   -21.3821 -13.2311 -11.2472 -11.2472  -7.6548  -5.4499  -5.4226  -5.4226
    -0.4946  -0.4946  -0.1370  -0.1370   0.5388   1.8056   1.8056   2.0571

     occupation numbers 
     1.0000   1.0000   1.0000   1.0000   1.0000   1.0000   1.0000   1.0000
     1.0000   1.0000   1.0000   1.0000   1.0000   1.0000   1.0000   1.0000

     highest occupied level (ev):     2.5559

!    total energy              =    -280.75843708 Ry
     estimated scf accuracy    <          3.2E-15 Ry

     The total energy is the sum of the following terms:
     one-electron contribution =      -9.34992808 Ry
     hartree contribution      =      16.26992306 Ry
     xc contribution           =     -46.28830197 Ry
     ewald contribution        =    -102.85820717 Ry
     one-center paw contrib.   =    -138.53192292 Ry
      -> PAW hartree energy AE =       0.00000000 Ry
      -> PAW hartree energy PS =       0.00000000 Ry
      -> PAW xc energy AE      =       0.00000000 Ry
      -> PAW xc energy PS      =       0.00000000 Ry
      -> total E_H with PAW    =      16.26992306 Ry
      -> total E_XC with PAW   =     -46.28830197 Ry

     convergence has been achieved in  34 iterations

     Forces acting on atoms (cartesian axes, Ry/au):

     atom    1 type  1   force =     0.00000000    0.00000000    0.00000000
     atom    2 type  2   force =     0.00000000    0.00000000    0.00000000
     atom    3 type  3   force =     0.00000000    0.00000000    0.00000000
     atom    4 type  3   force =     0.00000000    0.00000000    0.00000000
     atom    5 type  3   force =     0.00000000    0.00000000    0.00000000
     The non-local contrib.  to forces
     atom    1 type  1   force =     0.00000000    0.00000000    0.00000000
     atom    2 type  2   force =     0.00000000    0.00000000    0.00000000
     atom    3 type  3   force =     0.00000000    0.00000000    0.00000000
     atom    4 type  3   force =     0.00000000    0.00000000    0.00000000
     atom    5 type  3   force =     0.00000000    0.00000000    0.00000000
     The ionic contribution  to forces
     atom    1 type  1   force =     0.69162888    0.69162888    0.69162888
     atom    2 type  2   force =    -0.75491480   -0.75491480   -0.75491480
     atom    3 type  3   force =    -0.47856932   -0.47856932    1.02042457
     atom    4 type  3   force =    -0.47856932    1.02042457   -0.47856932
     atom    5 type  3   force =     1.02042457   -0.47856932   -0.47856932
     The local contribution  to forces
     atom    1 type  1   force =     0.00000000    0.00000000    0.00000000
     atom    2 type  2   force =    -0.07516000   -0.07516000   -0.07516000
     atom    3 type  3   force =    -1.36880242   -1.36880242    0.00000000
     atom    4 type  3   force =    -1.36880242    0.00000000   -1.36880242
     atom    5 type  3   force =    -0.00000000   -1.36880242   -1.36880242
     The core correction contribution to forces
     atom    1 type  1   force =     0.00000000    0.00000000    0.00000000
     atom    2 type  2   force =     0.00761443    0.00761443    0.00761443
     atom    3 type  3   force =     0.00929273    0.00929273   -0.00000485
     atom    4 type  3   force =     0.00929273   -0.00000485    0.00929273
     atom    5 type  3   force =    -0.00000485    0.00929273    0.00929273
     The Hubbard contrib.    to forces
     atom    1 type  1   force =     0.00000000    0.00000000    0.00000000
     atom    2 type  2   force =     0.00000000    0.00000000    0.00000000
     atom    3 type  3   force =     0.00000000    0.00000000    0.00000000
     atom    4 type  3   force =     0.00000000    0.00000000    0.00000000
     atom    5 type  3   force =     0.00000000    0.00000000    0.00000000
     The SCF correction term to forces
     atom    1 type  1   force =    -0.00000000   -0.00000000   -0.00000000
     atom    2 type  2   force =    -0.00000000   -0.00000000   -0.00000000
     atom    3 type  3   force =    -0.00000001   -0.00000001    0.00000000
     atom    4 type  3   force =    -0.00000001    0.00000000   -0.00000001
     atom    5 type  3   force =     0.00000000   -0.00000001   -0.00000001

     Total force =     0.000000     Total SCF correction =     0.000000


     Computing stress (Cartesian axis) and pressure

          total   stress  (Ry/bohr**3)                   (kbar)     P=      616.42
   0.00419031   0.00000000   0.00000000          616.42        0.00        0.00
   0.00000000   0.00419031   0.00000000            0.00      616.42        0.00
   0.00000000   0.00000000   0.00419031            0.00        0.00      616.42

     kinetic stress (kbar)   5276.10      0.00      0.00
                                0.00   5276.10      0.00
                                0.00      0.00   5276.10

     local   stress (kbar)  -1669.12    -17.13    -17.13
                              -17.13  -1669.12    -17.13
                              -17.13    -17.13  -1669.12

     nonloc. stress (kbar)   3062.77      0.00      0.00
                                0.00   3062.77      0.00
                                0.00      0.00   3062.77

     hartree stress (kbar)    857.75     -0.00     -0.00
                               -0.00    857.75      0.00
                               -0.00      0.00    857.75

     exc-cor stress (kbar)   2141.63     -0.60     -0.60
                               -0.60   2141.63     -0.60
                               -0.60     -0.60   2141.63

     corecor stress (kbar)  -3630.05      1.81      1.81
                                1.81  -3630.05      1.81
                                1.81      1.81  -3630.05

     ewald   stress (kbar)  -5422.66     16.78     16.78
                               16.78  -5422.66     16.78
                               16.78     16.78  -5422.66

     hubbard stress (kbar)      0.00      0.00      0.00
                                0.00      0.00      0.00
                                0.00      0.00      0.00

     DFT-D   stress (kbar)      0.00      0.00      0.00
                                0.00      0.00      0.00
                                0.00      0.00      0.00

     XDM     stress (kbar)      0.00      0.00      0.00
                                0.00      0.00      0.00
                                0.00      0.00      0.00

     dft-nl  stress (kbar)      0.00      0.00      0.00
                                0.00      0.00      0.00
                                0.00      0.00      0.00

     TS-vdW  stress (kbar)      0.00      0.00      0.00
                                0.00      0.00      0.00
                                0.00      0.00      0.00

     MDB     stress (kbar)      0.00      0.00      0.00
                                0.00      0.00      0.00
                                0.00      0.00      0.00

     3D-RISM stress (kbar)      0.00      0.00      0.00
                                0.00      0.00      0.00
                                0.00      0.00      0.00


     Writing all to output data dir ./tmp/rbsbs3.save/ :
     XML data file, charge density, pseudopotentials, collected wavefunctions

     init_run     :      2.55s CPU      2.74s WALL (       1 calls)
     electrons    :    501.92s CPU    383.59s WALL (       1 calls)
     forces       :      2.70s CPU      2.27s WALL (       1 calls)
     stress       :     14.20s CPU     13.56s WALL (       1 calls)

     Called by init_run:
     wfcinit      :      0.12s CPU      0.13s WALL (       1 calls)
     potinit      :      0.59s CPU      0.62s WALL (       1 calls)
     hinit0       :      0.83s CPU      0.85s WALL (       1 calls)

     Called by electrons:
     c_bands      :    374.42s CPU    266.49s WALL (      34 calls)
     sum_band     :     87.12s CPU     71.21s WALL (      34 calls)
     v_of_rho     :      6.63s CPU      7.24s WALL (      35 calls)
     v_h          :      0.51s CPU      0.59s WALL (      35 calls)
     v_xc         :      6.50s CPU      7.06s WALL (      37 calls)
     newd         :     27.23s CPU     32.21s WALL (      35 calls)
     PAW_pot      :      5.92s CPU      5.92s WALL (      35 calls)
     mix_rho      :      0.88s CPU      0.91s WALL (      34 calls)

     Called by c_bands:
     init_us_2    :     14.31s CPU     10.20s WALL (    1260 calls)
     cegterg      :    308.28s CPU    216.65s WALL (     620 calls)

     Called by sum_band:
     sum_band:wei :      0.01s CPU      0.01s WALL (      34 calls)
     sum_band:loo :     44.26s CPU     31.74s WALL (      34 calls)
     sum_band:buf :      0.39s CPU      0.29s WALL (     612 calls)
     sum_band:ini :      6.73s CPU      4.77s WALL (     612 calls)
     sum_band:cal :      4.15s CPU      2.35s WALL (     612 calls)
     sum_band:bec :      0.06s CPU      0.04s WALL (     612 calls)
     addusdens    :     40.88s CPU     37.55s WALL (      34 calls)
                                        0.00s GPU  (      34 calls)
     addusd:skk   :      0.06s CPU      0.06s WALL (     102 calls)
                                        0.00s GPU  (     102 calls)

     Called by *egterg:
     cdiaghg      :      5.98s CPU      4.37s WALL (    4128 calls)
     cegterg:over :     13.92s CPU      8.30s WALL (    3527 calls)
     cegterg:upda :      7.36s CPU      4.33s WALL (    3527 calls)
     cegterg:last :     13.45s CPU      7.65s WALL (    2168 calls)
     h_psi        :    241.70s CPU    176.35s WALL (    4147 calls)
     s_psi        :     16.57s CPU      8.99s WALL (    4147 calls)
     g_psi        :      2.46s CPU      1.75s WALL (    3527 calls)

     Called by h_psi:
     h_psi:calbec :     19.67s CPU     11.51s WALL (    4147 calls)
     vloc_psi     :    201.79s CPU    153.54s WALL (    4147 calls)
     add_vuspsi   :     19.00s CPU     10.38s WALL (    4147 calls)

     General routines
     calbec       :     24.82s CPU     14.51s WALL (    4849 calls)
     fft          :      4.23s CPU      4.64s WALL (     478 calls)
     ffts         :      0.35s CPU      0.34s WALL (      69 calls)
     fftw         :    171.74s CPU    131.05s WALL (   84986 calls)
     interpolate  :      0.68s CPU      0.71s WALL (      35 calls)

     Parallel routines

     PAW routines
     PAW_pot      :      5.92s CPU      5.92s WALL (      35 calls)
     PAW_symme    :      0.07s CPU      0.05s WALL (      68 calls)

     PWSCF        :   8m41.97s CPU   6m42.87s WALL


   This run was terminated on:  15:43:25   7May2025            

=------------------------------------------------------------------------------=
   JOB DONE.
=------------------------------------------------------------------------------=
