
     Program PWSCF v.7.3.1 starts on  1Apr2025 at 16:16:38 

     This program is part of the open-source Quantum ESPRESSO suite
     for quantum simulation of materials; please cite
         "P. Giannozzi et al., J. Phys.:Condens. Matter 21 395502 (2009);
         "P. Giannozzi et al., J. Phys.:Condens. Matter 29 465901 (2017);
         "P. Giannozzi et al., J. Chem. Phys. 152 154105 (2020);
          URL http://www.quantum-espresso.org", 
     in publications or presentations arising from this work. More details at
     http://www.quantum-espresso.org/quote

     Parallel version (MPI), running on     8 processors

     MPI processes distributed on     1 nodes
     56903 MiB available memory on the printing compute node when the environment starts

     Waiting for input...
     Reading input from standard input

     Current dimensions of program PWSCF are:
     Max number of different atomic species (ntypx) = 10
     Max number of k-points (npk) =  40000
     Max angular momentum in pseudopotentials (lmaxx) =  4
     file Rb.pbe-spn-kjpaw_psl.1.0.0.UPF: wavefunction(s)  4S renormalized
     file In.pbe-dn-kjpaw_psl.1.0.0.UPF: wavefunction(s)  5S 5P 4D renormalized
     file F.pbe-n-kjpaw_psl.1.0.0.UPF: wavefunction(s)  2S 2P renormalized
     Message from routine setup:
     using ibrav=0 with symmetry is DISCOURAGED, use correct ibrav instead

     R & G space division:  proc/nbgrp/npool/nimage =       8
     Subspace diagonalization in iterative solution of the eigenvalue problem:
     a serial algorithm will be used


     Parallelization info
     --------------------
     sticks:   dense  smooth     PW     G-vecs:    dense   smooth      PW
     Min         483     241     69                22588     7997    1221
     Max         484     242     70                22589     8000    1224
     Sum        3869    1933    553               180707    63989    9771

     Using Slab Decomposition



     bravais-lattice index     =            0
     lattice parameter (alat)  =       8.7099  a.u.
     unit-cell volume          =     660.7562 (a.u.)^3
     number of atoms/cell      =            5
     number of atomic types    =            3
     number of electrons       =        43.00
     number of Kohn-Sham states=           26
     kinetic-energy cutoff     =      80.0000  Ry
     charge density cutoff     =     640.0000  Ry
     scf convergence threshold =      1.0E-10
     mixing beta               =       0.3000
     number of iterations used =            8  plain     mixing
     Exchange-correlation= SLA  PW   PBX  PBC
                           (   1   4   3   4   0   0   0)

     celldm(1)=   8.709912  celldm(2)=   0.000000  celldm(3)=   0.000000
     celldm(4)=   0.000000  celldm(5)=   0.000000  celldm(6)=   0.000000

     crystal axes: (cart. coord. in units of alat)
               a(1) = (   1.000000   0.000000   0.000000 )  
               a(2) = (   0.000000   1.000000   0.000000 )  
               a(3) = (   0.000000   0.000000   1.000000 )  

     reciprocal axes: (cart. coord. in units 2 pi/alat)
               b(1) = (  1.000000  0.000000  0.000000 )  
               b(2) = (  0.000000  1.000000  0.000000 )  
               b(3) = (  0.000000  0.000000  1.000000 )  


     PseudoPot. # 1 for Rb read from file:
     /home/administrator/Downloads/BURAI/BURAI1.3/pseudopot/Rb.pbe-spn-kjpaw_psl.1.0.0.UPF
     MD5 check sum: 2771e311bc20ea25cdd5c0a9866b789c
     Pseudo is Projector augmented-wave + core cor, Zval =  9.0
     Generated using "atomic" code by A. Dal Corso  v.5.1.2
     Shape of augmentation charge: PSQ
     Using radial grid of 1219 points,  6 beta functions with: 
                l(1) =   0
                l(2) =   0
                l(3) =   1
                l(4) =   1
                l(5) =   2
                l(6) =   2
     Q(r) pseudized with 0 coefficients 


     PseudoPot. # 2 for In read from file:
     /home/administrator/Downloads/BURAI/BURAI1.3/pseudopot/In.pbe-dn-kjpaw_psl.1.0.0.UPF
     MD5 check sum: fd1a0e78b31ae68673c860ae14814025
     Pseudo is Projector augmented-wave + core cor, Zval = 13.0
     Generated using "atomic" code by A. Dal Corso  v.5.1.2
     Shape of augmentation charge: PSQ
     Using radial grid of 1241 points,  6 beta functions with: 
                l(1) =   0
                l(2) =   0
                l(3) =   1
                l(4) =   1
                l(5) =   2
                l(6) =   2
     Q(r) pseudized with 0 coefficients 


     PseudoPot. # 3 for F  read from file:
     /home/administrator/Downloads/BURAI/BURAI1.3/pseudopot/F.pbe-n-kjpaw_psl.1.0.0.UPF
     MD5 check sum: de2194216b7114fcf395f1df79715f8b
     Pseudo is Projector augmented-wave + core cor, Zval =  7.0
     Generated using "atomic" code by A. Dal Corso  v.5.1.2
     Shape of augmentation charge: PSQ
     Using radial grid of 1105 points,  4 beta functions with: 
                l(1) =   0
                l(2) =   0
                l(3) =   1
                l(4) =   1
     Q(r) pseudized with 0 coefficients 


     atomic species   valence    mass     pseudopotential
     Rb                9.00    85.46780     Rb( 1.00)
     In               13.00   114.81800     In( 1.00)
     F                 7.00    18.99800     F ( 1.00)

     48 Sym. Ops., with inversion, found


                                    s                        frac. trans.

      isym =  1     identity                                     

 cryst.   s( 1) = (     1          0          0      )
                  (     0          1          0      )
                  (     0          0          1      )

 cart.    s( 1) = (  1.0000000  0.0000000  0.0000000 )
                  (  0.0000000  1.0000000  0.0000000 )
                  (  0.0000000  0.0000000  1.0000000 )


      isym =  2     180 deg rotation - cart. axis [0,0,1]        

 cryst.   s( 2) = (    -1          0          0      )
                  (     0         -1          0      )
                  (     0          0          1      )

 cart.    s( 2) = ( -1.0000000  0.0000000  0.0000000 )
                  (  0.0000000 -1.0000000  0.0000000 )
                  (  0.0000000  0.0000000  1.0000000 )


      isym =  3     180 deg rotation - cart. axis [0,1,0]        

 cryst.   s( 3) = (    -1          0          0      )
                  (     0          1          0      )
                  (     0          0         -1      )

 cart.    s( 3) = ( -1.0000000  0.0000000  0.0000000 )
                  (  0.0000000  1.0000000  0.0000000 )
                  (  0.0000000  0.0000000 -1.0000000 )


      isym =  4     180 deg rotation - cart. axis [1,0,0]        

 cryst.   s( 4) = (     1          0          0      )
                  (     0         -1          0      )
                  (     0          0         -1      )

 cart.    s( 4) = (  1.0000000  0.0000000  0.0000000 )
                  (  0.0000000 -1.0000000  0.0000000 )
                  (  0.0000000  0.0000000 -1.0000000 )


      isym =  5     180 deg rotation - cart. axis [1,1,0]        

 cryst.   s( 5) = (     0          1          0      )
                  (     1          0          0      )
                  (     0          0         -1      )

 cart.    s( 5) = (  0.0000000  1.0000000  0.0000000 )
                  (  1.0000000  0.0000000  0.0000000 )
                  (  0.0000000  0.0000000 -1.0000000 )


      isym =  6     180 deg rotation - cart. axis [1,-1,0]       

 cryst.   s( 6) = (     0         -1          0      )
                  (    -1          0          0      )
                  (     0          0         -1      )

 cart.    s( 6) = (  0.0000000 -1.0000000  0.0000000 )
                  ( -1.0000000  0.0000000  0.0000000 )
                  (  0.0000000  0.0000000 -1.0000000 )


      isym =  7      90 deg rotation - cart. axis [0,0,-1]       

 cryst.   s( 7) = (     0         -1          0      )
                  (     1          0          0      )
                  (     0          0          1      )

 cart.    s( 7) = (  0.0000000  1.0000000  0.0000000 )
                  ( -1.0000000  0.0000000  0.0000000 )
                  (  0.0000000  0.0000000  1.0000000 )


      isym =  8      90 deg rotation - cart. axis [0,0,1]        

 cryst.   s( 8) = (     0          1          0      )
                  (    -1          0          0      )
                  (     0          0          1      )

 cart.    s( 8) = (  0.0000000 -1.0000000  0.0000000 )
                  (  1.0000000  0.0000000  0.0000000 )
                  (  0.0000000  0.0000000  1.0000000 )


      isym =  9     180 deg rotation - cart. axis [1,0,1]        

 cryst.   s( 9) = (     0          0          1      )
                  (     0         -1          0      )
                  (     1          0          0      )

 cart.    s( 9) = (  0.0000000  0.0000000  1.0000000 )
                  (  0.0000000 -1.0000000  0.0000000 )
                  (  1.0000000  0.0000000  0.0000000 )


      isym = 10     180 deg rotation - cart. axis [-1,0,1]       

 cryst.   s(10) = (     0          0         -1      )
                  (     0         -1          0      )
                  (    -1          0          0      )

 cart.    s(10) = (  0.0000000  0.0000000 -1.0000000 )
                  (  0.0000000 -1.0000000  0.0000000 )
                  ( -1.0000000  0.0000000  0.0000000 )


      isym = 11      90 deg rotation - cart. axis [0,1,0]        

 cryst.   s(11) = (     0          0         -1      )
                  (     0          1          0      )
                  (     1          0          0      )

 cart.    s(11) = (  0.0000000  0.0000000  1.0000000 )
                  (  0.0000000  1.0000000  0.0000000 )
                  ( -1.0000000  0.0000000  0.0000000 )


      isym = 12      90 deg rotation - cart. axis [0,-1,0]       

 cryst.   s(12) = (     0          0          1      )
                  (     0          1          0      )
                  (    -1          0          0      )

 cart.    s(12) = (  0.0000000  0.0000000 -1.0000000 )
                  (  0.0000000  1.0000000  0.0000000 )
                  (  1.0000000  0.0000000  0.0000000 )


      isym = 13     180 deg rotation - cart. axis [0,1,1]        

 cryst.   s(13) = (    -1          0          0      )
                  (     0          0          1      )
                  (     0          1          0      )

 cart.    s(13) = ( -1.0000000  0.0000000  0.0000000 )
                  (  0.0000000  0.0000000  1.0000000 )
                  (  0.0000000  1.0000000  0.0000000 )


      isym = 14     180 deg rotation - cart. axis [0,1,-1]       

 cryst.   s(14) = (    -1          0          0      )
                  (     0          0         -1      )
                  (     0         -1          0      )

 cart.    s(14) = ( -1.0000000  0.0000000  0.0000000 )
                  (  0.0000000  0.0000000 -1.0000000 )
                  (  0.0000000 -1.0000000  0.0000000 )


      isym = 15      90 deg rotation - cart. axis [-1,0,0]       

 cryst.   s(15) = (     1          0          0      )
                  (     0          0         -1      )
                  (     0          1          0      )

 cart.    s(15) = (  1.0000000  0.0000000  0.0000000 )
                  (  0.0000000  0.0000000  1.0000000 )
                  (  0.0000000 -1.0000000  0.0000000 )


      isym = 16      90 deg rotation - cart. axis [1,0,0]        

 cryst.   s(16) = (     1          0          0      )
                  (     0          0          1      )
                  (     0         -1          0      )

 cart.    s(16) = (  1.0000000  0.0000000  0.0000000 )
                  (  0.0000000  0.0000000 -1.0000000 )
                  (  0.0000000  1.0000000  0.0000000 )


      isym = 17     120 deg rotation - cart. axis [-1,-1,-1]     

 cryst.   s(17) = (     0          0          1      )
                  (     1          0          0      )
                  (     0          1          0      )

 cart.    s(17) = (  0.0000000  1.0000000  0.0000000 )
                  (  0.0000000  0.0000000  1.0000000 )
                  (  1.0000000  0.0000000  0.0000000 )


      isym = 18     120 deg rotation - cart. axis [-1,1,1]       

 cryst.   s(18) = (     0          0         -1      )
                  (    -1          0          0      )
                  (     0          1          0      )

 cart.    s(18) = (  0.0000000 -1.0000000  0.0000000 )
                  (  0.0000000  0.0000000  1.0000000 )
                  ( -1.0000000  0.0000000  0.0000000 )


      isym = 19     120 deg rotation - cart. axis [1,1,-1]       

 cryst.   s(19) = (     0          0         -1      )
                  (     1          0          0      )
                  (     0         -1          0      )

 cart.    s(19) = (  0.0000000  1.0000000  0.0000000 )
                  (  0.0000000  0.0000000 -1.0000000 )
                  ( -1.0000000  0.0000000  0.0000000 )


      isym = 20     120 deg rotation - cart. axis [1,-1,1]       

 cryst.   s(20) = (     0          0          1      )
                  (    -1          0          0      )
                  (     0         -1          0      )

 cart.    s(20) = (  0.0000000 -1.0000000  0.0000000 )
                  (  0.0000000  0.0000000 -1.0000000 )
                  (  1.0000000  0.0000000  0.0000000 )


      isym = 21     120 deg rotation - cart. axis [1,1,1]        

 cryst.   s(21) = (     0          1          0      )
                  (     0          0          1      )
                  (     1          0          0      )

 cart.    s(21) = (  0.0000000  0.0000000  1.0000000 )
                  (  1.0000000  0.0000000  0.0000000 )
                  (  0.0000000  1.0000000  0.0000000 )


      isym = 22     120 deg rotation - cart. axis [-1,1,-1]      

 cryst.   s(22) = (     0         -1          0      )
                  (     0          0         -1      )
                  (     1          0          0      )

 cart.    s(22) = (  0.0000000  0.0000000  1.0000000 )
                  ( -1.0000000  0.0000000  0.0000000 )
                  (  0.0000000 -1.0000000  0.0000000 )


      isym = 23     120 deg rotation - cart. axis [1,-1,-1]      

 cryst.   s(23) = (     0         -1          0      )
                  (     0          0          1      )
                  (    -1          0          0      )

 cart.    s(23) = (  0.0000000  0.0000000 -1.0000000 )
                  ( -1.0000000  0.0000000  0.0000000 )
                  (  0.0000000  1.0000000  0.0000000 )


      isym = 24     120 deg rotation - cart. axis [-1,-1,1]      

 cryst.   s(24) = (     0          1          0      )
                  (     0          0         -1      )
                  (    -1          0          0      )

 cart.    s(24) = (  0.0000000  0.0000000 -1.0000000 )
                  (  1.0000000  0.0000000  0.0000000 )
                  (  0.0000000 -1.0000000  0.0000000 )


      isym = 25     inversion                                    

 cryst.   s(25) = (    -1          0          0      )
                  (     0         -1          0      )
                  (     0          0         -1      )

 cart.    s(25) = ( -1.0000000  0.0000000  0.0000000 )
                  (  0.0000000 -1.0000000  0.0000000 )
                  (  0.0000000  0.0000000 -1.0000000 )


      isym = 26     inv. 180 deg rotation - cart. axis [0,0,1]   

 cryst.   s(26) = (     1          0          0      )
                  (     0          1          0      )
                  (     0          0         -1      )

 cart.    s(26) = (  1.0000000  0.0000000  0.0000000 )
                  (  0.0000000  1.0000000  0.0000000 )
                  (  0.0000000  0.0000000 -1.0000000 )


      isym = 27     inv. 180 deg rotation - cart. axis [0,1,0]   

 cryst.   s(27) = (     1          0          0      )
                  (     0         -1          0      )
                  (     0          0          1      )

 cart.    s(27) = (  1.0000000  0.0000000  0.0000000 )
                  (  0.0000000 -1.0000000  0.0000000 )
                  (  0.0000000  0.0000000  1.0000000 )


      isym = 28     inv. 180 deg rotation - cart. axis [1,0,0]   

 cryst.   s(28) = (    -1          0          0      )
                  (     0          1          0      )
                  (     0          0          1      )

 cart.    s(28) = ( -1.0000000  0.0000000  0.0000000 )
                  (  0.0000000  1.0000000  0.0000000 )
                  (  0.0000000  0.0000000  1.0000000 )


      isym = 29     inv. 180 deg rotation - cart. axis [1,1,0]   

 cryst.   s(29) = (     0         -1          0      )
                  (    -1          0          0      )
                  (     0          0          1      )

 cart.    s(29) = (  0.0000000 -1.0000000  0.0000000 )
                  ( -1.0000000  0.0000000  0.0000000 )
                  (  0.0000000  0.0000000  1.0000000 )


      isym = 30     inv. 180 deg rotation - cart. axis [1,-1,0]  

 cryst.   s(30) = (     0          1          0      )
                  (     1          0          0      )
                  (     0          0          1      )

 cart.    s(30) = (  0.0000000  1.0000000  0.0000000 )
                  (  1.0000000  0.0000000  0.0000000 )
                  (  0.0000000  0.0000000  1.0000000 )


      isym = 31     inv.  90 deg rotation - cart. axis [0,0,-1]  

 cryst.   s(31) = (     0          1          0      )
                  (    -1          0          0      )
                  (     0          0         -1      )

 cart.    s(31) = (  0.0000000 -1.0000000  0.0000000 )
                  (  1.0000000  0.0000000  0.0000000 )
                  (  0.0000000  0.0000000 -1.0000000 )


      isym = 32     inv.  90 deg rotation - cart. axis [0,0,1]   

 cryst.   s(32) = (     0         -1          0      )
                  (     1          0          0      )
                  (     0          0         -1      )

 cart.    s(32) = (  0.0000000  1.0000000  0.0000000 )
                  ( -1.0000000  0.0000000  0.0000000 )
                  (  0.0000000  0.0000000 -1.0000000 )


      isym = 33     inv. 180 deg rotation - cart. axis [1,0,1]   

 cryst.   s(33) = (     0          0         -1      )
                  (     0          1          0      )
                  (    -1          0          0      )

 cart.    s(33) = (  0.0000000  0.0000000 -1.0000000 )
                  (  0.0000000  1.0000000  0.0000000 )
                  ( -1.0000000  0.0000000  0.0000000 )


      isym = 34     inv. 180 deg rotation - cart. axis [-1,0,1]  

 cryst.   s(34) = (     0          0          1      )
                  (     0          1          0      )
                  (     1          0          0      )

 cart.    s(34) = (  0.0000000  0.0000000  1.0000000 )
                  (  0.0000000  1.0000000  0.0000000 )
                  (  1.0000000  0.0000000  0.0000000 )


      isym = 35     inv.  90 deg rotation - cart. axis [0,1,0]   

 cryst.   s(35) = (     0          0          1      )
                  (     0         -1          0      )
                  (    -1          0          0      )

 cart.    s(35) = (  0.0000000  0.0000000 -1.0000000 )
                  (  0.0000000 -1.0000000  0.0000000 )
                  (  1.0000000  0.0000000  0.0000000 )


      isym = 36     inv.  90 deg rotation - cart. axis [0,-1,0]  

 cryst.   s(36) = (     0          0         -1      )
                  (     0         -1          0      )
                  (     1          0          0      )

 cart.    s(36) = (  0.0000000  0.0000000  1.0000000 )
                  (  0.0000000 -1.0000000  0.0000000 )
                  ( -1.0000000  0.0000000  0.0000000 )


      isym = 37     inv. 180 deg rotation - cart. axis [0,1,1]   

 cryst.   s(37) = (     1          0          0      )
                  (     0          0         -1      )
                  (     0         -1          0      )

 cart.    s(37) = (  1.0000000  0.0000000  0.0000000 )
                  (  0.0000000  0.0000000 -1.0000000 )
                  (  0.0000000 -1.0000000  0.0000000 )


      isym = 38     inv. 180 deg rotation - cart. axis [0,1,-1]  

 cryst.   s(38) = (     1          0          0      )
                  (     0          0          1      )
                  (     0          1          0      )

 cart.    s(38) = (  1.0000000  0.0000000  0.0000000 )
                  (  0.0000000  0.0000000  1.0000000 )
                  (  0.0000000  1.0000000  0.0000000 )


      isym = 39     inv.  90 deg rotation - cart. axis [-1,0,0]  

 cryst.   s(39) = (    -1          0          0      )
                  (     0          0          1      )
                  (     0         -1          0      )

 cart.    s(39) = ( -1.0000000  0.0000000  0.0000000 )
                  (  0.0000000  0.0000000 -1.0000000 )
                  (  0.0000000  1.0000000  0.0000000 )


      isym = 40     inv.  90 deg rotation - cart. axis [1,0,0]   

 cryst.   s(40) = (    -1          0          0      )
                  (     0          0         -1      )
                  (     0          1          0      )

 cart.    s(40) = ( -1.0000000  0.0000000  0.0000000 )
                  (  0.0000000  0.0000000  1.0000000 )
                  (  0.0000000 -1.0000000  0.0000000 )


      isym = 41     inv. 120 deg rotation - cart. axis [-1,-1,-1]

 cryst.   s(41) = (     0          0         -1      )
                  (    -1          0          0      )
                  (     0         -1          0      )

 cart.    s(41) = (  0.0000000 -1.0000000  0.0000000 )
                  (  0.0000000  0.0000000 -1.0000000 )
                  ( -1.0000000  0.0000000  0.0000000 )


      isym = 42     inv. 120 deg rotation - cart. axis [-1,1,1]  

 cryst.   s(42) = (     0          0          1      )
                  (     1          0          0      )
                  (     0         -1          0      )

 cart.    s(42) = (  0.0000000  1.0000000  0.0000000 )
                  (  0.0000000  0.0000000 -1.0000000 )
                  (  1.0000000  0.0000000  0.0000000 )


      isym = 43     inv. 120 deg rotation - cart. axis [1,1,-1]  

 cryst.   s(43) = (     0          0          1      )
                  (    -1          0          0      )
                  (     0          1          0      )

 cart.    s(43) = (  0.0000000 -1.0000000  0.0000000 )
                  (  0.0000000  0.0000000  1.0000000 )
                  (  1.0000000  0.0000000  0.0000000 )


      isym = 44     inv. 120 deg rotation - cart. axis [1,-1,1]  

 cryst.   s(44) = (     0          0         -1      )
                  (     1          0          0      )
                  (     0          1          0      )

 cart.    s(44) = (  0.0000000  1.0000000  0.0000000 )
                  (  0.0000000  0.0000000  1.0000000 )
                  ( -1.0000000  0.0000000  0.0000000 )


      isym = 45     inv. 120 deg rotation - cart. axis [1,1,1]   

 cryst.   s(45) = (     0         -1          0      )
                  (     0          0         -1      )
                  (    -1          0          0      )

 cart.    s(45) = (  0.0000000  0.0000000 -1.0000000 )
                  ( -1.0000000  0.0000000  0.0000000 )
                  (  0.0000000 -1.0000000  0.0000000 )


      isym = 46     inv. 120 deg rotation - cart. axis [-1,1,-1] 

 cryst.   s(46) = (     0          1          0      )
                  (     0          0          1      )
                  (    -1          0          0      )

 cart.    s(46) = (  0.0000000  0.0000000 -1.0000000 )
                  (  1.0000000  0.0000000  0.0000000 )
                  (  0.0000000  1.0000000  0.0000000 )


      isym = 47     inv. 120 deg rotation - cart. axis [1,-1,-1] 

 cryst.   s(47) = (     0          1          0      )
                  (     0          0         -1      )
                  (     1          0          0      )

 cart.    s(47) = (  0.0000000  0.0000000  1.0000000 )
                  (  1.0000000  0.0000000  0.0000000 )
                  (  0.0000000 -1.0000000  0.0000000 )


      isym = 48     inv. 120 deg rotation - cart. axis [-1,-1,1] 

 cryst.   s(48) = (     0         -1          0      )
                  (     0          0          1      )
                  (     1          0          0      )

 cart.    s(48) = (  0.0000000  0.0000000  1.0000000 )
                  ( -1.0000000  0.0000000  0.0000000 )
                  (  0.0000000  1.0000000  0.0000000 )


   Cartesian axes

     site n.     atom                  positions (alat units)
         1        Rb     tau(   1) = (   0.0000000   0.0000000   0.0000000  )
         2        In     tau(   2) = (   0.5000000   0.5000000   0.5000000  )
         3        F      tau(   3) = (   0.5000000   0.5000000   0.0000000  )
         4        F      tau(   4) = (   0.0000000   0.5000000   0.5000000  )
         5        F      tau(   5) = (   0.5000000   0.0000000   0.5000000  )

   Crystallographic axes

     site n.     atom                  positions (cryst. coord.)
         1        Rb     tau(   1) = (  0.0000000  0.0000000  0.0000000  )
         2        In     tau(   2) = (  0.5000000  0.5000000  0.5000000  )
         3        F      tau(   3) = (  0.5000000  0.5000000  0.0000000  )
         4        F      tau(   4) = (  0.0000000  0.5000000  0.5000000  )
         5        F      tau(   5) = (  0.5000000  0.0000000  0.5000000  )

     number of k points=    35  Methfessel-Paxton smearing, width (Ry)=  0.0100
                       cart. coord. in units 2pi/alat
        k(    1) = (   0.0000000   0.0000000   0.0000000), wk =   0.0039062
        k(    2) = (   0.0000000   0.0000000   0.1250000), wk =   0.0234375
        k(    3) = (   0.0000000   0.0000000   0.2500000), wk =   0.0234375
        k(    4) = (   0.0000000   0.0000000   0.3750000), wk =   0.0234375
        k(    5) = (   0.0000000   0.0000000  -0.5000000), wk =   0.0117188
        k(    6) = (   0.0000000   0.1250000   0.1250000), wk =   0.0468750
        k(    7) = (   0.0000000   0.1250000   0.2500000), wk =   0.0937500
        k(    8) = (   0.0000000   0.1250000   0.3750000), wk =   0.0937500
        k(    9) = (   0.0000000   0.1250000  -0.5000000), wk =   0.0468750
        k(   10) = (   0.0000000   0.2500000   0.2500000), wk =   0.0468750
        k(   11) = (   0.0000000   0.2500000   0.3750000), wk =   0.0937500
        k(   12) = (   0.0000000   0.2500000  -0.5000000), wk =   0.0468750
        k(   13) = (   0.0000000   0.3750000   0.3750000), wk =   0.0468750
        k(   14) = (   0.0000000   0.3750000  -0.5000000), wk =   0.0468750
        k(   15) = (   0.0000000  -0.5000000  -0.5000000), wk =   0.0117188
        k(   16) = (   0.1250000   0.1250000   0.1250000), wk =   0.0312500
        k(   17) = (   0.1250000   0.1250000   0.2500000), wk =   0.0937500
        k(   18) = (   0.1250000   0.1250000   0.3750000), wk =   0.0937500
        k(   19) = (   0.1250000   0.1250000  -0.5000000), wk =   0.0468750
        k(   20) = (   0.1250000   0.2500000   0.2500000), wk =   0.0937500
        k(   21) = (   0.1250000   0.2500000   0.3750000), wk =   0.1875000
        k(   22) = (   0.1250000   0.2500000  -0.5000000), wk =   0.0937500
        k(   23) = (   0.1250000   0.3750000   0.3750000), wk =   0.0937500
        k(   24) = (   0.1250000   0.3750000  -0.5000000), wk =   0.0937500
        k(   25) = (   0.1250000  -0.5000000  -0.5000000), wk =   0.0234375
        k(   26) = (   0.2500000   0.2500000   0.2500000), wk =   0.0312500
        k(   27) = (   0.2500000   0.2500000   0.3750000), wk =   0.0937500
        k(   28) = (   0.2500000   0.2500000  -0.5000000), wk =   0.0468750
        k(   29) = (   0.2500000   0.3750000   0.3750000), wk =   0.0937500
        k(   30) = (   0.2500000   0.3750000  -0.5000000), wk =   0.0937500
        k(   31) = (   0.2500000  -0.5000000  -0.5000000), wk =   0.0234375
        k(   32) = (   0.3750000   0.3750000   0.3750000), wk =   0.0312500
        k(   33) = (   0.3750000   0.3750000  -0.5000000), wk =   0.0468750
        k(   34) = (   0.3750000  -0.5000000  -0.5000000), wk =   0.0234375
        k(   35) = (  -0.5000000  -0.5000000  -0.5000000), wk =   0.0039062

                       cryst. coord.
        k(    1) = (   0.0000000   0.0000000   0.0000000), wk =   0.0039062
        k(    2) = (   0.0000000   0.0000000   0.1250000), wk =   0.0234375
        k(    3) = (   0.0000000   0.0000000   0.2500000), wk =   0.0234375
        k(    4) = (   0.0000000   0.0000000   0.3750000), wk =   0.0234375
        k(    5) = (   0.0000000   0.0000000  -0.5000000), wk =   0.0117188
        k(    6) = (   0.0000000   0.1250000   0.1250000), wk =   0.0468750
        k(    7) = (   0.0000000   0.1250000   0.2500000), wk =   0.0937500
        k(    8) = (   0.0000000   0.1250000   0.3750000), wk =   0.0937500
        k(    9) = (   0.0000000   0.1250000  -0.5000000), wk =   0.0468750
        k(   10) = (   0.0000000   0.2500000   0.2500000), wk =   0.0468750
        k(   11) = (   0.0000000   0.2500000   0.3750000), wk =   0.0937500
        k(   12) = (   0.0000000   0.2500000  -0.5000000), wk =   0.0468750
        k(   13) = (   0.0000000   0.3750000   0.3750000), wk =   0.0468750
        k(   14) = (   0.0000000   0.3750000  -0.5000000), wk =   0.0468750
        k(   15) = (   0.0000000  -0.5000000  -0.5000000), wk =   0.0117188
        k(   16) = (   0.1250000   0.1250000   0.1250000), wk =   0.0312500
        k(   17) = (   0.1250000   0.1250000   0.2500000), wk =   0.0937500
        k(   18) = (   0.1250000   0.1250000   0.3750000), wk =   0.0937500
        k(   19) = (   0.1250000   0.1250000  -0.5000000), wk =   0.0468750
        k(   20) = (   0.1250000   0.2500000   0.2500000), wk =   0.0937500
        k(   21) = (   0.1250000   0.2500000   0.3750000), wk =   0.1875000
        k(   22) = (   0.1250000   0.2500000  -0.5000000), wk =   0.0937500
        k(   23) = (   0.1250000   0.3750000   0.3750000), wk =   0.0937500
        k(   24) = (   0.1250000   0.3750000  -0.5000000), wk =   0.0937500
        k(   25) = (   0.1250000  -0.5000000  -0.5000000), wk =   0.0234375
        k(   26) = (   0.2500000   0.2500000   0.2500000), wk =   0.0312500
        k(   27) = (   0.2500000   0.2500000   0.3750000), wk =   0.0937500
        k(   28) = (   0.2500000   0.2500000  -0.5000000), wk =   0.0468750
        k(   29) = (   0.2500000   0.3750000   0.3750000), wk =   0.0937500
        k(   30) = (   0.2500000   0.3750000  -0.5000000), wk =   0.0937500
        k(   31) = (   0.2500000  -0.5000000  -0.5000000), wk =   0.0234375
        k(   32) = (   0.3750000   0.3750000   0.3750000), wk =   0.0312500
        k(   33) = (   0.3750000   0.3750000  -0.5000000), wk =   0.0468750
        k(   34) = (   0.3750000  -0.5000000  -0.5000000), wk =   0.0234375
        k(   35) = (  -0.5000000  -0.5000000  -0.5000000), wk =   0.0039062

     Dense  grid:   180707 G-vectors     FFT dimensions: (  72,  72,  72)

     Smooth grid:    63989 G-vectors     FFT dimensions: (  50,  50,  50)

     Dynamical RAM for                 wfc:       0.40 MB

     Dynamical RAM for     wfc (w. buffer):      14.25 MB

     Dynamical RAM for           str. fact:       1.03 MB

     Dynamical RAM for           local pot:       0.00 MB

     Dynamical RAM for          nlocal pot:       0.91 MB

     Dynamical RAM for                qrad:       6.09 MB

     Dynamical RAM for          rho,v,vnew:       2.10 MB

     Dynamical RAM for               rhoin:       0.70 MB

     Dynamical RAM for            rho*nmix:       5.51 MB

     Dynamical RAM for           G-vectors:       1.35 MB

     Dynamical RAM for          h,s,v(r/c):       0.12 MB

     Dynamical RAM for          <psi|beta>:       0.02 MB

     Dynamical RAM for                 psi:       0.79 MB

     Dynamical RAM for                hpsi:       0.79 MB

     Dynamical RAM for                spsi:       0.79 MB

     Dynamical RAM for      wfcinit/wfcrot:       0.90 MB

     Dynamical RAM for           addusdens:      65.14 MB

     Estimated static dynamical RAM per process >      29.60 MB

     Estimated max dynamical RAM per process >     100.26 MB

     Estimated total dynamical RAM >     802.10 MB

     Initial potential from superposition of free atoms

     starting charge      42.9734, renormalised to      43.0000
     Starting wfcs are   29 randomized atomic wfcs
     Checking if some PAW data can be deallocated... 
       PAW data deallocated on    6 nodes for type:  1
       PAW data deallocated on    6 nodes for type:  2
       PAW data deallocated on    4 nodes for type:  3

     total cpu time spent up to now is       17.9 secs

     Self-consistent Calculation

     iteration #  1     ecut=    80.00 Ry     beta= 0.30
     Davidson diagonalization with overlap

---- Real-time Memory Report at c_bands before calling an iterative solver
           113 MiB given to the printing process from OS
             0 MiB allocation reported by mallinfo(arena+hblkhd)
         56497 MiB available memory on the node where the printing process lives
------------------
     ethr =  1.00E-02,  avg # of iterations =  5.0

     total cpu time spent up to now is      102.8 secs

     total energy              =    -829.09162564 Ry
     estimated scf accuracy    <       0.64711617 Ry

     iteration #  2     ecut=    80.00 Ry     beta= 0.30
     Davidson diagonalization with overlap

---- Real-time Memory Report at c_bands before calling an iterative solver
           144 MiB given to the printing process from OS
             0 MiB allocation reported by mallinfo(arena+hblkhd)
         55897 MiB available memory on the node where the printing process lives
------------------
     ethr =  1.50E-03,  avg # of iterations =  2.1

     total cpu time spent up to now is      151.7 secs

     total energy              =    -829.19422561 Ry
     estimated scf accuracy    <       0.03395314 Ry

     iteration #  3     ecut=    80.00 Ry     beta= 0.30
     Davidson diagonalization with overlap

---- Real-time Memory Report at c_bands before calling an iterative solver
           145 MiB given to the printing process from OS
             0 MiB allocation reported by mallinfo(arena+hblkhd)
         55809 MiB available memory on the node where the printing process lives
------------------
     ethr =  7.90E-05,  avg # of iterations =  6.4

     total cpu time spent up to now is      264.6 secs

     total energy              =    -829.19325190 Ry
     estimated scf accuracy    <       0.01341375 Ry

     iteration #  4     ecut=    80.00 Ry     beta= 0.30
     Davidson diagonalization with overlap

---- Real-time Memory Report at c_bands before calling an iterative solver
           146 MiB given to the printing process from OS
             0 MiB allocation reported by mallinfo(arena+hblkhd)
         55787 MiB available memory on the node where the printing process lives
------------------
     ethr =  3.12E-05,  avg # of iterations =  2.6

     total cpu time spent up to now is      320.1 secs

     total energy              =    -829.19413195 Ry
     estimated scf accuracy    <       0.00110076 Ry

     iteration #  5     ecut=    80.00 Ry     beta= 0.30
     Davidson diagonalization with overlap

---- Real-time Memory Report at c_bands before calling an iterative solver
           146 MiB given to the printing process from OS
             0 MiB allocation reported by mallinfo(arena+hblkhd)
         55717 MiB available memory on the node where the printing process lives
------------------
     ethr =  2.56E-06,  avg # of iterations =  5.4

     total cpu time spent up to now is      417.2 secs

     total energy              =    -829.19440383 Ry
     estimated scf accuracy    <       0.00011737 Ry

     iteration #  6     ecut=    80.00 Ry     beta= 0.30
     Davidson diagonalization with overlap

---- Real-time Memory Report at c_bands before calling an iterative solver
           146 MiB given to the printing process from OS
             0 MiB allocation reported by mallinfo(arena+hblkhd)
         55794 MiB available memory on the node where the printing process lives
------------------
     ethr =  2.73E-07,  avg # of iterations =  2.0

     total cpu time spent up to now is      462.0 secs

     total energy              =    -829.19443586 Ry
     estimated scf accuracy    <       0.00001085 Ry

     iteration #  7     ecut=    80.00 Ry     beta= 0.30
     Davidson diagonalization with overlap

---- Real-time Memory Report at c_bands before calling an iterative solver
           146 MiB given to the printing process from OS
             0 MiB allocation reported by mallinfo(arena+hblkhd)
         55851 MiB available memory on the node where the printing process lives
------------------
     ethr =  2.52E-08,  avg # of iterations =  1.6

     total cpu time spent up to now is      501.5 secs

     total energy              =    -829.19443637 Ry
     estimated scf accuracy    <       0.00000332 Ry

     iteration #  8     ecut=    80.00 Ry     beta= 0.30
     Davidson diagonalization with overlap

---- Real-time Memory Report at c_bands before calling an iterative solver
           147 MiB given to the printing process from OS
             0 MiB allocation reported by mallinfo(arena+hblkhd)
         55835 MiB available memory on the node where the printing process lives
------------------
     ethr =  7.73E-09,  avg # of iterations =  2.6

     total cpu time spent up to now is      556.6 secs

     total energy              =    -829.19443822 Ry
     estimated scf accuracy    <       0.00000138 Ry

     iteration #  9     ecut=    80.00 Ry     beta= 0.30
     Davidson diagonalization with overlap

---- Real-time Memory Report at c_bands before calling an iterative solver
           147 MiB given to the printing process from OS
             0 MiB allocation reported by mallinfo(arena+hblkhd)
         55826 MiB available memory on the node where the printing process lives
------------------
     ethr =  3.20E-09,  avg # of iterations =  1.0

     total cpu time spent up to now is      587.7 secs

     total energy              =    -829.19443768 Ry
     estimated scf accuracy    <       0.00000088 Ry

     iteration # 10     ecut=    80.00 Ry     beta= 0.30
     Davidson diagonalization with overlap

---- Real-time Memory Report at c_bands before calling an iterative solver
           148 MiB given to the printing process from OS
             0 MiB allocation reported by mallinfo(arena+hblkhd)
         55758 MiB available memory on the node where the printing process lives
------------------
     ethr =  2.04E-09,  avg # of iterations =  2.0

     total cpu time spent up to now is      634.3 secs

     total energy              =    -829.19443795 Ry
     estimated scf accuracy    <       0.00000003 Ry

     iteration # 11     ecut=    80.00 Ry     beta= 0.30
     Davidson diagonalization with overlap

---- Real-time Memory Report at c_bands before calling an iterative solver
           148 MiB given to the printing process from OS
             0 MiB allocation reported by mallinfo(arena+hblkhd)
         55655 MiB available memory on the node where the printing process lives
------------------
     ethr =  7.61E-11,  avg # of iterations =  2.0

     total cpu time spent up to now is      681.4 secs

     total energy              =    -829.19443796 Ry
     estimated scf accuracy    <          7.0E-09 Ry

     iteration # 12     ecut=    80.00 Ry     beta= 0.30
     Davidson diagonalization with overlap

---- Real-time Memory Report at c_bands before calling an iterative solver
           148 MiB given to the printing process from OS
             0 MiB allocation reported by mallinfo(arena+hblkhd)
         55789 MiB available memory on the node where the printing process lives
------------------
     ethr =  1.64E-11,  avg # of iterations =  2.7

     total cpu time spent up to now is      737.2 secs

     total energy              =    -829.19443797 Ry
     estimated scf accuracy    <          5.2E-10 Ry

     iteration # 13     ecut=    80.00 Ry     beta= 0.30
     Davidson diagonalization with overlap

---- Real-time Memory Report at c_bands before calling an iterative solver
           148 MiB given to the printing process from OS
             0 MiB allocation reported by mallinfo(arena+hblkhd)
         55704 MiB available memory on the node where the printing process lives
------------------
     ethr =  1.21E-12,  avg # of iterations =  4.5

     total cpu time spent up to now is      822.9 secs

     total energy              =    -829.19443796 Ry
     estimated scf accuracy    <       0.00000002 Ry

     iteration # 14     ecut=    80.00 Ry     beta= 0.30
     Davidson diagonalization with overlap

---- Real-time Memory Report at c_bands before calling an iterative solver
           148 MiB given to the printing process from OS
             0 MiB allocation reported by mallinfo(arena+hblkhd)
         55748 MiB available memory on the node where the printing process lives
------------------
     ethr =  1.21E-12,  avg # of iterations =  4.3

     total cpu time spent up to now is      903.7 secs

     End of self-consistent calculation

          k = 0.0000 0.0000 0.0000 (  8025 PWs)   bands (ev):

   -21.1774 -17.8069 -17.6149 -17.6149  -8.4506  -8.4506  -8.4506  -8.2137
    -8.2137  -5.2491  -5.2491  -5.2491  -0.4342  -0.4342  -0.4342   1.2055
     1.2055   1.2055   1.2611   1.2611   1.2611   3.5914  10.2491  10.8633
    10.8633  13.2045

     occupation numbers 
     1.0000   1.0000   1.0000   1.0000   1.0000   1.0000   1.0000   1.0000
     1.0000   1.0000   1.0000   1.0000   1.0000   1.0000   1.0000   1.0000
     1.0000   1.0000   1.0000   1.0000   1.0000   1.0000  -0.0000  -0.0000
    -0.0000  -0.0000

          k = 0.0000 0.0000 0.1250 (  8017 PWs)   bands (ev):

   -21.1760 -17.7989 -17.6151 -17.6147  -8.4535  -8.4535  -8.4505  -8.2628
    -8.2137  -5.2555  -5.2433  -5.2433  -0.4439  -0.4248  -0.4248   1.1441
     1.1903   1.1977   1.1977   1.2528   1.2528   3.9012  10.2508  10.9574
    10.9746  12.6480

     occupation numbers 
     1.0000   1.0000   1.0000   1.0000   1.0000   1.0000   1.0000   1.0000
     1.0000   1.0000   1.0000   1.0000   1.0000   1.0000   1.0000   1.0000
     1.0000   1.0000   1.0000   1.0000   1.0000   1.0000  -0.0000  -0.0000
    -0.0000  -0.0000

          k = 0.0000 0.0000 0.2500 (  8017 PWs)   bands (ev):

   -21.1725 -17.7800 -17.6148 -17.6141  -8.4604  -8.4604  -8.4503  -8.3797
    -8.2136  -5.2710  -5.2295  -5.2295  -0.4652  -0.4023  -0.4023   0.9280
     1.1543   1.1812   1.1812   1.2309   1.2309   4.6359   9.9704  11.1967
    11.5397  12.2861

     occupation numbers 
     1.0000   1.0000   1.0000   1.0000   1.0000   1.0000   1.0000   1.0000
     1.0000   1.0000   1.0000   1.0000   1.0000   1.0000   1.0000   1.0000
     1.0000   1.0000   1.0000   1.0000   1.0000   1.0000  -0.0000  -0.0000
    -0.0000  -0.0000

          k = 0.0000 0.0000 0.3750 (  7981 PWs)   bands (ev):

   -21.1689 -17.7623 -17.6136 -17.6130  -8.4943  -8.4672  -8.4672  -8.4502
    -8.2135  -5.2865  -5.2156  -5.2156  -0.4836  -0.3802  -0.3802   0.7630
     1.1189   1.1713   1.1713   1.2030   1.2030   5.4476   9.4401  11.4567
    12.0635  12.0635

     occupation numbers 
     1.0000   1.0000   1.0000   1.0000   1.0000   1.0000   1.0000   1.0000
     1.0000   1.0000   1.0000   1.0000   1.0000   1.0000   1.0000   1.0000
     1.0000   1.0000   1.0000   1.0000   1.0000   1.0000  -0.0000  -0.0000
    -0.0000  -0.0000

          k = 0.0000 0.0000-0.5000 (  7960 PWs)   bands (ev):

   -21.1675 -17.7554 -17.6133 -17.6118  -8.5411  -8.4701  -8.4701  -8.4501
    -8.2135  -5.2929  -5.2098  -5.2098  -0.4905  -0.3711  -0.3711   0.7037
     1.1044   1.1750   1.1750   1.1838   1.1838   5.8491   9.1306  11.5720
    11.9884  11.9884

     occupation numbers 
     1.0000   1.0000   1.0000   1.0000   1.0000   1.0000   1.0000   1.0000
     1.0000   1.0000   1.0000   1.0000   1.0000   1.0000   1.0000   1.0000
     1.0000   1.0000   1.0000   1.0000   1.0000   1.0027  -0.0000  -0.0000
    -0.0000  -0.0000

          k = 0.0000 0.1250 0.1250 (  8013 PWs)   bands (ev):

   -21.1746 -17.7906 -17.6152 -17.6146  -8.4563  -8.4536  -8.4531  -8.2864
    -8.2385  -5.2592  -5.2434  -5.2380  -0.6379  -0.4140  -0.2240   1.0359
     1.1506   1.1895   1.2147   1.2441   1.2840   4.1658  10.3039  10.9865
    11.0731  12.5321

     occupation numbers 
     1.0000   1.0000   1.0000   1.0000   1.0000   1.0000   1.0000   1.0000
     1.0000   1.0000   1.0000   1.0000   1.0000   1.0000   1.0000   1.0000
     1.0000   1.0000   1.0000   1.0000   1.0000   1.0000  -0.0000  -0.0000
    -0.0000  -0.0000

          k = 0.0000 0.1250 0.2500 (  7978 PWs)   bands (ev):

   -21.1712 -17.7710 -17.6151 -17.6140  -8.4630  -8.4602  -8.4530  -8.3926
    -8.2478  -5.2741  -5.2373  -5.2251  -0.7998  -0.3878  -0.0425   0.8671
     1.1009   1.1721   1.2078   1.2211   1.2939   4.8309  10.0909  11.2077
    11.4970  12.2897

     occupation numbers 
     1.0000   1.0000   1.0000   1.0000   1.0000   1.0000   1.0000   1.0000
     1.0000   1.0000   1.0000   1.0000   1.0000   1.0000   1.0000   1.0000
     1.0000   1.0000   1.0000   1.0000   1.0000   1.0000  -0.0000  -0.0000
    -0.0000  -0.0000

          k = 0.0000 0.1250 0.3750 (  7978 PWs)   bands (ev):

   -21.1678 -17.7525 -17.6139 -17.6133  -8.5046  -8.4697  -8.4670  -8.4528
    -8.2490  -5.2904  -5.2298  -5.2121  -0.9001  -0.3618   0.0828   0.7389
     1.0626   1.1609   1.1912   1.1919   1.2839   5.5990   9.5607  11.4896
    11.8869  12.1042

     occupation numbers 
     1.0000   1.0000   1.0000   1.0000   1.0000   1.0000   1.0000   1.0000
     1.0000   1.0000   1.0000   1.0000   1.0000   1.0000   1.0000   1.0000
     1.0000   1.0000   1.0000   1.0000   1.0000   1.0000  -0.0000  -0.0000
    -0.0000  -0.0000

          k = 0.0000 0.1250-0.5000 (  7968 PWs)   bands (ev):

   -21.1664 -17.7453 -17.6134 -17.6125  -8.5507  -8.4725  -8.4697  -8.4527
    -8.2493  -5.2972  -5.2266  -5.2067  -0.9336  -0.3510   0.1284   0.6918
     1.0489   1.1649   1.1714   1.1831   1.2769   5.9862   9.2468  11.6783
    11.7698  12.0382

     occupation numbers 
     1.0000   1.0000   1.0000   1.0000   1.0000   1.0000   1.0000   1.0000
     1.0000   1.0000   1.0000   1.0000   1.0000   1.0000   1.0000   1.0000
     1.0000   1.0000   1.0000   1.0000   1.0000   1.0348  -0.0000  -0.0000
    -0.0000  -0.0000

          k = 0.0000 0.2500 0.2500 (  7980 PWs)   bands (ev):

   -21.1682 -17.7495 -17.6158 -17.6136  -8.4694  -8.4601  -8.4592  -8.4525
    -8.3001  -5.2845  -5.2530  -5.2145  -1.0790  -0.3524   0.2993   0.7612
     1.0556   1.1516   1.1953   1.2173   1.3676   5.3620  10.2509  10.9956
    11.7398  12.2725

     occupation numbers 
     1.0000   1.0000   1.0000   1.0000   1.0000   1.0000   1.0000   1.0000
     1.0000   1.0000   1.0000   1.0000   1.0000   1.0000   1.0000   1.0000
     1.0000   1.0000   1.0000   1.0000   1.0000   1.0000  -0.0000  -0.0000
    -0.0000  -0.0000

          k = 0.0000 0.2500 0.3750 (  7982 PWs)   bands (ev):

   -21.1652 -17.7285 -17.6153 -17.6133  -8.5436  -8.4757  -8.4662  -8.4591
    -8.3196  -5.3001  -5.2636  -5.2039  -1.2481  -0.3163   0.5364   0.6820
     1.0315   1.1364   1.1638   1.2115   1.3966   6.0267   9.8770  11.0997
    11.9201  12.2203

     occupation numbers 
     1.0000   1.0000   1.0000   1.0000   1.0000   1.0000   1.0000   1.0000
     1.0000   1.0000   1.0000   1.0000   1.0000   1.0000   1.0000   1.0000
     1.0000   1.0000   1.0000   1.0000   1.0000   1.0246  -0.0000  -0.0000
    -0.0000  -0.0000

          k = 0.0000 0.2500-0.5000 (  7972 PWs)   bands (ev):

   -21.1639 -17.7201 -17.6141 -17.6139  -8.5850  -8.4784  -8.4689  -8.4590
    -8.3235  -5.3076  -5.2667  -5.1994  -1.3040  -0.3012   0.6238   0.6529
     1.0265   1.1393   1.1414   1.2046   1.3998   6.3764   9.5665  11.2255
    11.8536  12.1916

     occupation numbers 
     1.0000   1.0000   1.0000   1.0000   1.0000   1.0000   1.0000   1.0000
     1.0000   1.0000   1.0000   1.0000   1.0000   1.0000   1.0000   1.0000
     1.0000   1.0000   1.0000   1.0000   1.0000  -0.0242  -0.0000  -0.0000
    -0.0000  -0.0000

          k = 0.0000 0.3750 0.3750 (  7976 PWs)   bands (ev):

   -21.1625 -17.7039 -17.6163 -17.6140  -8.6071  -8.4817  -8.4657  -8.4652
    -8.3642  -5.3110  -5.2955  -5.1955  -1.4566  -0.2692   0.6289   0.8432
     1.0320   1.1145   1.1316   1.2283   1.4700   6.5896  10.1721  10.5436
    11.8095  12.3754

     occupation numbers 
     1.0000   1.0000   1.0000   1.0000   1.0000   1.0000   1.0000   1.0000
     1.0000   1.0000   1.0000   1.0000   1.0000   1.0000   1.0000   1.0000
     1.0000   1.0000   1.0000   1.0000   1.0000  -0.0000  -0.0000  -0.0000
    -0.0000  -0.0000

          k = 0.0000 0.3750-0.5000 (  7980 PWs)   bands (ev):

   -21.1614 -17.6936 -17.6158 -17.6153  -8.6396  -8.4842  -8.4681  -8.4652
    -8.3761  -5.3180  -5.3061  -5.1921  -1.5252  -0.2492   0.6083   0.9478
     1.0403   1.1115   1.1116   1.2348   1.4921   6.8948   9.9982  10.5931
    11.6523  12.4566

     occupation numbers 
     1.0000   1.0000   1.0000   1.0000   1.0000   1.0000   1.0000   1.0000
     1.0000   1.0000   1.0000   1.0000   1.0000   1.0000   1.0000   1.0000
     1.0000   1.0000   1.0000   1.0000   1.0000  -0.0000  -0.0000  -0.0000
    -0.0000  -0.0000

          k = 0.0000-0.5000-0.5000 (  8020 PWs)   bands (ev):

   -21.1604 -17.6820 -17.6165 -17.6165  -8.6683  -8.4866  -8.4678  -8.4678
    -8.3915  -5.3223  -5.3223  -5.1890  -1.5979  -0.2269   0.5896   1.0501
     1.0501   1.0993   1.0993   1.2563   1.5264   7.1769  10.2720  10.2720
    11.3822  12.7336

     occupation numbers 
     1.0000   1.0000   1.0000   1.0000   1.0000   1.0000   1.0000   1.0000
     1.0000   1.0000   1.0000   1.0000   1.0000   1.0000   1.0000   1.0000
     1.0000   1.0000   1.0000   1.0000   1.0000  -0.0000  -0.0000  -0.0000
    -0.0000  -0.0000

          k = 0.1250 0.1250 0.1250 (  8004 PWs)   bands (ev):

   -21.1732 -17.7820 -17.6149 -17.6149  -8.4563  -8.4561  -8.4561  -8.2864
    -8.2864  -5.2549  -5.2549  -5.2323  -0.8233  -0.2132  -0.2132   0.9589
     1.1327   1.1327   1.2522   1.2786   1.2786   4.4003  10.3886  11.0598
    11.0598  12.5838

     occupation numbers 
     1.0000   1.0000   1.0000   1.0000   1.0000   1.0000   1.0000   1.0000
     1.0000   1.0000   1.0000   1.0000   1.0000   1.0000   1.0000   1.0000
     1.0000   1.0000   1.0000   1.0000   1.0000   1.0000  -0.0000  -0.0000
    -0.0000  -0.0000

          k = 0.1250 0.1250 0.2500 (  8003 PWs)   bands (ev):

   -21.1700 -17.7619 -17.6150 -17.6143  -8.4632  -8.4626  -8.4558  -8.4004
    -8.2863  -5.2750  -5.2445  -5.2261  -1.0290  -0.1871   0.0334   0.8253
     1.0652   1.1185   1.2504   1.2865   1.2889   5.0116  10.2121  11.2460
    11.3667  12.1503

     occupation numbers 
     1.0000   1.0000   1.0000   1.0000   1.0000   1.0000   1.0000   1.0000
     1.0000   1.0000   1.0000   1.0000   1.0000   1.0000   1.0000   1.0000
     1.0000   1.0000   1.0000   1.0000   1.0000   1.0000  -0.0000  -0.0000
    -0.0000  -0.0000

          k = 0.1250 0.1250 0.3750 (  7985 PWs)   bands (ev):

   -21.1668 -17.7427 -17.6139 -17.6136  -8.5125  -8.4702  -8.4689  -8.4555
    -8.2862  -5.2937  -5.2341  -5.2212  -1.1576  -0.1610   0.2092   0.7249
     1.0163   1.1184   1.2303   1.2514   1.2993   5.7417   9.6648  11.4523
    11.8951  11.9266

     occupation numbers 
     1.0000   1.0000   1.0000   1.0000   1.0000   1.0000   1.0000   1.0000
     1.0000   1.0000   1.0000   1.0000   1.0000   1.0000   1.0000   1.0000
     1.0000   1.0000   1.0000   1.0000   1.0000   1.0001  -0.0000  -0.0000
    -0.0000  -0.0000

          k = 0.1250 0.1250-0.5000 (  7966 PWs)   bands (ev):

   -21.1655 -17.7351 -17.6134 -17.6130  -8.5584  -8.4732  -8.4715  -8.4554
    -8.2861  -5.3014  -5.2298  -5.2193  -1.2005  -0.1503   0.2741   0.6883
     0.9988   1.1283   1.2213   1.2220   1.3016   6.1163   9.3427  11.5536
    11.7962  12.0594

     occupation numbers 
     1.0000   1.0000   1.0000   1.0000   1.0000   1.0000   1.0000   1.0000
     1.0000   1.0000   1.0000   1.0000   1.0000   1.0000   1.0000   1.0000
     1.0000   1.0000   1.0000   1.0000   1.0000   0.7682  -0.0000  -0.0000
    -0.0000  -0.0000

          k = 0.1250 0.2500 0.2500 (  8000 PWs)   bands (ev):

   -21.1671 -17.7400 -17.6154 -17.6139  -8.4694  -8.4626  -8.4624  -8.4524
    -8.3450  -5.2835  -5.2595  -5.2244  -1.3051  -0.0756   0.3139   0.7472
     1.0169   1.0773   1.2646   1.2860   1.3640   5.5109  10.3778  10.9448
    11.4745  12.1109

     occupation numbers 
     1.0000   1.0000   1.0000   1.0000   1.0000   1.0000   1.0000   1.0000
     1.0000   1.0000   1.0000   1.0000   1.0000   1.0000   1.0000   1.0000
     1.0000   1.0000   1.0000   1.0000   1.0000   1.0000  -0.0000  -0.0000
    -0.0000  -0.0000

          k = 0.1250 0.2500 0.3750 (  7984 PWs)   bands (ev):

   -21.1643 -17.7186 -17.6151 -17.6135  -8.5458  -8.4760  -8.4690  -8.4621
    -8.3608  -5.3023  -5.2662  -5.2204  -1.4790  -0.0293   0.5614   0.6891
     0.9766   1.0764   1.2453   1.2777   1.3965   6.1488   9.9325  10.9891
    11.7647  12.0484

     occupation numbers 
     1.0000   1.0000   1.0000   1.0000   1.0000   1.0000   1.0000   1.0000
     1.0000   1.0000   1.0000   1.0000   1.0000   1.0000   1.0000   1.0000
     1.0000   1.0000   1.0000   1.0000   1.0000   0.5825  -0.0000  -0.0000
    -0.0000  -0.0000

          k = 0.1250 0.2500-0.5000 (  7972 PWs)   bands (ev):

   -21.1631 -17.7100 -17.6142 -17.6136  -8.5879  -8.4788  -8.4717  -8.4620
    -8.3633  -5.3114  -5.2680  -5.2184  -1.5369  -0.0125   0.6528   0.6685
     0.9618   1.0954   1.2297   1.2611   1.4028   6.4895   9.6007  11.0390
    11.9905  12.0283

     occupation numbers 
     1.0000   1.0000   1.0000   1.0000   1.0000   1.0000   1.0000   1.0000
     1.0000   1.0000   1.0000   1.0000   1.0000   1.0000   1.0000   1.0000
     1.0000   1.0000   1.0000   1.0000   1.0000  -0.0017  -0.0000  -0.0000
    -0.0000  -0.0000

          k = 0.1250 0.3750 0.3750 (  7979 PWs)   bands (ev):

   -21.1617 -17.6941 -17.6159 -17.6139  -8.6071  -8.4822  -8.4688  -8.4686
    -8.4060  -5.3130  -5.2990  -5.2162  -1.6822   0.0353   0.6537   0.8448
     0.9629   1.0765   1.2326   1.2891   1.4705   6.6937  10.1629  10.3964
    11.6853  12.0640

     occupation numbers 
     1.0000   1.0000   1.0000   1.0000   1.0000   1.0000   1.0000   1.0000
     1.0000   1.0000   1.0000   1.0000   1.0000   1.0000   1.0000   1.0000
     1.0000   1.0000   1.0000   1.0000   1.0000  -0.0000  -0.0000  -0.0000
    -0.0000  -0.0000

          k = 0.1250 0.3750-0.5000 (  7978 PWs)   bands (ev):

   -21.1607 -17.6837 -17.6155 -17.6149  -8.6398  -8.4848  -8.4714  -8.4686
    -8.4171  -5.3213  -5.3087  -5.2142  -1.7499   0.0590   0.6397   0.9194
     0.9582   1.1268   1.2231   1.2789   1.4932   6.9946   9.9268  10.4263
    11.7550  11.9072

     occupation numbers 
     1.0000   1.0000   1.0000   1.0000   1.0000   1.0000   1.0000   1.0000
     1.0000   1.0000   1.0000   1.0000   1.0000   1.0000   1.0000   1.0000
     1.0000   1.0000   1.0000   1.0000   1.0000  -0.0000  -0.0000  -0.0000
    -0.0000  -0.0000

          k = 0.1250-0.5000-0.5000 (  7972 PWs)   bands (ev):

   -21.1597 -17.6721 -17.6160 -17.6160  -8.6682  -8.4873  -8.4713  -8.4713
    -8.4321  -5.3254  -5.3254  -5.2125  -1.8210   0.0857   0.6267   0.9601
     0.9601   1.2209   1.2209   1.2568   1.5276   7.2756  10.1061  10.1061
    11.5438  11.8372

     occupation numbers 
     1.0000   1.0000   1.0000   1.0000   1.0000   1.0000   1.0000   1.0000
     1.0000   1.0000   1.0000   1.0000   1.0000   1.0000   1.0000   1.0000
     1.0000   1.0000   1.0000   1.0000   1.0000  -0.0000  -0.0000  -0.0000
    -0.0000  -0.0000

          k = 0.2500 0.2500 0.2500 (  8003 PWs)   bands (ev):

   -21.1646 -17.7171 -17.6146 -17.6146  -8.4700  -8.4700  -8.4682  -8.4523
    -8.4523  -5.2810  -5.2810  -5.2419  -1.6093   0.3503   0.3503   0.7199
     0.9889   0.9889   1.3476   1.3476   1.3671   5.9358  10.6951  10.8095
    10.8095  12.4571

     occupation numbers 
     1.0000   1.0000   1.0000   1.0000   1.0000   1.0000   1.0000   1.0000
     1.0000   1.0000   1.0000   1.0000   1.0000   1.0000   1.0000   1.0000
     1.0000   1.0000   1.0000   1.0000   1.0000   1.0202  -0.0000  -0.0000
    -0.0000  -0.0000

          k = 0.2500 0.2500 0.3750 (  7975 PWs)   bands (ev):

   -21.1620 -17.6945 -17.6147 -17.6137  -8.5584  -8.4776  -8.4749  -8.4693
    -8.4521  -5.3083  -5.2785  -5.2531  -1.8053   0.3890   0.6620   0.7028
     0.9257   1.0092   1.3410   1.3615   1.4112   6.5053  10.0417  10.6678
    11.1929  12.6822

     occupation numbers 
     1.0000   1.0000   1.0000   1.0000   1.0000   1.0000   1.0000   1.0000
     1.0000   1.0000   1.0000   1.0000   1.0000   1.0000   1.0000   1.0000
     1.0000   1.0000   1.0000   1.0000   1.0000  -0.0010  -0.0000  -0.0000
    -0.0000  -0.0000

          k = 0.2500 0.2500-0.5000 (  7972 PWs)   bands (ev):

   -21.1609 -17.6853 -17.6145 -17.6134  -8.6020  -8.4807  -8.4773  -8.4693
    -8.4520  -5.3203  -5.2775  -5.2570  -1.8709   0.4058   0.6984   0.7590
     0.9024   1.0587   1.3354   1.3367   1.4274   6.8222   9.6750  10.6093
    11.5083  12.3715

     occupation numbers 
     1.0000   1.0000   1.0000   1.0000   1.0000   1.0000   1.0000   1.0000
     1.0000   1.0000   1.0000   1.0000   1.0000   1.0000   1.0000   1.0000
     1.0000   1.0000   1.0000   1.0000   1.0000  -0.0000  -0.0000  -0.0000
    -0.0000  -0.0000

          k = 0.2500 0.3750 0.3750 (  7984 PWs)   bands (ev):

   -21.1598 -17.6699 -17.6148 -17.6137  -8.6069  -8.5067  -8.4835  -8.4768
    -8.4760  -5.3177  -5.3079  -5.2646  -2.0190   0.5603   0.7112   0.8480
     0.9032   1.0340   1.3685   1.3871   1.4721   7.0049  10.0815  10.0861
    11.0092  12.2856

     occupation numbers 
     1.0000   1.0000   1.0000   1.0000   1.0000   1.0000   1.0000   1.0000
     1.0000   1.0000   1.0000   1.0000   1.0000   1.0000   1.0000   1.0000
     1.0000   1.0000   1.0000   1.0000   1.0000  -0.0000  -0.0000  -0.0000
    -0.0000  -0.0000

          k = 0.2500 0.3750-0.5000 (  7990 PWs)   bands (ev):

   -21.1588 -17.6595 -17.6148 -17.6139  -8.6408  -8.5153  -8.4863  -8.4793
    -8.4767  -5.3292  -5.3150  -5.2666  -2.0908   0.5980   0.7134   0.8803
     0.8863   1.1422   1.3670   1.3793   1.4965   7.2963   9.7365  10.0736
    11.0325  12.1049

     occupation numbers 
     1.0000   1.0000   1.0000   1.0000   1.0000   1.0000   1.0000   1.0000
     1.0000   1.0000   1.0000   1.0000   1.0000   1.0000   1.0000   1.0000
     1.0000   1.0000   1.0000   1.0000   1.0000  -0.0000  -0.0000  -0.0000
    -0.0000  -0.0000

          k = 0.2500-0.5000-0.5000 (  7992 PWs)   bands (ev):

   -21.1579 -17.6480 -17.6149 -17.6149  -8.6681  -8.5300  -8.4890  -8.4797
    -8.4797  -5.3329  -5.3329  -5.2679  -2.1649   0.6453   0.7150   0.8876
     0.8876   1.2578   1.3710   1.3710   1.5306   7.5796   9.7580   9.7580
    10.8667  12.0120

     occupation numbers 
     1.0000   1.0000   1.0000   1.0000   1.0000   1.0000   1.0000   1.0000
     1.0000   1.0000   1.0000   1.0000   1.0000   1.0000   1.0000   1.0000
     1.0000   1.0000   1.0000   1.0000   1.0000  -0.0000  -0.0000  -0.0000
    -0.0000  -0.0000

          k = 0.3750 0.3750 0.3750 (  7985 PWs)   bands (ev):

   -21.1578 -17.6452 -17.6138 -17.6138  -8.6068  -8.6068  -8.4850  -8.4850
    -8.4829  -5.3224  -5.3224  -5.3063  -2.2442   0.7634   0.8506   0.8506
     1.0116   1.0116   1.4555   1.4555   1.4850   7.4670   9.8185   9.8185
    10.4119  12.5311

     occupation numbers 
     1.0000   1.0000   1.0000   1.0000   1.0000   1.0000   1.0000   1.0000
     1.0000   1.0000   1.0000   1.0000   1.0000   1.0000   1.0000   1.0000
     1.0000   1.0000   1.0000   1.0000   1.0000  -0.0000  -0.0000  -0.0000
    -0.0000  -0.0000

          k = 0.3750 0.3750-0.5000 (  7964 PWs)   bands (ev):

   -21.1570 -17.6346 -17.6141 -17.6133  -8.6480  -8.6067  -8.4884  -8.4867
    -8.4848  -5.3372  -5.3244  -5.3144  -2.3203   0.7813   0.8515   0.8550
     1.0051   1.1763   1.4640   1.4712   1.5077   7.7618   9.5388   9.7165
    10.2437  12.5553

     occupation numbers 
     1.0000   1.0000   1.0000   1.0000   1.0000   1.0000   1.0000   1.0000
     1.0000   1.0000   1.0000   1.0000   1.0000   1.0000   1.0000   1.0000
     1.0000   1.0000   1.0000   1.0000   1.0000  -0.0000  -0.0000  -0.0000
    -0.0000  -0.0000

          k = 0.3750-0.5000-0.5000 (  7984 PWs)   bands (ev):

   -21.1562 -17.6235 -17.6138 -17.6138  -8.6679  -8.6275  -8.4909  -8.4881
    -8.4881  -5.3404  -5.3404  -5.3217  -2.3981   0.8015   0.8487   0.8487
     1.0923   1.2588   1.4893   1.4893   1.5335   8.0847   9.4574   9.4574
     9.9358  12.6998

     occupation numbers 
     1.0000   1.0000   1.0000   1.0000   1.0000   1.0000   1.0000   1.0000
     1.0000   1.0000   1.0000   1.0000   1.0000   1.0000   1.0000   1.0000
     1.0000   1.0000   1.0000   1.0000   1.0000  -0.0000  -0.0000  -0.0000
    -0.0000  -0.0000

          k =-0.5000-0.5000-0.5000 (  8024 PWs)   bands (ev):

   -21.1555 -17.6133 -17.6133 -17.6133  -8.6679  -8.6679  -8.4916  -8.4916
    -8.4916  -5.3435  -5.3435  -5.3435  -2.4773   0.8368   0.8368   0.8368
     1.2592   1.2592   1.5347   1.5347   1.5347   8.5322   9.3424   9.3424
     9.3424  13.1578

     occupation numbers 
     1.0000   1.0000   1.0000   1.0000   1.0000   1.0000   1.0000   1.0000
     1.0000   1.0000   1.0000   1.0000   1.0000   1.0000   1.0000   1.0000
     1.0000   1.0000   1.0000   1.0000   1.0000  -0.0000  -0.0000  -0.0000
    -0.0000  -0.0000

     the Fermi energy is     6.1621 ev

!    total energy              =    -829.19443797 Ry
     total all-electron energy =    -18325.667977 Ry
     estimated scf accuracy    <          6.5E-11 Ry
     smearing contrib. (-TS)   =      -0.00018272 Ry
     internal energy E=F+TS    =    -829.19425525 Ry

     The total energy is F=E-TS. E is the sum of the following terms:
     one-electron contribution =    -147.80421292 Ry
     hartree contribution      =     103.09160669 Ry
     xc contribution           =     -94.42670949 Ry
     ewald contribution        =    -201.82680241 Ry
     one-center paw contrib.   =    -488.22813712 Ry
      -> PAW hartree energy AE =      28.58789628 Ry
      -> PAW hartree energy PS =     -28.47369023 Ry
      -> PAW xc energy AE      =    -200.57906949 Ry
      -> PAW xc energy PS      =      18.41145315 Ry
      -> total E_H with PAW    =     103.20581274 Ry
      -> total E_XC with PAW   =    -276.59432583 Ry

     convergence has been achieved in  14 iterations

     Writing all to output data dir ./tmp/rbinf3.save/ :
     XML data file, charge density, pseudopotentials, collected wavefunctions

     init_run     :     16.89s CPU     17.43s WALL (       1 calls)
     electrons    :    886.55s CPU    885.83s WALL (       1 calls)

     Called by init_run:
     wfcinit      :     14.85s CPU     15.51s WALL (       1 calls)
     wfcinit:atom :      0.07s CPU      0.05s WALL (      35 calls)
     wfcinit:wfcr :     14.50s CPU     15.22s WALL (      35 calls)
     potinit      :      0.29s CPU      0.30s WALL (       1 calls)
     hinit0       :      0.62s CPU      0.63s WALL (       1 calls)

     Called by electrons:
     c_bands      :    847.49s CPU    848.57s WALL (      14 calls)
     sum_band     :     26.25s CPU     23.74s WALL (      14 calls)
     v_of_rho     :      1.25s CPU      0.85s WALL (      15 calls)
     v_h          :      0.05s CPU      0.04s WALL (      15 calls)
     v_xc         :      1.20s CPU      0.81s WALL (      15 calls)
     newd         :      9.98s CPU     11.17s WALL (      15 calls)
     PAW_pot      :      2.16s CPU      2.04s WALL (      15 calls)
     mix_rho      :      0.29s CPU      0.21s WALL (      14 calls)

     Called by c_bands:
     init_us_2    :      1.99s CPU      1.55s WALL (    1015 calls)
     cegterg      :    789.43s CPU    792.75s WALL (     490 calls)

     Called by sum_band:
     sum_band:wei :      0.12s CPU      0.11s WALL (      14 calls)
     sum_band:loo :     14.24s CPU     10.91s WALL (      14 calls)
     sum_band:buf :      0.12s CPU      0.10s WALL (     490 calls)
     sum_band:ini :      1.06s CPU      0.79s WALL (     490 calls)
     sum_band:cal :      1.18s CPU      0.70s WALL (     490 calls)
     sum_band:bec :      0.03s CPU      0.02s WALL (     490 calls)
     addusdens    :      9.51s CPU     10.70s WALL (      14 calls)
                                        0.00s GPU  (      14 calls)
     addusd:skk   :      0.02s CPU      0.02s WALL (      42 calls)
                                        0.00s GPU  (      42 calls)

     Called by *egterg:
     cdiaghg      :     61.26s CPU     56.86s WALL (    2034 calls)
     cegterg:over :    289.38s CPU    288.04s WALL (    1544 calls)
     cegterg:upda :     14.57s CPU     23.86s WALL (    1544 calls)
     cegterg:last :     18.11s CPU     28.00s WALL (    1001 calls)
     h_psi        :    142.34s CPU    144.11s WALL (    2069 calls)
     s_psi        :      5.96s CPU      8.30s WALL (    2069 calls)
     g_psi        :      0.42s CPU      0.29s WALL (    1544 calls)

     Called by h_psi:
     h_psi:calbec :     39.70s CPU     39.45s WALL (    2069 calls)
     vloc_psi     :     87.66s CPU     77.87s WALL (    2069 calls)
     add_vuspsi   :     14.74s CPU     26.55s WALL (    2069 calls)

     General routines
     calbec       :     40.85s CPU     40.08s WALL (    2559 calls)
     fft          :      0.95s CPU      0.84s WALL (     193 calls)
     ffts         :      0.15s CPU      0.14s WALL (      29 calls)
     fftw         :     92.02s CPU     80.73s WALL (   81280 calls)
     interpolate  :      0.15s CPU      0.15s WALL (      15 calls)

     Parallel routines

     PAW routines
     PAW_pot      :      2.16s CPU      2.04s WALL (      15 calls)
     PAW_symme    :      0.03s CPU      0.02s WALL (      29 calls)

     PWSCF        :  15m 4.00s CPU  15m 3.97s WALL


   This run was terminated on:  16:31:42   1Apr2025            

=------------------------------------------------------------------------------=
   JOB DONE.
=------------------------------------------------------------------------------=
