
     Program PWSCF v.7.3.1 starts on 13May2025 at 18:18: 3 

     This program is part of the open-source Quantum ESPRESSO suite
     for quantum simulation of materials; please cite
         "P. Giannozzi et al., J. Phys.:Condens. Matter 21 395502 (2009);
         "P. Giannozzi et al., J. Phys.:Condens. Matter 29 465901 (2017);
         "P. Giannozzi et al., J. Chem. Phys. 152 154105 (2020);
          URL http://www.quantum-espresso.org", 
     in publications or presentations arising from this work. More details at
     http://www.quantum-espresso.org/quote

     Parallel version (MPI), running on     8 processors

     MPI processes distributed on     1 nodes
     59554 MiB available memory on the printing compute node when the environment starts

     Waiting for input...
     Reading input from standard input

     Current dimensions of program PWSCF are:
     Max number of different atomic species (ntypx) = 10
     Max number of k-points (npk) = 120000
     Max angular momentum in pseudopotentials (lmaxx) =  4
     file Ag.pbe-spn-kjpaw_psl.1.0.0.UPF: wavefunction(s)  4S 5S 4P 4D renormalized
     file Fe.pbe-spn-kjpaw_psl.1.0.0.UPF: wavefunction(s)  3P 3D renormalized
     file F.pbe-n-kjpaw_psl.1.0.0.UPF: wavefunction(s)  2S 2P renormalized

     IMPORTANT: XC functional enforced from input :
     Exchange-correlation= PBE
                           (   1   4   3   4   0   0   0)
     Any further DFT definition will be discarded
     Please, verify this is what you really want

     Message from routine setup:
     using ibrav=0 with symmetry is DISCOURAGED, use correct ibrav instead

     K-points division:     npool     =       4
     R & G space division:  proc/nbgrp/npool/nimage =       2
     Subspace diagonalization in iterative solution of the eigenvalue problem:
     a serial algorithm will be used


     Parallelization info
     --------------------
     sticks:   dense  smooth     PW     G-vecs:    dense   smooth      PW
     Min        1764     882    252                78961    27901    4300
     Max        1765     883    253                78962    27902    4301
     Sum        3529    1765    505               157923    55803    8601

     Using Slab Decomposition



     bravais-lattice index     =            0
     lattice parameter (alat)  =       7.4499  a.u.
     unit-cell volume          =     413.4784 (a.u.)^3
     number of atoms/cell      =            5
     number of atomic types    =            3
     number of electrons       =        56.00
     number of Kohn-Sham states=           34
     kinetic-energy cutoff     =     100.0000  Ry
     charge density cutoff     =     800.0000  Ry
     scf convergence threshold =      1.0E-12
     mixing beta               =       0.3000
     number of iterations used =            8  plain     mixing
     Exchange-correlation= PBE
                           (   1   4   3   4   0   0   0)

     celldm(1)=   7.449909  celldm(2)=   0.000000  celldm(3)=   0.000000
     celldm(4)=   0.000000  celldm(5)=   0.000000  celldm(6)=   0.000000

     crystal axes: (cart. coord. in units of alat)
               a(1) = (   1.000000   0.000000   0.000000 )  
               a(2) = (   0.000000   1.000000   0.000000 )  
               a(3) = (   0.000000   0.000000   1.000000 )  

     reciprocal axes: (cart. coord. in units 2 pi/alat)
               b(1) = (  1.000000  0.000000  0.000000 )  
               b(2) = (  0.000000  1.000000  0.000000 )  
               b(3) = (  0.000000  0.000000  1.000000 )  


     PseudoPot. # 1 for Ag read from file:
     /home/administrator/Downloads/BURAI/BURAI1.3/pseudopot/Ag.pbe-spn-kjpaw_psl.1.0.0.UPF
     MD5 check sum: 4bb6ed288085a1d2cdc62c229711c47d
     Pseudo is Projector augmented-wave + core cor, Zval = 19.0
     Generated using "atomic" code by A. Dal Corso  v.5.1.2
     Shape of augmentation charge: PSQ
     Using radial grid of 1237 points,  6 beta functions with: 
                l(1) =   0
                l(2) =   0
                l(3) =   1
                l(4) =   1
                l(5) =   2
                l(6) =   2
     Q(r) pseudized with 0 coefficients 


     PseudoPot. # 2 for Fe read from file:
     /home/administrator/Downloads/BURAI/BURAI1.3/pseudopot/Fe.pbe-spn-kjpaw_psl.1.0.0.UPF
     MD5 check sum: 04029f3f376fc501f927dd43ca5e13d6
     Pseudo is Projector augmented-wave + core cor, Zval = 16.0
     Generated using "atomic" code by A. Dal Corso  v.5.1.2
     Shape of augmentation charge: PSQ
     Using radial grid of 1191 points,  6 beta functions with: 
                l(1) =   0
                l(2) =   0
                l(3) =   1
                l(4) =   1
                l(5) =   2
                l(6) =   2
     Q(r) pseudized with 0 coefficients 


     PseudoPot. # 3 for F  read from file:
     /home/administrator/Downloads/BURAI/BURAI1.3/pseudopot/F.pbe-n-kjpaw_psl.1.0.0.UPF
     MD5 check sum: de2194216b7114fcf395f1df79715f8b
     Pseudo is Projector augmented-wave + core cor, Zval =  7.0
     Generated using "atomic" code by A. Dal Corso  v.5.1.2
     Shape of augmentation charge: PSQ
     Using radial grid of 1105 points,  4 beta functions with: 
                l(1) =   0
                l(2) =   0
                l(3) =   1
                l(4) =   1
     Q(r) pseudized with 0 coefficients 


     atomic species   valence    mass     pseudopotential
     Ag               19.00   107.86820     Ag( 1.00)
     Fe               16.00    55.84500     Fe( 1.00)
     F                 7.00    18.99840     F ( 1.00)

     48 Sym. Ops., with inversion, found



   Cartesian axes

     site n.     atom                  positions (alat units)
         1        Ag     tau(   1) = (   0.0000000   0.0000000   0.0000000  )
         2        Fe     tau(   2) = (   0.5000000   0.5000000   0.5000000  )
         3        F      tau(   3) = (   0.5000000   0.5000000   0.0000000  )
         4        F      tau(   4) = (   0.5000000   0.0000000   0.5000000  )
         5        F      tau(   5) = (   0.0000000   0.5000000   0.5000000  )

     number of k points=    35  Gaussian smearing, width (Ry)=  0.0050
                       cart. coord. in units 2pi/alat
        k(    1) = (   0.0000000   0.0000000   0.0000000), wk =   0.0039062
        k(    2) = (   0.0000000   0.0000000   0.1250000), wk =   0.0234375
        k(    3) = (   0.0000000   0.0000000   0.2500000), wk =   0.0234375
        k(    4) = (   0.0000000   0.0000000   0.3750000), wk =   0.0234375
        k(    5) = (   0.0000000   0.0000000  -0.5000000), wk =   0.0117188
        k(    6) = (   0.0000000   0.1250000   0.1250000), wk =   0.0468750
        k(    7) = (   0.0000000   0.1250000   0.2500000), wk =   0.0937500
        k(    8) = (   0.0000000   0.1250000   0.3750000), wk =   0.0937500
        k(    9) = (   0.0000000   0.1250000  -0.5000000), wk =   0.0468750
        k(   10) = (   0.0000000   0.2500000   0.2500000), wk =   0.0468750
        k(   11) = (   0.0000000   0.2500000   0.3750000), wk =   0.0937500
        k(   12) = (   0.0000000   0.2500000  -0.5000000), wk =   0.0468750
        k(   13) = (   0.0000000   0.3750000   0.3750000), wk =   0.0468750
        k(   14) = (   0.0000000   0.3750000  -0.5000000), wk =   0.0468750
        k(   15) = (   0.0000000  -0.5000000  -0.5000000), wk =   0.0117188
        k(   16) = (   0.1250000   0.1250000   0.1250000), wk =   0.0312500
        k(   17) = (   0.1250000   0.1250000   0.2500000), wk =   0.0937500
        k(   18) = (   0.1250000   0.1250000   0.3750000), wk =   0.0937500
        k(   19) = (   0.1250000   0.1250000  -0.5000000), wk =   0.0468750
        k(   20) = (   0.1250000   0.2500000   0.2500000), wk =   0.0937500
        k(   21) = (   0.1250000   0.2500000   0.3750000), wk =   0.1875000
        k(   22) = (   0.1250000   0.2500000  -0.5000000), wk =   0.0937500
        k(   23) = (   0.1250000   0.3750000   0.3750000), wk =   0.0937500
        k(   24) = (   0.1250000   0.3750000  -0.5000000), wk =   0.0937500
        k(   25) = (   0.1250000  -0.5000000  -0.5000000), wk =   0.0234375
        k(   26) = (   0.2500000   0.2500000   0.2500000), wk =   0.0312500
        k(   27) = (   0.2500000   0.2500000   0.3750000), wk =   0.0937500
        k(   28) = (   0.2500000   0.2500000  -0.5000000), wk =   0.0468750
        k(   29) = (   0.2500000   0.3750000   0.3750000), wk =   0.0937500
        k(   30) = (   0.2500000   0.3750000  -0.5000000), wk =   0.0937500
        k(   31) = (   0.2500000  -0.5000000  -0.5000000), wk =   0.0234375
        k(   32) = (   0.3750000   0.3750000   0.3750000), wk =   0.0312500
        k(   33) = (   0.3750000   0.3750000  -0.5000000), wk =   0.0468750
        k(   34) = (   0.3750000  -0.5000000  -0.5000000), wk =   0.0234375
        k(   35) = (  -0.5000000  -0.5000000  -0.5000000), wk =   0.0039062

     Dense  grid:   157923 G-vectors     FFT dimensions: (  72,  72,  72)

     Smooth grid:    55803 G-vectors     FFT dimensions: (  48,  48,  48)

     Estimated max dynamical RAM per process >     136.02 MB

     Estimated total dynamical RAM >     972.51 MB

     Check: negative core charge=   -0.000004

     Initial potential from superposition of free atoms

     starting charge      55.9993, renormalised to      56.0000
     Starting wfcs are   32 randomized atomic wfcs +    2 random wfcs
     Checking if some PAW data can be deallocated... 

     total cpu time spent up to now is        4.3 secs

     Self-consistent Calculation

     iteration #  1     ecut=   100.00 Ry     beta= 0.30
     Davidson diagonalization with overlap
     ethr =  1.00E-02,  avg # of iterations =  3.1

     Threshold (ethr) on eigenvalues was too large:
     Diagonalizing with lowered threshold

     Davidson diagonalization with overlap
     ethr =  8.65E-04,  avg # of iterations =  1.0

     total cpu time spent up to now is       14.3 secs

     total energy              =   -1064.69540289 Ry
     estimated scf accuracy    <       0.48264203 Ry

     iteration #  2     ecut=   100.00 Ry     beta= 0.30
     Davidson diagonalization with overlap
     ethr =  8.62E-04,  avg # of iterations =  2.0

     total cpu time spent up to now is       19.7 secs

     total energy              =   -1064.72730433 Ry
     estimated scf accuracy    <       0.07959026 Ry

     iteration #  3     ecut=   100.00 Ry     beta= 0.30
     Davidson diagonalization with overlap
     ethr =  1.42E-04,  avg # of iterations =  2.2

     total cpu time spent up to now is       25.1 secs

     total energy              =   -1064.73142566 Ry
     estimated scf accuracy    <       0.02138446 Ry

     iteration #  4     ecut=   100.00 Ry     beta= 0.30
     Davidson diagonalization with overlap
     ethr =  3.82E-05,  avg # of iterations =  2.3

     total cpu time spent up to now is       30.4 secs

     total energy              =   -1064.73191352 Ry
     estimated scf accuracy    <       0.00979726 Ry

     iteration #  5     ecut=   100.00 Ry     beta= 0.30
     Davidson diagonalization with overlap
     ethr =  1.75E-05,  avg # of iterations =  1.6

     total cpu time spent up to now is       35.6 secs

     total energy              =   -1064.73261032 Ry
     estimated scf accuracy    <       0.00053384 Ry

     iteration #  6     ecut=   100.00 Ry     beta= 0.30
     Davidson diagonalization with overlap
     ethr =  9.53E-07,  avg # of iterations =  4.6

     total cpu time spent up to now is       41.5 secs

     total energy              =   -1064.73263197 Ry
     estimated scf accuracy    <       0.00023227 Ry

     iteration #  7     ecut=   100.00 Ry     beta= 0.30
     Davidson diagonalization with overlap
     ethr =  4.15E-07,  avg # of iterations =  2.5

     total cpu time spent up to now is       46.9 secs

     total energy              =   -1064.73269017 Ry
     estimated scf accuracy    <       0.00026145 Ry

     iteration #  8     ecut=   100.00 Ry     beta= 0.30
     Davidson diagonalization with overlap
     ethr =  4.15E-07,  avg # of iterations =  1.4

     total cpu time spent up to now is       51.9 secs

     total energy              =   -1064.73270036 Ry
     estimated scf accuracy    <       0.00002611 Ry

     iteration #  9     ecut=   100.00 Ry     beta= 0.30
     Davidson diagonalization with overlap
     ethr =  4.66E-08,  avg # of iterations =  2.0

     total cpu time spent up to now is       57.2 secs

     total energy              =   -1064.73270212 Ry
     estimated scf accuracy    <       0.00000153 Ry

     iteration # 10     ecut=   100.00 Ry     beta= 0.30
     Davidson diagonalization with overlap
     ethr =  2.73E-09,  avg # of iterations =  2.0

     total cpu time spent up to now is       62.6 secs

     total energy              =   -1064.73270230 Ry
     estimated scf accuracy    <       0.00000003 Ry

     iteration # 11     ecut=   100.00 Ry     beta= 0.30
     Davidson diagonalization with overlap
     ethr =  5.22E-11,  avg # of iterations =  4.0

     total cpu time spent up to now is       69.3 secs

     total energy              =   -1064.73270231 Ry
     estimated scf accuracy    <       0.00000024 Ry

     iteration # 12     ecut=   100.00 Ry     beta= 0.30
     Davidson diagonalization with overlap
     ethr =  5.22E-11,  avg # of iterations =  2.7

     total cpu time spent up to now is       74.7 secs

     total energy              =   -1064.73270232 Ry
     estimated scf accuracy    <       0.00000002 Ry

     iteration # 13     ecut=   100.00 Ry     beta= 0.30
     Davidson diagonalization with overlap
     ethr =  4.22E-11,  avg # of iterations =  1.9

     total cpu time spent up to now is       80.0 secs

     total energy              =   -1064.73270232 Ry
     estimated scf accuracy    <          9.6E-10 Ry

     iteration # 14     ecut=   100.00 Ry     beta= 0.30
     Davidson diagonalization with overlap
     ethr =  1.71E-12,  avg # of iterations =  2.7

     total cpu time spent up to now is       85.4 secs

     total energy              =   -1064.73270232 Ry
     estimated scf accuracy    <          2.4E-10 Ry

     iteration # 15     ecut=   100.00 Ry     beta= 0.30
     Davidson diagonalization with overlap
     ethr =  4.26E-13,  avg # of iterations =  1.1

     total cpu time spent up to now is       90.3 secs

     total energy              =   -1064.73270232 Ry
     estimated scf accuracy    <          2.0E-10 Ry

     iteration # 16     ecut=   100.00 Ry     beta= 0.30
     Davidson diagonalization with overlap
     ethr =  3.61E-13,  avg # of iterations =  1.0

     total cpu time spent up to now is       95.3 secs

     total energy              =   -1064.73270232 Ry
     estimated scf accuracy    <          4.3E-11 Ry

     iteration # 17     ecut=   100.00 Ry     beta= 0.30
     Davidson diagonalization with overlap
     ethr =  1.00E-13,  avg # of iterations =  1.9

     total cpu time spent up to now is      100.5 secs

     total energy              =   -1064.73270232 Ry
     estimated scf accuracy    <          3.5E-12 Ry

     iteration # 18     ecut=   100.00 Ry     beta= 0.30
     Davidson diagonalization with overlap
     ethr =  1.00E-13,  avg # of iterations =  1.0

     total cpu time spent up to now is      105.5 secs

     End of self-consistent calculation

          k = 0.0000 0.0000 0.0000 (  6979 PWs)   bands (ev):

   -80.5960 -76.5001 -44.1416 -44.1416 -44.1416 -42.6169 -42.6169 -42.6169
   -14.6820 -13.9960 -13.9960   3.0188   3.0188   3.0188   5.0435   5.0435
     5.0435   5.1320   5.1320   5.1320   6.7059   6.7059   6.9316   6.9316
     6.9316   9.5238   9.5238   9.5238   9.5277  10.2854  10.2854  18.3493
    19.9215  19.9215

          k = 0.0000 0.0000 0.1250 (  6999 PWs)   bands (ev):

   -80.5959 -76.5001 -44.1418 -44.1416 -44.1416 -42.6174 -42.6169 -42.6169
   -14.6528 -14.0054 -13.9946   2.9377   3.0411   3.0411   4.8721   4.9336
     4.9411   4.9411   5.0891   5.0891   6.7477   6.8179   6.9397   7.0283
     7.0283   9.5157   9.6086   9.6086   9.8210  10.2861  10.5014  18.0030
    19.3800  19.9061

          k = 0.0000 0.0000 0.2500 (  7000 PWs)   bands (ev):

   -80.5959 -76.5001 -44.1422 -44.1415 -44.1415 -42.6188 -42.6168 -42.6168
   -14.5768 -14.0334 -13.9911   2.7472   3.1019   3.1019   4.3492   4.7025
     4.7025   4.7117   5.0034   5.0034   6.8502   6.9595   7.0448   7.2357
     7.2357   9.4958   9.8081   9.8081  10.2876  10.4748  11.0413  16.6726
    19.5655  19.8703

          k = 0.0000 0.0000 0.3750 (  6968 PWs)   bands (ev):

   -80.5959 -76.5001 -44.1427 -44.1415 -44.1415 -42.6201 -42.6168 -42.6168
   -14.4880 -14.0736 -13.9876   2.5610   3.1772   3.1772   3.9221   4.4729
     4.4729   4.5273   4.9268   4.9268   6.9552   6.9797   7.2338   7.4194
     7.4194   9.4756  10.0017  10.0017  10.2892  11.0543  11.7895  15.2266
    19.8373  19.8373

          k = 0.0000 0.0000-0.5000 (  6984 PWs)   bands (ev):

   -80.5959 -76.5001 -44.1429 -44.1415 -44.1415 -42.6206 -42.6168 -42.6168
   -14.4443 -14.0971 -13.9862   2.4842   3.2149   3.2149   3.7653   4.3765
     4.3765   4.4582   4.8969   4.8969   6.9881   6.9994   7.3046   7.4907
     7.4907   9.4671  10.0804  10.0804  10.2898  11.2531  12.3461  14.4359
    19.8247  19.8248

          k = 0.0000 0.1250 0.1250 (  6965 PWs)   bands (ev):

   -80.5959 -76.5001 -44.1418 -44.1417 -44.1416 -42.6174 -42.6174 -42.6169
   -14.6241 -14.0085 -13.9988   2.8645   3.0525   3.0650   4.5764   4.8013
     4.8580   4.9647   5.0303   5.0804   6.8166   6.8214   7.0100   7.0556
     7.1282   9.5957   9.6086   9.6659  10.1071  10.4071  10.6046  17.9215
    18.6932  19.8839

          k = 0.0000 0.1250 0.2500 (  6988 PWs)   bands (ev):

   -80.5959 -76.5001 -44.1422 -44.1417 -44.1415 -42.6187 -42.6174 -42.6168
   -14.5490 -14.0329 -13.9977   2.6845   3.0911   3.1308   4.0973   4.5261
     4.6442   4.8743   4.9228   5.0251   6.8883   7.0000   7.0407   7.2391
     7.2864   9.5859   9.8057   9.8552  10.4008  10.7510  11.1229  16.7647
    18.5867  19.8304

          k = 0.0000 0.1250 0.3750 (  6981 PWs)   bands (ev):

   -80.5959 -76.5001 -44.1427 -44.1417 -44.1415 -42.6200 -42.6173 -42.6168
   -14.4613 -14.0716 -13.9945   2.5044   3.1430   3.2131   3.6919   4.3048
     4.4241   4.8105   4.8346   4.9151   6.9879   7.0570   7.1918   7.3873
     7.4172   9.5702  10.0021  10.0510  10.4220  11.2282  11.8982  15.3570
    18.8747  19.7775

          k = 0.0000 0.1250-0.5000 (  6984 PWs)   bands (ev):

   -80.5959 -76.5001 -44.1428 -44.1417 -44.1415 -42.6206 -42.6173 -42.6168
   -14.4179 -14.0945 -13.9931   2.4292   3.1736   3.2550   3.5338   4.2242
     4.3288   4.7864   4.8011   4.8637   7.0329   7.0636   7.2851   7.4070
     7.4871   9.5636  10.0820  10.1316  10.4249  11.4032  12.4281  14.6080
    19.0226  19.7558

          k = 0.0000 0.2500 0.2500 (  6939 PWs)   bands (ev):

   -80.5959 -76.5001 -44.1422 -44.1421 -44.1415 -42.6187 -42.6187 -42.6168
   -14.4767 -14.0384 -14.0121   2.5189   3.0792   3.2112   3.6344   4.4472
     4.4944   4.6935   4.7494   5.1969   6.9334   7.0592   7.1995   7.2708
     7.3252   9.7847   9.8118  10.0103  10.5356  11.3522  11.4682  16.8914
    17.2488  19.7318

          k = 0.0000 0.2500 0.3750 (  6968 PWs)   bands (ev):

   -80.5959 -76.5001 -44.1426 -44.1421 -44.1414 -42.6200 -42.6186 -42.6167
   -14.3915 -14.0670 -14.0156   2.3404   3.0780   3.2693   3.3157   4.3131
     4.3347   4.6080   4.6158   5.2428   7.0218   7.1728   7.2340   7.3034
     7.4133   9.7907  10.0032  10.1866  10.5990  11.6884  12.2275  15.7165
    17.4395  19.6298

          k = 0.0000 0.2500-0.5000 (  6966 PWs)   bands (ev):

   -80.5959 -76.5001 -44.1428 -44.1421 -44.1414 -42.6205 -42.6186 -42.6167
   -14.3486 -14.0884 -14.0150   2.2631   3.0860   3.1286   3.3718   4.2223
     4.2879   4.5581   4.5941   5.2454   7.1022   7.2191   7.2381   7.2590
     7.4797   9.7882  10.0857  10.2623  10.6152  11.8300  12.6726  15.0654
    17.6236  19.5865

          k = 0.0000 0.3750 0.3750 (  6995 PWs)   bands (ev):

   -80.5959 -76.5000 -44.1426 -44.1426 -44.1414 -42.6199 -42.6199 -42.6167
   -14.3081 -14.0677 -14.0445   2.1449   2.9479   3.0345   3.4598   4.1983
     4.3651   4.3811   4.5010   5.4142   7.0144   7.1920   7.2585   7.3909
     7.4207   9.9965  10.0107  10.3380  10.6856  12.1134  12.7278  16.1055
    16.2603  19.4776

          k = 0.0000 0.3750-0.5000 (  6986 PWs)   bands (ev):

   -80.5959 -76.5000 -44.1428 -44.1426 -44.1414 -42.6205 -42.6199 -42.6167
   -14.2640 -14.0822 -14.0517   2.0570   2.8329   3.0203   3.5484   4.1259
     4.2655   4.3928   4.4751   5.4618   7.0456   7.1149   7.2996   7.4042
     7.4734  10.0040  10.0897  10.4044  10.7098  12.2733  13.0357  15.6173
    16.4195  19.8077

          k = 0.0000-0.5000-0.5000 (  7000 PWs)   bands (ev):

   -80.5959 -76.5000 -44.1428 -44.1428 -44.1414 -42.6204 -42.6204 -42.6167
   -14.2159 -14.0797 -14.0797   1.9633   2.7277   2.9989   3.6801   4.0884
     4.0884   4.4404   4.4404   5.5263   6.9769   7.1043   7.3339   7.4711
     7.4711  10.0913  10.0913  10.4668  10.7363  12.4502  13.2617  15.8929
    15.8929  19.5697

          k = 0.1250 0.1250 0.1250 (  6967 PWs)   bands (ev):

   -80.5959 -76.5001 -44.1418 -44.1418 -44.1417 -42.6174 -42.6174 -42.6174
   -14.5957 -14.0071 -14.0071   2.7957   3.0728   3.0728   4.5025   4.5874
     4.5874   5.0144   5.0144   5.1323   6.8290   6.8290   7.0421   7.1691
     7.1691   9.6304   9.6885   9.6885  10.3972  10.6047  10.6047  17.8635
    18.7624  18.7624

          k = 0.1250 0.1250 0.2500 (  6970 PWs)   bands (ev):

   -80.5959 -76.5001 -44.1422 -44.1417 -44.1417 -42.6187 -42.6174 -42.6174
   -14.5218 -14.0323 -14.0038   2.6252   3.1002   3.1299   4.0225   4.2492
     4.5267   4.9000   4.9551   5.1104   6.8918   6.9608   7.0948   7.2608
     7.3374   9.6585   9.8395   9.8783  10.6045  10.9186  11.2057  16.8387
    18.4472  18.9477

          k = 0.1250 0.1250 0.3750 (  6979 PWs)   bands (ev):

   -80.5959 -76.5001 -44.1427 -44.1417 -44.1417 -42.6200 -42.6173 -42.6173
   -14.4352 -14.0697 -14.0005   2.4505   3.1390   3.2057   3.6120   3.9849
     4.5104   4.7468   4.8971   5.0097   6.9725   7.1450   7.1591   7.3429
     7.4300   9.6516  10.0389  10.0651  10.6033  11.3419  12.0058  15.4826
    18.6389  19.1710

          k = 0.1250 0.1250-0.5000 (  6982 PWs)   bands (ev):

   -80.5959 -76.5001 -44.1428 -44.1417 -44.1417 -42.6206 -42.6173 -42.6173
   -14.3921 -14.0922 -13.9991   2.3762   3.1654   3.2478   3.4515   3.8779
     4.5317   4.6553   4.8757   4.9584   7.0053   7.1711   7.2660   7.3745
     7.4385   9.6475  10.1229  10.1422  10.6021  11.5065  12.5015  14.7804
    18.7382  19.2809

          k = 0.1250 0.2500 0.2500 (  6972 PWs)   bands (ev):

   -80.5959 -76.5001 -44.1422 -44.1422 -44.1417 -42.6187 -42.6187 -42.6173
   -14.4508 -14.0372 -14.0173   2.4673   3.0906   3.1804   3.6347   4.1623
     4.1907   4.8786   4.8981   5.2438   6.9368   6.9867   7.1527   7.3462
     7.3755   9.8265   9.8793  10.0185  10.7999  11.3517  11.6250  16.8706
    17.3800  18.8747

          k = 0.1250 0.2500 0.3750 (  6979 PWs)   bands (ev):

   -80.5959 -76.5001 -44.1426 -44.1421 -44.1416 -42.6200 -42.6186 -42.6173
   -14.3671 -14.0656 -14.0192   2.2922   3.0835   3.2611   3.2839   3.8947
     4.1857   4.7804   4.8569   5.2734   7.0102   7.1085   7.2180   7.3366
     7.4149   9.8510  10.0522  10.1896  10.8530  11.7083  12.3192  15.8242
    17.4478  19.0197

          k = 0.1250 0.2500-0.5000 (  6980 PWs)   bands (ev):

   -80.5959 -76.5000 -44.1428 -44.1421 -44.1416 -42.6205 -42.6186 -42.6173
   -14.3247 -14.0866 -14.0184   2.2148   3.0892   3.1462   3.3130   3.7761
     4.1997   4.7279   4.8399   5.2692   7.0555   7.2086   7.2258   7.3123
     7.4147   9.8512  10.1334  10.2635  10.8633  11.8556  12.7108  15.2401
    17.5791  19.1036

          k = 0.1250 0.3750 0.3750 (  6991 PWs)   bands (ev):

   -80.5959 -76.5000 -44.1426 -44.1426 -44.1416 -42.6199 -42.6199 -42.6172
   -14.2859 -14.0666 -14.0454   2.0996   2.9833   3.0374   3.3633   3.8858
     3.9285   4.7667   4.8064   5.4366   7.0141   7.1653   7.1904   7.3663
     7.4203  10.0431  10.0639  10.3382  10.9562  12.1135  12.7526  16.1493
    16.4356  19.0261

          k = 0.1250 0.3750-0.5000 (  6998 PWs)   bands (ev):

   -80.5959 -76.5000 -44.1428 -44.1426 -44.1416 -42.6205 -42.6199 -42.6172
   -14.2426 -14.0810 -14.0517   2.0118   2.8744   3.0221   3.4343   3.7734
     3.9213   4.7550   4.7901   5.4820   7.0344   7.1115   7.2478   7.3940
     7.4059  10.0543  10.1368  10.4036  10.9809  12.2751  12.9956  15.8008
    16.5238  19.0475

          k = 0.1250-0.5000-0.5000 (  7016 PWs)   bands (ev):

   -80.5959 -76.5000 -44.1428 -44.1428 -44.1416 -42.6204 -42.6204 -42.6172
   -14.1953 -14.0787 -14.0787   1.9189   2.7753   3.0001   3.5324   3.7739
     3.7739   4.7714   4.7714   5.5467   6.9633   7.1110   7.3079   7.4029
     7.4029  10.1381  10.1381  10.4651  11.0101  12.4502  13.1556  16.0863
    16.0863  19.6100

          k = 0.2500 0.2500 0.2500 (  6980 PWs)   bands (ev):

   -80.5959 -76.5001 -44.1421 -44.1421 -44.1421 -42.6186 -42.6186 -42.6186
   -14.3835 -14.0342 -14.0342   2.3211   3.1240   3.1240   3.5309   3.8316
     3.8316   4.9904   4.9904   5.3525   6.9569   6.9569   7.1181   7.4100
     7.4100   9.9568  10.0434  10.0434  11.3499  11.3499  12.0400  16.7089
    17.7446  17.7446

          k = 0.2500 0.2500 0.3750 (  6990 PWs)   bands (ev):

   -80.5959 -76.5000 -44.1426 -44.1421 -44.1421 -42.6199 -42.6186 -42.6186
   -14.3041 -14.0626 -14.0312   2.1455   3.0855   3.1768   3.2525   3.5607
     3.7987   5.0120   5.0370   5.3863   7.0006   7.0626   7.1294   7.3767
     7.3889  10.0106  10.1695  10.2098  11.3468  11.8072  12.5438  16.0927
    17.3433  18.2238

          k = 0.2500 0.2500-0.5000 (  7012 PWs)   bands (ev):

   -80.5959 -76.5000 -44.1428 -44.1421 -44.1421 -42.6205 -42.6186 -42.6186
   -14.2631 -14.0823 -14.0300   2.0647   3.0780   3.1336   3.2187   3.4429
     3.8082   5.0198   5.0455   5.3779   7.0264   7.1517   7.1958   7.2826
     7.3607  10.0146  10.2440  10.2795  11.3451  11.9795  12.7961  15.7098
    17.3169  18.4886

          k = 0.2500 0.3750 0.3750 (  6987 PWs)   bands (ev):

   -80.5959 -76.5000 -44.1425 -44.1425 -44.1421 -42.6199 -42.6199 -42.6185
   -14.2296 -14.0640 -14.0497   1.9578   3.0460   3.0658   3.1835   3.5049
     3.5228   5.1037   5.1421   5.5024   7.0133   7.0739   7.0919   7.3064
     7.3664  10.1734  10.1991  10.3383  11.5602  12.1133  12.7734  16.3219
    16.9222  18.2228

          k = 0.2500 0.3750-0.5000 (  6994 PWs)   bands (ev):

   -80.5959 -76.5000 -44.1427 -44.1425 -44.1420 -42.6204 -42.6199 -42.6185
   -14.1892 -14.0780 -14.0533   1.8701   2.9754   3.0264   3.2187   3.3939
     3.5260   5.1447   5.1624   5.5377   7.0058   7.0778   7.1741   7.2298
     7.3308  10.1874  10.2602  10.4013  11.5886  12.2824  12.8694  16.3017
    16.8373  18.3915

          k = 0.2500-0.5000-0.5000 (  7024 PWs)   bands (ev):

   -80.5959 -76.5000 -44.1427 -44.1427 -44.1420 -42.6204 -42.6204 -42.6185
   -14.1451 -14.0762 -14.0762   1.7793   2.8940   3.0031   3.2521   3.4070
     3.4070   5.1936   5.1936   5.5984   6.9302   7.1259   7.2195   7.2195
     7.2426  10.2609  10.2609  10.4608  11.6326  12.4503  12.8954  16.6206
    16.6206  18.4395

          k = 0.3750 0.3750 0.3750 (  6983 PWs)   bands (ev):

   -80.5959 -76.5000 -44.1425 -44.1425 -44.1425 -42.6198 -42.6198 -42.6198
   -14.1651 -14.0614 -14.0614   1.7712   3.0614   3.0614   3.1037   3.2689
     3.2689   5.3486   5.3486   5.5816   6.9970   7.0180   7.0180   7.2490
     7.2490  10.3148  10.3430  10.3430  12.1126  12.1126  12.7379  16.6559
    17.5813  17.5813

          k = 0.3750 0.3750-0.5000 (  6978 PWs)   bands (ev):

   -80.5959 -76.5000 -44.1427 -44.1425 -44.1425 -42.6204 -42.6198 -42.6198
   -14.1295 -14.0750 -14.0603   1.6831   3.0247   3.0551   3.0805   3.1665
     3.2576   5.4200   5.4418   5.6109   6.9593   7.0132   7.0435   7.1536
     7.2259  10.3326  10.3892  10.4049  12.1120  12.3291  12.7068  16.9623
    17.2336  17.9808

          k = 0.3750-0.5000-0.5000 (  6972 PWs)   bands (ev):

   -80.5959 -76.5000 -44.1427 -44.1427 -44.1425 -42.6204 -42.6204 -42.6198
   -14.0941 -14.0737 -14.0737   1.5946   3.0060   3.0188   3.0636   3.1593
     3.1593   5.5333   5.5333   5.6545   6.8966   6.9965   6.9965   7.1383
     7.1730  10.3956  10.3956  10.4562  12.2167  12.4505  12.6302  17.3510
    17.3510  17.9803

          k =-0.5000-0.5000-0.5000 (  6872 PWs)   bands (ev):

   -80.5959 -76.5000 -44.1426 -44.1426 -44.1426 -42.6203 -42.6203 -42.6203
   -14.0727 -14.0727 -14.0727   1.5070   3.0072   3.0072   3.0725   3.0725
     3.0725   5.6793   5.6793   5.6793   6.8827   6.8827   6.8827   7.1427
     7.1427  10.4543  10.4543  10.4543  12.4505  12.4505  12.5192  17.8157
    17.8157  17.8157

     the Fermi energy is    10.4022 ev

!    total energy              =   -1064.73270232 Ry
     total all-electron energy =    -13777.139655 Ry
     estimated scf accuracy    <          7.2E-13 Ry
     smearing contrib. (-TS)   =      -0.00125279 Ry
     internal energy E=F+TS    =   -1064.73144953 Ry

     The total energy is F=E-TS. E is the sum of the following terms:
     one-electron contribution =    -352.24421845 Ry
     hartree contribution      =     206.63091924 Ry
     xc contribution           =    -105.34164519 Ry
     ewald contribution        =    -450.45549924 Ry
     one-center paw contrib.   =    -363.32100588 Ry

     convergence has been achieved in  18 iterations

     Writing all to output data dir ./tmp/AgFeF3.save/ :
     XML data file, charge density, pseudopotentials, collected wavefunctions

     init_run     :      4.34s CPU      3.84s WALL (       1 calls)
     electrons    :    134.77s CPU    101.15s WALL (       1 calls)

     Called by init_run:
     wfcinit      :      1.82s CPU      1.32s WALL (       1 calls)
     potinit      :      0.66s CPU      0.68s WALL (       1 calls)
     hinit0       :      1.28s CPU      1.29s WALL (       1 calls)

     Called by electrons:
     c_bands      :     90.75s CPU     64.66s WALL (      19 calls)
     sum_band     :     31.72s CPU     23.84s WALL (      19 calls)
     v_of_rho     :      3.58s CPU      3.69s WALL (      19 calls)
     newd         :      6.09s CPU      6.48s WALL (      19 calls)
     PAW_pot      :      2.19s CPU      2.22s WALL (      19 calls)
     mix_rho      :      0.57s CPU      0.44s WALL (      19 calls)

     Called by c_bands:
     init_us_2    :      2.82s CPU      1.97s WALL (     351 calls)
     cegterg      :     80.82s CPU     57.48s WALL (     171 calls)

     Called by *egterg:
     cdiaghg      :      2.79s CPU      1.99s WALL (     538 calls)
     h_psi        :     64.25s CPU     48.00s WALL (     556 calls)
     s_psi        :      2.47s CPU      1.32s WALL (     556 calls)
     g_psi        :      0.44s CPU      0.32s WALL (     376 calls)

     Called by h_psi:
     h_psi:calbec :      2.97s CPU      1.67s WALL (     556 calls)
     vloc_psi     :     58.27s CPU     44.61s WALL (     556 calls)
     add_vuspsi   :      2.56s CPU      1.39s WALL (     556 calls)

     General routines
     calbec       :      4.32s CPU      2.40s WALL (     727 calls)
     fft          :      2.46s CPU      2.45s WALL (     246 calls)
     ffts         :      0.32s CPU      0.31s WALL (      38 calls)
     fftw         :     56.76s CPU     42.92s WALL (   31508 calls)
     interpolate  :      0.47s CPU      0.49s WALL (      19 calls)

     Parallel routines

     PWSCF        :   2m19.69s CPU   1m45.63s WALL


   This run was terminated on:  18:19:49  13May2025            

=------------------------------------------------------------------------------=
   JOB DONE.
=------------------------------------------------------------------------------=
