
     Program PWSCF v.7.3.1 starts on  9May2025 at 12:46:28 

     This program is part of the open-source Quantum ESPRESSO suite
     for quantum simulation of materials; please cite
         "P. Giannozzi et al., J. Phys.:Condens. Matter 21 395502 (2009);
         "P. Giannozzi et al., J. Phys.:Condens. Matter 29 465901 (2017);
         "P. Giannozzi et al., J. Chem. Phys. 152 154105 (2020);
          URL http://www.quantum-espresso.org", 
     in publications or presentations arising from this work. More details at
     http://www.quantum-espresso.org/quote

     Parallel version (MPI), running on     8 processors

     MPI processes distributed on     1 nodes
     44266 MiB available memory on the printing compute node when the environment starts

     Waiting for input...
     Reading input from standard input

     Current dimensions of program PWSCF are:
     Max number of different atomic species (ntypx) = 10
     Max number of k-points (npk) = 120000
     Max angular momentum in pseudopotentials (lmaxx) =  4
     file K.pbe-spn-rrkjus_psl.1.0.0.UPF: wavefunction(s)  3S renormalized
     file I.pbe-dn-kjpaw_psl.1.0.0.UPF: wavefunction(s)  5S 5P renormalized

     IMPORTANT: XC functional enforced from input :
     Exchange-correlation= PBE
                           (   1   4   3   4   0   0   0)
     Any further DFT definition will be discarded
     Please, verify this is what you really want

     Message from routine setup:
     using ibrav=0 with symmetry is DISCOURAGED, use correct ibrav instead

     K-points division:     npool     =       2
     R & G space division:  proc/nbgrp/npool/nimage =       4
     Subspace diagonalization in iterative solution of the eigenvalue problem:
     a serial algorithm will be used


     Parallelization info
     --------------------
     sticks:   dense  smooth     PW     G-vecs:    dense   smooth      PW
     Min        1717     857    237               107153    37830    5529
     Max        1718     859    238               107156    37831    5532
     Sum        6869    3433    949               428617   151323   22119

     Using Slab Decomposition



     bravais-lattice index     =            0
     lattice parameter (alat)  =      10.3890  a.u.
     unit-cell volume          =    1121.3046 (a.u.)^3
     number of atoms/cell      =            5
     number of atomic types    =            3
     number of electrons       =        78.00
     number of Kohn-Sham states=           47
     kinetic-energy cutoff     =     100.0000  Ry
     charge density cutoff     =     800.0000  Ry
     scf convergence threshold =      1.0E-12
     mixing beta               =       0.3000
     number of iterations used =            8  plain     mixing
     Exchange-correlation= PBE
                           (   1   4   3   4   0   0   0)

     celldm(1)=  10.389019  celldm(2)=   0.000000  celldm(3)=   0.000000
     celldm(4)=   0.000000  celldm(5)=   0.000000  celldm(6)=   0.000000

     crystal axes: (cart. coord. in units of alat)
               a(1) = (   1.000000   0.000000   0.000000 )  
               a(2) = (   0.000000   1.000000   0.000000 )  
               a(3) = (   0.000000   0.000000   1.000000 )  

     reciprocal axes: (cart. coord. in units 2 pi/alat)
               b(1) = (  1.000000  0.000000  0.000000 )  
               b(2) = (  0.000000  1.000000  0.000000 )  
               b(3) = (  0.000000  0.000000  1.000000 )  


     PseudoPot. # 1 for K  read from file:
     /home/administrator/Downloads/BURAI/BURAI1.3/pseudopot/K.pbe-spn-rrkjus_psl.1.0.0.UPF
     MD5 check sum: 716c94968b5730b158b89360ae401048
     Pseudo is Ultrasoft + core correction, Zval =  9.0
     Generated using "atomic" code by A. Dal Corso  v.5.1.2
     Using radial grid of 1165 points,  6 beta functions with: 
                l(1) =   0
                l(2) =   0
                l(3) =   1
                l(4) =   1
                l(5) =   2
                l(6) =   2
     Q(r) pseudized with 0 coefficients 


     PseudoPot. # 2 for Ni read from file:
     /home/administrator/Downloads/BURAI/BURAI1.3/pseudopot/Ni.pbe-spn-rrkjus_psl.1.0.0.UPF
     MD5 check sum: 582698bf4c8750f50337ad09e2305965
     Pseudo is Ultrasoft + core correction, Zval = 18.0
     Generated using "atomic" code by A. Dal Corso  v.5.1.2
     Using radial grid of 1195 points,  6 beta functions with: 
                l(1) =   0
                l(2) =   0
                l(3) =   1
                l(4) =   1
                l(5) =   2
                l(6) =   2
     Q(r) pseudized with 0 coefficients 


     PseudoPot. # 3 for I  read from file:
     /home/administrator/Downloads/BURAI/BURAI1.3/pseudopot/I.pbe-dn-kjpaw_psl.1.0.0.UPF
     MD5 check sum: 465bc846fbde77c046a2a2b13e3eb0db
     Pseudo is Projector augmented-wave + core cor, Zval = 17.0
     Generated using "atomic" code by A. Dal Corso  v.5.1.2
     Shape of augmentation charge: PSQ
     Using radial grid of 1247 points,  6 beta functions with: 
                l(1) =   0
                l(2) =   0
                l(3) =   1
                l(4) =   1
                l(5) =   2
                l(6) =   2
     Q(r) pseudized with 0 coefficients 


     atomic species   valence    mass     pseudopotential
     K                 9.00    39.09830     K ( 1.00)
     Ni               18.00    58.69340     Ni( 1.00)
     I                17.00   126.90450     I ( 1.00)

     48 Sym. Ops., with inversion, found


                                    s                        frac. trans.

      isym =  1     identity                                     

 cryst.   s( 1) = (     1          0          0      )
                  (     0          1          0      )
                  (     0          0          1      )

 cart.    s( 1) = (  1.0000000  0.0000000  0.0000000 )
                  (  0.0000000  1.0000000  0.0000000 )
                  (  0.0000000  0.0000000  1.0000000 )


      isym =  2     180 deg rotation - cart. axis [0,0,1]        

 cryst.   s( 2) = (    -1          0          0      )
                  (     0         -1          0      )
                  (     0          0          1      )

 cart.    s( 2) = ( -1.0000000  0.0000000  0.0000000 )
                  (  0.0000000 -1.0000000  0.0000000 )
                  (  0.0000000  0.0000000  1.0000000 )


      isym =  3     180 deg rotation - cart. axis [0,1,0]        

 cryst.   s( 3) = (    -1          0          0      )
                  (     0          1          0      )
                  (     0          0         -1      )

 cart.    s( 3) = ( -1.0000000  0.0000000  0.0000000 )
                  (  0.0000000  1.0000000  0.0000000 )
                  (  0.0000000  0.0000000 -1.0000000 )


      isym =  4     180 deg rotation - cart. axis [1,0,0]        

 cryst.   s( 4) = (     1          0          0      )
                  (     0         -1          0      )
                  (     0          0         -1      )

 cart.    s( 4) = (  1.0000000  0.0000000  0.0000000 )
                  (  0.0000000 -1.0000000  0.0000000 )
                  (  0.0000000  0.0000000 -1.0000000 )


      isym =  5     180 deg rotation - cart. axis [1,1,0]        

 cryst.   s( 5) = (     0          1          0      )
                  (     1          0          0      )
                  (     0          0         -1      )

 cart.    s( 5) = (  0.0000000  1.0000000  0.0000000 )
                  (  1.0000000  0.0000000  0.0000000 )
                  (  0.0000000  0.0000000 -1.0000000 )


      isym =  6     180 deg rotation - cart. axis [1,-1,0]       

 cryst.   s( 6) = (     0         -1          0      )
                  (    -1          0          0      )
                  (     0          0         -1      )

 cart.    s( 6) = (  0.0000000 -1.0000000  0.0000000 )
                  ( -1.0000000  0.0000000  0.0000000 )
                  (  0.0000000  0.0000000 -1.0000000 )


      isym =  7      90 deg rotation - cart. axis [0,0,-1]       

 cryst.   s( 7) = (     0         -1          0      )
                  (     1          0          0      )
                  (     0          0          1      )

 cart.    s( 7) = (  0.0000000  1.0000000  0.0000000 )
                  ( -1.0000000  0.0000000  0.0000000 )
                  (  0.0000000  0.0000000  1.0000000 )


      isym =  8      90 deg rotation - cart. axis [0,0,1]        

 cryst.   s( 8) = (     0          1          0      )
                  (    -1          0          0      )
                  (     0          0          1      )

 cart.    s( 8) = (  0.0000000 -1.0000000  0.0000000 )
                  (  1.0000000  0.0000000  0.0000000 )
                  (  0.0000000  0.0000000  1.0000000 )


      isym =  9     180 deg rotation - cart. axis [1,0,1]        

 cryst.   s( 9) = (     0          0          1      )
                  (     0         -1          0      )
                  (     1          0          0      )

 cart.    s( 9) = (  0.0000000  0.0000000  1.0000000 )
                  (  0.0000000 -1.0000000  0.0000000 )
                  (  1.0000000  0.0000000  0.0000000 )


      isym = 10     180 deg rotation - cart. axis [-1,0,1]       

 cryst.   s(10) = (     0          0         -1      )
                  (     0         -1          0      )
                  (    -1          0          0      )

 cart.    s(10) = (  0.0000000  0.0000000 -1.0000000 )
                  (  0.0000000 -1.0000000  0.0000000 )
                  ( -1.0000000  0.0000000  0.0000000 )


      isym = 11      90 deg rotation - cart. axis [0,1,0]        

 cryst.   s(11) = (     0          0         -1      )
                  (     0          1          0      )
                  (     1          0          0      )

 cart.    s(11) = (  0.0000000  0.0000000  1.0000000 )
                  (  0.0000000  1.0000000  0.0000000 )
                  ( -1.0000000  0.0000000  0.0000000 )


      isym = 12      90 deg rotation - cart. axis [0,-1,0]       

 cryst.   s(12) = (     0          0          1      )
                  (     0          1          0      )
                  (    -1          0          0      )

 cart.    s(12) = (  0.0000000  0.0000000 -1.0000000 )
                  (  0.0000000  1.0000000  0.0000000 )
                  (  1.0000000  0.0000000  0.0000000 )


      isym = 13     180 deg rotation - cart. axis [0,1,1]        

 cryst.   s(13) = (    -1          0          0      )
                  (     0          0          1      )
                  (     0          1          0      )

 cart.    s(13) = ( -1.0000000  0.0000000  0.0000000 )
                  (  0.0000000  0.0000000  1.0000000 )
                  (  0.0000000  1.0000000  0.0000000 )


      isym = 14     180 deg rotation - cart. axis [0,1,-1]       

 cryst.   s(14) = (    -1          0          0      )
                  (     0          0         -1      )
                  (     0         -1          0      )

 cart.    s(14) = ( -1.0000000  0.0000000  0.0000000 )
                  (  0.0000000  0.0000000 -1.0000000 )
                  (  0.0000000 -1.0000000  0.0000000 )


      isym = 15      90 deg rotation - cart. axis [-1,0,0]       

 cryst.   s(15) = (     1          0          0      )
                  (     0          0         -1      )
                  (     0          1          0      )

 cart.    s(15) = (  1.0000000  0.0000000  0.0000000 )
                  (  0.0000000  0.0000000  1.0000000 )
                  (  0.0000000 -1.0000000  0.0000000 )


      isym = 16      90 deg rotation - cart. axis [1,0,0]        

 cryst.   s(16) = (     1          0          0      )
                  (     0          0          1      )
                  (     0         -1          0      )

 cart.    s(16) = (  1.0000000  0.0000000  0.0000000 )
                  (  0.0000000  0.0000000 -1.0000000 )
                  (  0.0000000  1.0000000  0.0000000 )


      isym = 17     120 deg rotation - cart. axis [-1,-1,-1]     

 cryst.   s(17) = (     0          0          1      )
                  (     1          0          0      )
                  (     0          1          0      )

 cart.    s(17) = (  0.0000000  1.0000000  0.0000000 )
                  (  0.0000000  0.0000000  1.0000000 )
                  (  1.0000000  0.0000000  0.0000000 )


      isym = 18     120 deg rotation - cart. axis [-1,1,1]       

 cryst.   s(18) = (     0          0         -1      )
                  (    -1          0          0      )
                  (     0          1          0      )

 cart.    s(18) = (  0.0000000 -1.0000000  0.0000000 )
                  (  0.0000000  0.0000000  1.0000000 )
                  ( -1.0000000  0.0000000  0.0000000 )


      isym = 19     120 deg rotation - cart. axis [1,1,-1]       

 cryst.   s(19) = (     0          0         -1      )
                  (     1          0          0      )
                  (     0         -1          0      )

 cart.    s(19) = (  0.0000000  1.0000000  0.0000000 )
                  (  0.0000000  0.0000000 -1.0000000 )
                  ( -1.0000000  0.0000000  0.0000000 )


      isym = 20     120 deg rotation - cart. axis [1,-1,1]       

 cryst.   s(20) = (     0          0          1      )
                  (    -1          0          0      )
                  (     0         -1          0      )

 cart.    s(20) = (  0.0000000 -1.0000000  0.0000000 )
                  (  0.0000000  0.0000000 -1.0000000 )
                  (  1.0000000  0.0000000  0.0000000 )


      isym = 21     120 deg rotation - cart. axis [1,1,1]        

 cryst.   s(21) = (     0          1          0      )
                  (     0          0          1      )
                  (     1          0          0      )

 cart.    s(21) = (  0.0000000  0.0000000  1.0000000 )
                  (  1.0000000  0.0000000  0.0000000 )
                  (  0.0000000  1.0000000  0.0000000 )


      isym = 22     120 deg rotation - cart. axis [-1,1,-1]      

 cryst.   s(22) = (     0         -1          0      )
                  (     0          0         -1      )
                  (     1          0          0      )

 cart.    s(22) = (  0.0000000  0.0000000  1.0000000 )
                  ( -1.0000000  0.0000000  0.0000000 )
                  (  0.0000000 -1.0000000  0.0000000 )


      isym = 23     120 deg rotation - cart. axis [1,-1,-1]      

 cryst.   s(23) = (     0         -1          0      )
                  (     0          0          1      )
                  (    -1          0          0      )

 cart.    s(23) = (  0.0000000  0.0000000 -1.0000000 )
                  ( -1.0000000  0.0000000  0.0000000 )
                  (  0.0000000  1.0000000  0.0000000 )


      isym = 24     120 deg rotation - cart. axis [-1,-1,1]      

 cryst.   s(24) = (     0          1          0      )
                  (     0          0         -1      )
                  (    -1          0          0      )

 cart.    s(24) = (  0.0000000  0.0000000 -1.0000000 )
                  (  1.0000000  0.0000000  0.0000000 )
                  (  0.0000000 -1.0000000  0.0000000 )


      isym = 25     inversion                                    

 cryst.   s(25) = (    -1          0          0      )
                  (     0         -1          0      )
                  (     0          0         -1      )

 cart.    s(25) = ( -1.0000000  0.0000000  0.0000000 )
                  (  0.0000000 -1.0000000  0.0000000 )
                  (  0.0000000  0.0000000 -1.0000000 )


      isym = 26     inv. 180 deg rotation - cart. axis [0,0,1]   

 cryst.   s(26) = (     1          0          0      )
                  (     0          1          0      )
                  (     0          0         -1      )

 cart.    s(26) = (  1.0000000  0.0000000  0.0000000 )
                  (  0.0000000  1.0000000  0.0000000 )
                  (  0.0000000  0.0000000 -1.0000000 )


      isym = 27     inv. 180 deg rotation - cart. axis [0,1,0]   

 cryst.   s(27) = (     1          0          0      )
                  (     0         -1          0      )
                  (     0          0          1      )

 cart.    s(27) = (  1.0000000  0.0000000  0.0000000 )
                  (  0.0000000 -1.0000000  0.0000000 )
                  (  0.0000000  0.0000000  1.0000000 )


      isym = 28     inv. 180 deg rotation - cart. axis [1,0,0]   

 cryst.   s(28) = (    -1          0          0      )
                  (     0          1          0      )
                  (     0          0          1      )

 cart.    s(28) = ( -1.0000000  0.0000000  0.0000000 )
                  (  0.0000000  1.0000000  0.0000000 )
                  (  0.0000000  0.0000000  1.0000000 )


      isym = 29     inv. 180 deg rotation - cart. axis [1,1,0]   

 cryst.   s(29) = (     0         -1          0      )
                  (    -1          0          0      )
                  (     0          0          1      )

 cart.    s(29) = (  0.0000000 -1.0000000  0.0000000 )
                  ( -1.0000000  0.0000000  0.0000000 )
                  (  0.0000000  0.0000000  1.0000000 )


      isym = 30     inv. 180 deg rotation - cart. axis [1,-1,0]  

 cryst.   s(30) = (     0          1          0      )
                  (     1          0          0      )
                  (     0          0          1      )

 cart.    s(30) = (  0.0000000  1.0000000  0.0000000 )
                  (  1.0000000  0.0000000  0.0000000 )
                  (  0.0000000  0.0000000  1.0000000 )


      isym = 31     inv.  90 deg rotation - cart. axis [0,0,-1]  

 cryst.   s(31) = (     0          1          0      )
                  (    -1          0          0      )
                  (     0          0         -1      )

 cart.    s(31) = (  0.0000000 -1.0000000  0.0000000 )
                  (  1.0000000  0.0000000  0.0000000 )
                  (  0.0000000  0.0000000 -1.0000000 )


      isym = 32     inv.  90 deg rotation - cart. axis [0,0,1]   

 cryst.   s(32) = (     0         -1          0      )
                  (     1          0          0      )
                  (     0          0         -1      )

 cart.    s(32) = (  0.0000000  1.0000000  0.0000000 )
                  ( -1.0000000  0.0000000  0.0000000 )
                  (  0.0000000  0.0000000 -1.0000000 )


      isym = 33     inv. 180 deg rotation - cart. axis [1,0,1]   

 cryst.   s(33) = (     0          0         -1      )
                  (     0          1          0      )
                  (    -1          0          0      )

 cart.    s(33) = (  0.0000000  0.0000000 -1.0000000 )
                  (  0.0000000  1.0000000  0.0000000 )
                  ( -1.0000000  0.0000000  0.0000000 )


      isym = 34     inv. 180 deg rotation - cart. axis [-1,0,1]  

 cryst.   s(34) = (     0          0          1      )
                  (     0          1          0      )
                  (     1          0          0      )

 cart.    s(34) = (  0.0000000  0.0000000  1.0000000 )
                  (  0.0000000  1.0000000  0.0000000 )
                  (  1.0000000  0.0000000  0.0000000 )


      isym = 35     inv.  90 deg rotation - cart. axis [0,1,0]   

 cryst.   s(35) = (     0          0          1      )
                  (     0         -1          0      )
                  (    -1          0          0      )

 cart.    s(35) = (  0.0000000  0.0000000 -1.0000000 )
                  (  0.0000000 -1.0000000  0.0000000 )
                  (  1.0000000  0.0000000  0.0000000 )


      isym = 36     inv.  90 deg rotation - cart. axis [0,-1,0]  

 cryst.   s(36) = (     0          0         -1      )
                  (     0         -1          0      )
                  (     1          0          0      )

 cart.    s(36) = (  0.0000000  0.0000000  1.0000000 )
                  (  0.0000000 -1.0000000  0.0000000 )
                  ( -1.0000000  0.0000000  0.0000000 )


      isym = 37     inv. 180 deg rotation - cart. axis [0,1,1]   

 cryst.   s(37) = (     1          0          0      )
                  (     0          0         -1      )
                  (     0         -1          0      )

 cart.    s(37) = (  1.0000000  0.0000000  0.0000000 )
                  (  0.0000000  0.0000000 -1.0000000 )
                  (  0.0000000 -1.0000000  0.0000000 )


      isym = 38     inv. 180 deg rotation - cart. axis [0,1,-1]  

 cryst.   s(38) = (     1          0          0      )
                  (     0          0          1      )
                  (     0          1          0      )

 cart.    s(38) = (  1.0000000  0.0000000  0.0000000 )
                  (  0.0000000  0.0000000  1.0000000 )
                  (  0.0000000  1.0000000  0.0000000 )


      isym = 39     inv.  90 deg rotation - cart. axis [-1,0,0]  

 cryst.   s(39) = (    -1          0          0      )
                  (     0          0          1      )
                  (     0         -1          0      )

 cart.    s(39) = ( -1.0000000  0.0000000  0.0000000 )
                  (  0.0000000  0.0000000 -1.0000000 )
                  (  0.0000000  1.0000000  0.0000000 )


      isym = 40     inv.  90 deg rotation - cart. axis [1,0,0]   

 cryst.   s(40) = (    -1          0          0      )
                  (     0          0         -1      )
                  (     0          1          0      )

 cart.    s(40) = ( -1.0000000  0.0000000  0.0000000 )
                  (  0.0000000  0.0000000  1.0000000 )
                  (  0.0000000 -1.0000000  0.0000000 )


      isym = 41     inv. 120 deg rotation - cart. axis [-1,-1,-1]

 cryst.   s(41) = (     0          0         -1      )
                  (    -1          0          0      )
                  (     0         -1          0      )

 cart.    s(41) = (  0.0000000 -1.0000000  0.0000000 )
                  (  0.0000000  0.0000000 -1.0000000 )
                  ( -1.0000000  0.0000000  0.0000000 )


      isym = 42     inv. 120 deg rotation - cart. axis [-1,1,1]  

 cryst.   s(42) = (     0          0          1      )
                  (     1          0          0      )
                  (     0         -1          0      )

 cart.    s(42) = (  0.0000000  1.0000000  0.0000000 )
                  (  0.0000000  0.0000000 -1.0000000 )
                  (  1.0000000  0.0000000  0.0000000 )


      isym = 43     inv. 120 deg rotation - cart. axis [1,1,-1]  

 cryst.   s(43) = (     0          0          1      )
                  (    -1          0          0      )
                  (     0          1          0      )

 cart.    s(43) = (  0.0000000 -1.0000000  0.0000000 )
                  (  0.0000000  0.0000000  1.0000000 )
                  (  1.0000000  0.0000000  0.0000000 )


      isym = 44     inv. 120 deg rotation - cart. axis [1,-1,1]  

 cryst.   s(44) = (     0          0         -1      )
                  (     1          0          0      )
                  (     0          1          0      )

 cart.    s(44) = (  0.0000000  1.0000000  0.0000000 )
                  (  0.0000000  0.0000000  1.0000000 )
                  ( -1.0000000  0.0000000  0.0000000 )


      isym = 45     inv. 120 deg rotation - cart. axis [1,1,1]   

 cryst.   s(45) = (     0         -1          0      )
                  (     0          0         -1      )
                  (    -1          0          0      )

 cart.    s(45) = (  0.0000000  0.0000000 -1.0000000 )
                  ( -1.0000000  0.0000000  0.0000000 )
                  (  0.0000000 -1.0000000  0.0000000 )


      isym = 46     inv. 120 deg rotation - cart. axis [-1,1,-1] 

 cryst.   s(46) = (     0          1          0      )
                  (     0          0          1      )
                  (    -1          0          0      )

 cart.    s(46) = (  0.0000000  0.0000000 -1.0000000 )
                  (  1.0000000  0.0000000  0.0000000 )
                  (  0.0000000  1.0000000  0.0000000 )


      isym = 47     inv. 120 deg rotation - cart. axis [1,-1,-1] 

 cryst.   s(47) = (     0          1          0      )
                  (     0          0         -1      )
                  (     1          0          0      )

 cart.    s(47) = (  0.0000000  0.0000000  1.0000000 )
                  (  1.0000000  0.0000000  0.0000000 )
                  (  0.0000000 -1.0000000  0.0000000 )


      isym = 48     inv. 120 deg rotation - cart. axis [-1,-1,1] 

 cryst.   s(48) = (     0         -1          0      )
                  (     0          0          1      )
                  (     1          0          0      )

 cart.    s(48) = (  0.0000000  0.0000000  1.0000000 )
                  ( -1.0000000  0.0000000  0.0000000 )
                  (  0.0000000  1.0000000  0.0000000 )


   Cartesian axes

     site n.     atom                  positions (alat units)
         1        K      tau(   1) = (   0.0000000   0.0000000   0.0000000  )
         2        Ni     tau(   2) = (   0.5000000   0.5000000   0.5000000  )
         3        I      tau(   3) = (   0.5000000   0.5000000   0.0000000  )
         4        I      tau(   4) = (   0.5000000   0.0000000   0.5000000  )
         5        I      tau(   5) = (   0.0000000   0.5000000   0.5000000  )

   Crystallographic axes

     site n.     atom                  positions (cryst. coord.)
         1        K      tau(   1) = (  0.0000000  0.0000000  0.0000000  )
         2        Ni     tau(   2) = (  0.5000000  0.5000000  0.5000000  )
         3        I      tau(   3) = (  0.5000000  0.5000000  0.0000000  )
         4        I      tau(   4) = (  0.5000000  0.0000000  0.5000000  )
         5        I      tau(   5) = (  0.0000000  0.5000000  0.5000000  )

     number of k points=    35  Marzari-Vanderbilt smearing, width (Ry)=  0.0050
                       cart. coord. in units 2pi/alat
        k(    1) = (   0.0000000   0.0000000   0.0000000), wk =   0.0039062
        k(    2) = (   0.0000000   0.0000000   0.1250000), wk =   0.0234375
        k(    3) = (   0.0000000   0.0000000   0.2500000), wk =   0.0234375
        k(    4) = (   0.0000000   0.0000000   0.3750000), wk =   0.0234375
        k(    5) = (   0.0000000   0.0000000  -0.5000000), wk =   0.0117188
        k(    6) = (   0.0000000   0.1250000   0.1250000), wk =   0.0468750
        k(    7) = (   0.0000000   0.1250000   0.2500000), wk =   0.0937500
        k(    8) = (   0.0000000   0.1250000   0.3750000), wk =   0.0937500
        k(    9) = (   0.0000000   0.1250000  -0.5000000), wk =   0.0468750
        k(   10) = (   0.0000000   0.2500000   0.2500000), wk =   0.0468750
        k(   11) = (   0.0000000   0.2500000   0.3750000), wk =   0.0937500
        k(   12) = (   0.0000000   0.2500000  -0.5000000), wk =   0.0468750
        k(   13) = (   0.0000000   0.3750000   0.3750000), wk =   0.0468750
        k(   14) = (   0.0000000   0.3750000  -0.5000000), wk =   0.0468750
        k(   15) = (   0.0000000  -0.5000000  -0.5000000), wk =   0.0117188
        k(   16) = (   0.1250000   0.1250000   0.1250000), wk =   0.0312500
        k(   17) = (   0.1250000   0.1250000   0.2500000), wk =   0.0937500
        k(   18) = (   0.1250000   0.1250000   0.3750000), wk =   0.0937500
        k(   19) = (   0.1250000   0.1250000  -0.5000000), wk =   0.0468750
        k(   20) = (   0.1250000   0.2500000   0.2500000), wk =   0.0937500
        k(   21) = (   0.1250000   0.2500000   0.3750000), wk =   0.1875000
        k(   22) = (   0.1250000   0.2500000  -0.5000000), wk =   0.0937500
        k(   23) = (   0.1250000   0.3750000   0.3750000), wk =   0.0937500
        k(   24) = (   0.1250000   0.3750000  -0.5000000), wk =   0.0937500
        k(   25) = (   0.1250000  -0.5000000  -0.5000000), wk =   0.0234375
        k(   26) = (   0.2500000   0.2500000   0.2500000), wk =   0.0312500
        k(   27) = (   0.2500000   0.2500000   0.3750000), wk =   0.0937500
        k(   28) = (   0.2500000   0.2500000  -0.5000000), wk =   0.0468750
        k(   29) = (   0.2500000   0.3750000   0.3750000), wk =   0.0937500
        k(   30) = (   0.2500000   0.3750000  -0.5000000), wk =   0.0937500
        k(   31) = (   0.2500000  -0.5000000  -0.5000000), wk =   0.0234375
        k(   32) = (   0.3750000   0.3750000   0.3750000), wk =   0.0312500
        k(   33) = (   0.3750000   0.3750000  -0.5000000), wk =   0.0468750
        k(   34) = (   0.3750000  -0.5000000  -0.5000000), wk =   0.0234375
        k(   35) = (  -0.5000000  -0.5000000  -0.5000000), wk =   0.0039062

                       cryst. coord.
        k(    1) = (   0.0000000   0.0000000   0.0000000), wk =   0.0039062
        k(    2) = (   0.0000000   0.0000000   0.1250000), wk =   0.0234375
        k(    3) = (   0.0000000   0.0000000   0.2500000), wk =   0.0234375
        k(    4) = (   0.0000000   0.0000000   0.3750000), wk =   0.0234375
        k(    5) = (   0.0000000   0.0000000  -0.5000000), wk =   0.0117188
        k(    6) = (   0.0000000   0.1250000   0.1250000), wk =   0.0468750
        k(    7) = (   0.0000000   0.1250000   0.2500000), wk =   0.0937500
        k(    8) = (   0.0000000   0.1250000   0.3750000), wk =   0.0937500
        k(    9) = (   0.0000000   0.1250000  -0.5000000), wk =   0.0468750
        k(   10) = (   0.0000000   0.2500000   0.2500000), wk =   0.0468750
        k(   11) = (   0.0000000   0.2500000   0.3750000), wk =   0.0937500
        k(   12) = (   0.0000000   0.2500000  -0.5000000), wk =   0.0468750
        k(   13) = (   0.0000000   0.3750000   0.3750000), wk =   0.0468750
        k(   14) = (   0.0000000   0.3750000  -0.5000000), wk =   0.0468750
        k(   15) = (   0.0000000  -0.5000000  -0.5000000), wk =   0.0117188
        k(   16) = (   0.1250000   0.1250000   0.1250000), wk =   0.0312500
        k(   17) = (   0.1250000   0.1250000   0.2500000), wk =   0.0937500
        k(   18) = (   0.1250000   0.1250000   0.3750000), wk =   0.0937500
        k(   19) = (   0.1250000   0.1250000  -0.5000000), wk =   0.0468750
        k(   20) = (   0.1250000   0.2500000   0.2500000), wk =   0.0937500
        k(   21) = (   0.1250000   0.2500000   0.3750000), wk =   0.1875000
        k(   22) = (   0.1250000   0.2500000  -0.5000000), wk =   0.0937500
        k(   23) = (   0.1250000   0.3750000   0.3750000), wk =   0.0937500
        k(   24) = (   0.1250000   0.3750000  -0.5000000), wk =   0.0937500
        k(   25) = (   0.1250000  -0.5000000  -0.5000000), wk =   0.0234375
        k(   26) = (   0.2500000   0.2500000   0.2500000), wk =   0.0312500
        k(   27) = (   0.2500000   0.2500000   0.3750000), wk =   0.0937500
        k(   28) = (   0.2500000   0.2500000  -0.5000000), wk =   0.0468750
        k(   29) = (   0.2500000   0.3750000   0.3750000), wk =   0.0937500
        k(   30) = (   0.2500000   0.3750000  -0.5000000), wk =   0.0937500
        k(   31) = (   0.2500000  -0.5000000  -0.5000000), wk =   0.0234375
        k(   32) = (   0.3750000   0.3750000   0.3750000), wk =   0.0312500
        k(   33) = (   0.3750000   0.3750000  -0.5000000), wk =   0.0468750
        k(   34) = (   0.3750000  -0.5000000  -0.5000000), wk =   0.0234375
        k(   35) = (  -0.5000000  -0.5000000  -0.5000000), wk =   0.0039062

     Dense  grid:   428617 G-vectors     FFT dimensions: (  96,  96,  96)

     Smooth grid:   151323 G-vectors     FFT dimensions: (  72,  72,  72)

     Dynamical RAM for                 wfc:       3.39 MB

     Dynamical RAM for     wfc (w. buffer):      64.49 MB

     Dynamical RAM for           str. fact:       4.91 MB

     Dynamical RAM for           local pot:       0.00 MB

     Dynamical RAM for          nlocal pot:       6.50 MB

     Dynamical RAM for                qrad:       6.81 MB

     Dynamical RAM for          rho,v,vnew:       9.97 MB

     Dynamical RAM for               rhoin:       3.32 MB

     Dynamical RAM for            rho*nmix:      26.16 MB

     Dynamical RAM for           G-vectors:       6.42 MB

     Dynamical RAM for          h,s,v(r/c):       0.40 MB

     Dynamical RAM for          <psi|beta>:       0.06 MB

     Dynamical RAM for                 psi:       6.79 MB

     Dynamical RAM for                hpsi:       6.79 MB

     Dynamical RAM for                spsi:       6.79 MB

     Dynamical RAM for      wfcinit/wfcrot:       6.84 MB

     Dynamical RAM for           addusdens:     155.33 MB

     Dynamical RAM for          addusforce:     158.61 MB

     Dynamical RAM for         addusstress:     164.73 MB

     Estimated static dynamical RAM per process >     117.39 MB

     Estimated max dynamical RAM per process >     308.28 MB

     Estimated total dynamical RAM >       2.31 GB

     Initial potential from superposition of free atoms

     starting charge      77.9807, renormalised to      78.0000
     Starting wfcs are   45 randomized atomic wfcs +    2 random wfcs
     Checking if some PAW data can be deallocated... 
       PAW data deallocated on    4 nodes for type:  3

     total cpu time spent up to now is       10.7 secs

     Self-consistent Calculation

     iteration #  1     ecut=   100.00 Ry     beta= 0.30
     Davidson diagonalization with overlap

---- Real-time Memory Report at c_bands before calling an iterative solver
           238 MiB given to the printing process from OS
             0 MiB allocation reported by mallinfo(arena+hblkhd)
         42715 MiB available memory on the node where the printing process lives
------------------
     ethr =  1.00E-02,  avg # of iterations =  6.3

     total cpu time spent up to now is       36.7 secs

     total energy              =   -2052.11288925 Ry
     estimated scf accuracy    <       1.15253441 Ry

     iteration #  2     ecut=   100.00 Ry     beta= 0.30
     Davidson diagonalization with overlap

---- Real-time Memory Report at c_bands before calling an iterative solver
           313 MiB given to the printing process from OS
             0 MiB allocation reported by mallinfo(arena+hblkhd)
         41797 MiB available memory on the node where the printing process lives
------------------
     ethr =  1.48E-03,  avg # of iterations =  5.7

     total cpu time spent up to now is       61.5 secs

     total energy              =   -2052.15653346 Ry
     estimated scf accuracy    <       4.52072959 Ry

     iteration #  3     ecut=   100.00 Ry     beta= 0.30
     Davidson diagonalization with overlap

---- Real-time Memory Report at c_bands before calling an iterative solver
           317 MiB given to the printing process from OS
             0 MiB allocation reported by mallinfo(arena+hblkhd)
         41798 MiB available memory on the node where the printing process lives
------------------
     ethr =  1.48E-03,  avg # of iterations =  3.7

     total cpu time spent up to now is       83.5 secs

     total energy              =   -2052.56907197 Ry
     estimated scf accuracy    <       0.02241137 Ry

     iteration #  4     ecut=   100.00 Ry     beta= 0.30
     Davidson diagonalization with overlap

---- Real-time Memory Report at c_bands before calling an iterative solver
           318 MiB given to the printing process from OS
             0 MiB allocation reported by mallinfo(arena+hblkhd)
         41761 MiB available memory on the node where the printing process lives
------------------
     ethr =  2.87E-05,  avg # of iterations =  9.6

     total cpu time spent up to now is      119.2 secs

     total energy              =   -2052.57591146 Ry
     estimated scf accuracy    <       0.01541966 Ry

     iteration #  5     ecut=   100.00 Ry     beta= 0.30
     Davidson diagonalization with overlap

---- Real-time Memory Report at c_bands before calling an iterative solver
           319 MiB given to the printing process from OS
             0 MiB allocation reported by mallinfo(arena+hblkhd)
         41658 MiB available memory on the node where the printing process lives
------------------
     ethr =  1.98E-05,  avg # of iterations =  2.1

     total cpu time spent up to now is      140.1 secs

     total energy              =   -2052.57480469 Ry
     estimated scf accuracy    <       0.03520214 Ry

     iteration #  6     ecut=   100.00 Ry     beta= 0.30
     Davidson diagonalization with overlap

---- Real-time Memory Report at c_bands before calling an iterative solver
           320 MiB given to the printing process from OS
             0 MiB allocation reported by mallinfo(arena+hblkhd)
         41669 MiB available memory on the node where the printing process lives
------------------
     ethr =  1.98E-05,  avg # of iterations =  2.0

     total cpu time spent up to now is      159.9 secs

     total energy              =   -2052.57450918 Ry
     estimated scf accuracy    <       0.00942963 Ry

     iteration #  7     ecut=   100.00 Ry     beta= 0.30
     Davidson diagonalization with overlap

---- Real-time Memory Report at c_bands before calling an iterative solver
           321 MiB given to the printing process from OS
             0 MiB allocation reported by mallinfo(arena+hblkhd)
         41787 MiB available memory on the node where the printing process lives
------------------
     ethr =  1.21E-05,  avg # of iterations =  2.0

     total cpu time spent up to now is      180.1 secs

     total energy              =   -2052.57499689 Ry
     estimated scf accuracy    <       0.00086708 Ry

     iteration #  8     ecut=   100.00 Ry     beta= 0.30
     Davidson diagonalization with overlap

---- Real-time Memory Report at c_bands before calling an iterative solver
           322 MiB given to the printing process from OS
             0 MiB allocation reported by mallinfo(arena+hblkhd)
         41773 MiB available memory on the node where the printing process lives
------------------
     c_bands:  1 eigenvalues not converged
     ethr =  1.11E-06,  avg # of iterations =  7.8

     total cpu time spent up to now is      209.8 secs

     total energy              =   -2052.57516101 Ry
     estimated scf accuracy    <       0.00032315 Ry

     iteration #  9     ecut=   100.00 Ry     beta= 0.30
     Davidson diagonalization with overlap

---- Real-time Memory Report at c_bands before calling an iterative solver
           324 MiB given to the printing process from OS
             0 MiB allocation reported by mallinfo(arena+hblkhd)
         41836 MiB available memory on the node where the printing process lives
------------------
     ethr =  4.14E-07,  avg # of iterations =  4.9

     total cpu time spent up to now is      233.4 secs

     total energy              =   -2052.57520587 Ry
     estimated scf accuracy    <       0.00022075 Ry

     iteration # 10     ecut=   100.00 Ry     beta= 0.30
     Davidson diagonalization with overlap

---- Real-time Memory Report at c_bands before calling an iterative solver
           325 MiB given to the printing process from OS
             0 MiB allocation reported by mallinfo(arena+hblkhd)
         41895 MiB available memory on the node where the printing process lives
------------------
     ethr =  2.83E-07,  avg # of iterations =  2.2

     total cpu time spent up to now is      253.8 secs

     total energy              =   -2052.57523379 Ry
     estimated scf accuracy    <       0.00000200 Ry

     iteration # 11     ecut=   100.00 Ry     beta= 0.30
     Davidson diagonalization with overlap

---- Real-time Memory Report at c_bands before calling an iterative solver
           326 MiB given to the printing process from OS
             0 MiB allocation reported by mallinfo(arena+hblkhd)
         41809 MiB available memory on the node where the printing process lives
------------------
     ethr =  2.56E-09,  avg # of iterations =  8.8

     total cpu time spent up to now is      295.7 secs

     total energy              =   -2052.57523915 Ry
     estimated scf accuracy    <       0.00001385 Ry

     iteration # 12     ecut=   100.00 Ry     beta= 0.30
     Davidson diagonalization with overlap

---- Real-time Memory Report at c_bands before calling an iterative solver
           326 MiB given to the printing process from OS
             0 MiB allocation reported by mallinfo(arena+hblkhd)
         41842 MiB available memory on the node where the printing process lives
------------------
     ethr =  2.56E-09,  avg # of iterations =  3.3

     total cpu time spent up to now is      318.4 secs

     total energy              =   -2052.57523985 Ry
     estimated scf accuracy    <       0.00000129 Ry

     iteration # 13     ecut=   100.00 Ry     beta= 0.30
     Davidson diagonalization with overlap

---- Real-time Memory Report at c_bands before calling an iterative solver
           326 MiB given to the printing process from OS
             0 MiB allocation reported by mallinfo(arena+hblkhd)
         41772 MiB available memory on the node where the printing process lives
------------------
     ethr =  1.65E-09,  avg # of iterations =  3.5

     total cpu time spent up to now is      342.5 secs

     total energy              =   -2052.57523992 Ry
     estimated scf accuracy    <       0.00000199 Ry

     iteration # 14     ecut=   100.00 Ry     beta= 0.30
     Davidson diagonalization with overlap

---- Real-time Memory Report at c_bands before calling an iterative solver
           326 MiB given to the printing process from OS
             0 MiB allocation reported by mallinfo(arena+hblkhd)
         41801 MiB available memory on the node where the printing process lives
------------------
     ethr =  1.65E-09,  avg # of iterations =  1.7

     total cpu time spent up to now is      361.8 secs

     total energy              =   -2052.57523998 Ry
     estimated scf accuracy    <       0.00000022 Ry

     iteration # 15     ecut=   100.00 Ry     beta= 0.30
     Davidson diagonalization with overlap

---- Real-time Memory Report at c_bands before calling an iterative solver
           326 MiB given to the printing process from OS
             0 MiB allocation reported by mallinfo(arena+hblkhd)
         41575 MiB available memory on the node where the printing process lives
------------------
     ethr =  2.81E-10,  avg # of iterations =  2.0

     total cpu time spent up to now is      382.0 secs

     total energy              =   -2052.57524000 Ry
     estimated scf accuracy    <       0.00000008 Ry

     iteration # 16     ecut=   100.00 Ry     beta= 0.30
     Davidson diagonalization with overlap

---- Real-time Memory Report at c_bands before calling an iterative solver
           326 MiB given to the printing process from OS
             0 MiB allocation reported by mallinfo(arena+hblkhd)
         41745 MiB available memory on the node where the printing process lives
------------------
     ethr =  9.72E-11,  avg # of iterations =  3.7

     total cpu time spent up to now is      403.2 secs

     total energy              =   -2052.57523997 Ry
     estimated scf accuracy    <       0.00000018 Ry

     iteration # 17     ecut=   100.00 Ry     beta= 0.30
     Davidson diagonalization with overlap

---- Real-time Memory Report at c_bands before calling an iterative solver
           326 MiB given to the printing process from OS
             0 MiB allocation reported by mallinfo(arena+hblkhd)
         41810 MiB available memory on the node where the printing process lives
------------------
     ethr =  9.72E-11,  avg # of iterations =  2.0

     total cpu time spent up to now is      423.6 secs

     total energy              =   -2052.57523997 Ry
     estimated scf accuracy    <       0.00000003 Ry

     iteration # 18     ecut=   100.00 Ry     beta= 0.30
     Davidson diagonalization with overlap

---- Real-time Memory Report at c_bands before calling an iterative solver
           326 MiB given to the printing process from OS
             0 MiB allocation reported by mallinfo(arena+hblkhd)
         41752 MiB available memory on the node where the printing process lives
------------------
     ethr =  3.53E-11,  avg # of iterations =  3.7

     total cpu time spent up to now is      445.8 secs

     total energy              =   -2052.57523998 Ry
     estimated scf accuracy    <          1.6E-09 Ry

     iteration # 19     ecut=   100.00 Ry     beta= 0.30
     Davidson diagonalization with overlap

---- Real-time Memory Report at c_bands before calling an iterative solver
           326 MiB given to the printing process from OS
             0 MiB allocation reported by mallinfo(arena+hblkhd)
         41595 MiB available memory on the node where the printing process lives
------------------
     ethr =  2.09E-12,  avg # of iterations =  7.1

     total cpu time spent up to now is      482.7 secs

     total energy              =   -2052.57523998 Ry
     estimated scf accuracy    <          1.6E-10 Ry

     iteration # 20     ecut=   100.00 Ry     beta= 0.30
     Davidson diagonalization with overlap

---- Real-time Memory Report at c_bands before calling an iterative solver
           326 MiB given to the printing process from OS
             0 MiB allocation reported by mallinfo(arena+hblkhd)
         41676 MiB available memory on the node where the printing process lives
------------------
     ethr =  2.07E-13,  avg # of iterations =  5.7

     total cpu time spent up to now is      513.9 secs

     total energy              =   -2052.57523998 Ry
     estimated scf accuracy    <          1.1E-10 Ry

     iteration # 21     ecut=   100.00 Ry     beta= 0.30
     Davidson diagonalization with overlap

---- Real-time Memory Report at c_bands before calling an iterative solver
           326 MiB given to the printing process from OS
             0 MiB allocation reported by mallinfo(arena+hblkhd)
         41549 MiB available memory on the node where the printing process lives
------------------
     ethr =  1.46E-13,  avg # of iterations =  2.2

     total cpu time spent up to now is      534.6 secs

     End of self-consistent calculation

          k = 0.0000 0.0000 0.0000 ( 18949 PWs)   bands (ev):

   -96.2179 -56.6424 -56.6424 -56.6424 -38.2893 -38.2877 -38.2877 -38.2337
   -38.2337 -38.2337 -38.2303 -38.2303 -38.2303 -38.0702 -38.0702 -38.0702
   -38.0697 -38.0697 -38.0681 -23.5921  -7.0702  -7.0702  -7.0702  -6.5983
    -5.4264  -5.4264   2.4639   2.4639   2.4639   4.9928   4.9928   4.9928
     5.1508   5.1508   5.1508   5.2873   5.2873   5.5753   5.5753   5.5753
     7.3278   9.7387  10.8483  10.8483  11.6240  11.6240  11.6240

     occupation numbers 
     1.0000   1.0000   1.0000   1.0000   1.0000   1.0000   1.0000   1.0000
     1.0000   1.0000   1.0000   1.0000   1.0000   1.0000   1.0000   1.0000
     1.0000   1.0000   1.0000   1.0000   1.0000   1.0000   1.0000   1.0000
     1.0000   1.0000   1.0000   1.0000   1.0000   1.0000   1.0000   1.0000
     1.0000   1.0000   1.0000   1.0000   1.0000   1.0000   1.0000   1.0000
     0.0000   0.0000   0.0000   0.0000   0.0000   0.0000   0.0000

          k = 0.0000 0.0000 0.1250 ( 19005 PWs)   bands (ev):

   -96.2179 -56.6425 -56.6425 -56.6425 -38.2892 -38.2877 -38.2877 -38.2337
   -38.2336 -38.2336 -38.2305 -38.2305 -38.2303 -38.0702 -38.0702 -38.0702
   -38.0697 -38.0696 -38.0681 -23.5921  -7.0825  -7.0699  -7.0699  -6.5525
    -5.4639  -5.4245   2.4447   2.5010   2.5010   4.7679   4.7679   4.9324
     4.9879   5.1515   5.2580   5.2580   5.2880   5.6149   5.6149   5.6487
     7.6511  10.0017  10.9585  11.0681  11.6835  11.7931  11.7931

     occupation numbers 
     1.0000   1.0000   1.0000   1.0000   1.0000   1.0000   1.0000   1.0000
     1.0000   1.0000   1.0000   1.0000   1.0000   1.0000   1.0000   1.0000
     1.0000   1.0000   1.0000   1.0000   1.0000   1.0000   1.0000   1.0000
     1.0000   1.0000   1.0000   1.0000   1.0000   1.0000   1.0000   1.0000
     1.0000   1.0000   1.0000   1.0000   1.0000   1.0000   1.0000   1.0000
     0.0000   0.0000   0.0000   0.0000   0.0000   0.0000   0.0000

          k = 0.0000 0.0000 0.2500 ( 18941 PWs)   bands (ev):

   -96.2179 -56.6424 -56.6424 -56.6424 -38.2891 -38.2878 -38.2877 -38.2337
   -38.2332 -38.2332 -38.2308 -38.2308 -38.2303 -38.0702 -38.0702 -38.0702
   -38.0697 -38.0695 -38.0683 -23.5921  -7.1074  -7.0693  -7.0693  -6.4323
    -5.5693  -5.4199   2.4191   2.6028   2.6028   4.4352   4.4352   4.4838
     4.7964   5.1533   5.2890   5.3120   5.3120   5.6965   5.6965   5.7031
     8.4479  10.6086  11.2885  11.6534  11.8596  12.2615  12.2615

     occupation numbers 
     1.0000   1.0000   1.0000   1.0000   1.0000   1.0000   1.0000   1.0000
     1.0000   1.0000   1.0000   1.0000   1.0000   1.0000   1.0000   1.0000
     1.0000   1.0000   1.0000   1.0000   1.0000   1.0000   1.0000   1.0000
     1.0000   1.0000   1.0000   1.0000   1.0000   1.0000   1.0000   1.0000
     1.0000   1.0000   1.0000   1.0000   1.0000   1.0000   1.0000   1.0000
     0.0000   0.0000   0.0000   0.0000   0.0000   0.0000   0.0000

          k = 0.0000 0.0000 0.3750 ( 18953 PWs)   bands (ev):

   -96.2179 -56.6425 -56.6424 -56.6424 -38.2889 -38.2879 -38.2877 -38.2337
   -38.2327 -38.2327 -38.2314 -38.2314 -38.2303 -38.0702 -38.0702 -38.0702
   -38.0697 -38.0693 -38.0685 -23.5920  -7.1279  -7.0686  -7.0686  -6.2776
    -5.7141  -5.4153   2.4268   2.7307   2.7307   4.0640   4.1436   4.1436
     4.6715   5.1551   5.2897   5.3229   5.3229   5.7292   5.7576   5.7576
     9.5104  11.1634  11.5892  12.1358  12.3802  12.9257  12.9257

     occupation numbers 
     1.0000   1.0000   1.0000   1.0000   1.0000   1.0000   1.0000   1.0000
     1.0000   1.0000   1.0000   1.0000   1.0000   1.0000   1.0000   1.0000
     1.0000   1.0000   1.0000   1.0000   1.0000   1.0000   1.0000   1.0000
     1.0000   1.0000   1.0000   1.0000   1.0000   1.0000   1.0000   1.0000
     1.0000   1.0000   1.0000   1.0000   1.0000   1.0000   1.0000   1.0000
     0.0000   0.0000   0.0000   0.0000   0.0000   0.0000   0.0000

          k = 0.0000 0.0000-0.5000 ( 18922 PWs)   bands (ev):

   -96.2179 -56.6425 -56.6424 -56.6424 -38.2888 -38.2880 -38.2877 -38.2337
   -38.2320 -38.2320 -38.2320 -38.2320 -38.2303 -38.0702 -38.0702 -38.0702
   -38.0697 -38.0691 -38.0686 -23.5920  -7.1355  -7.0684  -7.0684  -6.1834
    -5.8053  -5.4134   2.4427   2.7967   2.7967   3.8970   4.0190   4.0190
     4.6224   5.1559   5.2898   5.3238   5.3238   5.7370   5.7784   5.7784
    10.3778  11.1690  11.4318  12.3616  12.7677  12.9118  13.4820

     occupation numbers 
     1.0000   1.0000   1.0000   1.0000   1.0000   1.0000   1.0000   1.0000
     1.0000   1.0000   1.0000   1.0000   1.0000   1.0000   1.0000   1.0000
     1.0000   1.0000   1.0000   1.0000   1.0000   1.0000   1.0000   1.0000
     1.0000   1.0000   1.0000   1.0000   1.0000   1.0000   1.0000   1.0000
     1.0000   1.0000   1.0000   1.0000   1.0000   1.0000   1.0000   1.0000
     0.0000   0.0000   0.0000   0.0000   0.0000   0.0000   0.0000

          k = 0.0000 0.1250 0.1250 ( 18981 PWs)   bands (ev):

   -96.2179 -56.6425 -56.6424 -56.6424 -38.2892 -38.2877 -38.2877 -38.2336
   -38.2335 -38.2334 -38.2306 -38.2305 -38.2304 -38.0702 -38.0702 -38.0701
   -38.0696 -38.0696 -38.0682 -23.5921  -7.0877  -7.0739  -7.0697  -6.5101
    -5.4788  -5.4436   2.3191   2.5389   2.6384   4.4646   4.6840   4.9589
     4.9774   4.9959   5.0778   5.3578   5.3995   5.4877   5.6352   5.9545
     7.8835  10.2313  11.1174  11.1702  11.7828  11.9106  11.9916

     occupation numbers 
     1.0000   1.0000   1.0000   1.0000   1.0000   1.0000   1.0000   1.0000
     1.0000   1.0000   1.0000   1.0000   1.0000   1.0000   1.0000   1.0000
     1.0000   1.0000   1.0000   1.0000   1.0000   1.0000   1.0000   1.0000
     1.0000   1.0000   1.0000   1.0000   1.0000   1.0000   1.0000   1.0000
     1.0000   1.0000   1.0000   1.0000   1.0000   1.0000   1.0000   1.0001
     0.0000   0.0000   0.0000   0.0000   0.0000   0.0000   0.0000

          k = 0.0000 0.1250 0.2500 ( 18941 PWs)   bands (ev):

   -96.2179 -56.6425 -56.6424 -56.6424 -38.2890 -38.2878 -38.2877 -38.2336
   -38.2332 -38.2331 -38.2309 -38.2308 -38.2305 -38.0702 -38.0702 -38.0701
   -38.0696 -38.0695 -38.0683 -23.5920  -7.1061  -7.0746  -7.0690  -6.3968
    -5.5712  -5.4476   2.2125   2.6431   2.7994   4.0187   4.4190   4.5984
     4.9222   4.9712   5.0332   5.4039   5.4784   5.5736   5.6977   6.1173
     8.5749  10.7920  11.4101  11.6475  11.9507  12.3471  12.4742

     occupation numbers 
     1.0000   1.0000   1.0000   1.0000   1.0000   1.0000   1.0000   1.0000
     1.0000   1.0000   1.0000   1.0000   1.0000   1.0000   1.0000   1.0000
     1.0000   1.0000   1.0000   1.0000   1.0000   1.0000   1.0000   1.0000
     1.0000   1.0000   1.0000   1.0000   1.0000   1.0000   1.0000   1.0000
     1.0000   1.0000   1.0000   1.0000   1.0000   1.0000   1.0000   1.0703
     0.0000   0.0000   0.0000   0.0000   0.0000   0.0000   0.0000

          k = 0.0000 0.1250 0.3750 ( 18902 PWs)   bands (ev):

   -96.2179 -56.6425 -56.6424 -56.6424 -38.2888 -38.2879 -38.2877 -38.2336
   -38.2327 -38.2326 -38.2314 -38.2314 -38.2304 -38.0703 -38.0702 -38.0701
   -38.0696 -38.0693 -38.0685 -23.5920  -7.1233  -7.0734  -7.0684  -6.2486
    -5.7093  -5.4444   2.1708   2.7749   2.9419   3.6493   4.1399   4.3161
     4.9035   4.9388   4.9704   5.4127   5.4967   5.7094   5.7558   6.1292
     9.5931  11.3611  11.6792  12.1732  12.2918  12.9601  12.9716

     occupation numbers 
     1.0000   1.0000   1.0000   1.0000   1.0000   1.0000   1.0000   1.0000
     1.0000   1.0000   1.0000   1.0000   1.0000   1.0000   1.0000   1.0000
     1.0000   1.0000   1.0000   1.0000   1.0000   1.0000   1.0000   1.0000
     1.0000   1.0000   1.0000   1.0000   1.0000   1.0000   1.0000   1.0000
     1.0000   1.0000   1.0000   1.0000   1.0000   1.0000   1.0000   1.0350
     0.0000   0.0000   0.0000   0.0000   0.0000   0.0000   0.0000

          k = 0.0000 0.1250-0.5000 ( 18938 PWs)   bands (ev):

   -96.2179 -56.6425 -56.6424 -56.6424 -38.2887 -38.2880 -38.2877 -38.2336
   -38.2320 -38.2320 -38.2320 -38.2320 -38.2304 -38.0703 -38.0702 -38.0701
   -38.0696 -38.0691 -38.0686 -23.5920  -7.1299  -7.0728  -7.0681  -6.1574
    -5.7973  -5.4428   2.1677   2.8435   3.0061   3.5028   4.0162   4.2044
     4.8976   4.8990   4.9693   5.4144   5.4995   5.7720   5.7764   6.1098
    10.4411  11.2730  11.6445  12.3210  12.6797  13.0803  13.1576

     occupation numbers 
     1.0000   1.0000   1.0000   1.0000   1.0000   1.0000   1.0000   1.0000
     1.0000   1.0000   1.0000   1.0000   1.0000   1.0000   1.0000   1.0000
     1.0000   1.0000   1.0000   1.0000   1.0000   1.0000   1.0000   1.0000
     1.0000   1.0000   1.0000   1.0000   1.0000   1.0000   1.0000   1.0000
     1.0000   1.0000   1.0000   1.0000   1.0000   1.0000   1.0000   1.0806
     0.0000   0.0000   0.0000   0.0000   0.0000   0.0000   0.0000

          k = 0.0000 0.2500 0.2500 ( 18961 PWs)   bands (ev):

   -96.2179 -56.6425 -56.6425 -56.6424 -38.2888 -38.2878 -38.2877 -38.2333
   -38.2331 -38.2329 -38.2312 -38.2309 -38.2308 -38.0703 -38.0702 -38.0701
   -38.0696 -38.0694 -38.0685 -23.5920  -7.1059  -7.0833  -7.0684  -6.2990
    -5.5980  -5.5055   1.9858   2.7546   3.0159   3.5548   4.3335   4.5813
     4.6564   4.6770   5.3252   5.4195   5.5467   5.6120   5.7113   6.5487
     9.0251  11.2449  11.7675  11.8218  12.0984  12.6803  12.8074

     occupation numbers 
     1.0000   1.0000   1.0000   1.0000   1.0000   1.0000   1.0000   1.0000
     1.0000   1.0000   1.0000   1.0000   1.0000   1.0000   1.0000   1.0000
     1.0000   1.0000   1.0000   1.0000   1.0000   1.0000   1.0000   1.0000
     1.0000   1.0000   1.0000   1.0000   1.0000   1.0000   1.0000   1.0000
     1.0000   1.0000   1.0000   1.0000   1.0000   1.0000   1.0000   0.0000
     0.0000   0.0000   0.0000   0.0000   0.0000   0.0000   0.0000

          k = 0.0000 0.2500 0.3750 ( 18926 PWs)   bands (ev):

   -96.2179 -56.6425 -56.6425 -56.6424 -38.2886 -38.2879 -38.2878 -38.2332
   -38.2326 -38.2325 -38.2315 -38.2314 -38.2308 -38.0703 -38.0702 -38.0700
   -38.0695 -38.0693 -38.0686 -23.5919  -7.1125  -7.0845  -7.0678  -6.1664
    -5.6995  -5.5251   1.8467   2.8993   3.1683   3.2184   4.1282   4.3750
     4.5491   4.6523   5.3866   5.4243   5.6502   5.6867   5.7519   6.7422
     9.8634  11.7714  12.0216  12.2005  12.2123  12.9452  13.2117

     occupation numbers 
     1.0000   1.0000   1.0000   1.0000   1.0000   1.0000   1.0000   1.0000
     1.0000   1.0000   1.0000   1.0000   1.0000   1.0000   1.0000   1.0000
     1.0000   1.0000   1.0000   1.0000   1.0000   1.0000   1.0000   1.0000
     1.0000   1.0000   1.0000   1.0000   1.0000   1.0000   1.0000   1.0000
     1.0000   1.0000   1.0000   1.0000   1.0000   1.0000   1.0000   0.0000
     0.0000   0.0000   0.0000   0.0000   0.0000   0.0000   0.0000

          k = 0.0000 0.2500-0.5000 ( 18962 PWs)   bands (ev):

   -96.2179 -56.6425 -56.6425 -56.6425 -38.2885 -38.2880 -38.2878 -38.2332
   -38.2320 -38.2320 -38.2320 -38.2320 -38.2308 -38.0703 -38.0702 -38.0700
   -38.0695 -38.0691 -38.0688 -23.5919  -7.1165  -7.0835  -7.0675  -6.0820
    -5.7781  -5.5264   1.8027   2.9774   3.0940   3.2279   4.0094   4.2833
     4.5297   4.6555   5.3754   5.4252   5.6544   5.7718   5.7786   6.7740
    10.6497  11.4811  12.2209  12.2421  12.4838  12.8086  13.3670

     occupation numbers 
     1.0000   1.0000   1.0000   1.0000   1.0000   1.0000   1.0000   1.0000
     1.0000   1.0000   1.0000   1.0000   1.0000   1.0000   1.0000   1.0000
     1.0000   1.0000   1.0000   1.0000   1.0000   1.0000   1.0000   1.0000
     1.0000   1.0000   1.0000   1.0000   1.0000   1.0000   1.0000   1.0000
     1.0000   1.0000   1.0000   1.0000   1.0000   1.0000   1.0000   0.0000
     0.0000   0.0000   0.0000   0.0000   0.0000   0.0000   0.0000

          k = 0.0000 0.3750 0.3750 ( 18956 PWs)   bands (ev):

   -96.2179 -56.6425 -56.6425 -56.6425 -38.2884 -38.2879 -38.2878 -38.2328
   -38.2326 -38.2323 -38.2318 -38.2315 -38.2312 -38.0704 -38.0702 -38.0700
   -38.0694 -38.0692 -38.0688 -23.5919  -7.1036  -7.0936  -7.0672  -6.0491
    -5.7080  -5.6228   1.6233   2.9261   3.0685   3.3126   4.0875   4.2520
     4.3947   4.4429   5.4271   5.6082   5.7289   5.7531   5.8049   7.2195
    10.4154  11.9042  12.1888  12.3836  12.4211  12.9183  13.2340

     occupation numbers 
     1.0000   1.0000   1.0000   1.0000   1.0000   1.0000   1.0000   1.0000
     1.0000   1.0000   1.0000   1.0000   1.0000   1.0000   1.0000   1.0000
     1.0000   1.0000   1.0000   1.0000   1.0000   1.0000   1.0000   1.0000
     1.0000   1.0000   1.0000   1.0000   1.0000   1.0000   1.0000   1.0000
     1.0000   1.0000   1.0000   1.0000   1.0000   1.0000   1.0000   0.0000
     0.0000   0.0000   0.0000   0.0000   0.0000   0.0000   0.0000

          k = 0.0000 0.3750-0.5000 ( 18926 PWs)   bands (ev):

   -96.2179 -56.6425 -56.6425 -56.6424 -38.2883 -38.2880 -38.2879 -38.2327
   -38.2320 -38.2320 -38.2320 -38.2320 -38.2313 -38.0704 -38.0702 -38.0700
   -38.0693 -38.0691 -38.0689 -23.5919  -7.1034  -7.0939  -7.0669  -5.9673
    -5.7590  -5.6491   1.5450   2.8236   3.1671   3.3644   4.0026   4.1779
     4.3322   4.4342   5.4278   5.6088   5.7391   5.7673   5.9371   7.3815
    11.0845  11.5713  12.1281  12.1805  12.7579  12.8823  13.0953

     occupation numbers 
     1.0000   1.0000   1.0000   1.0000   1.0000   1.0000   1.0000   1.0000
     1.0000   1.0000   1.0000   1.0000   1.0000   1.0000   1.0000   1.0000
     1.0000   1.0000   1.0000   1.0000   1.0000   1.0000   1.0000   1.0000
     1.0000   1.0000   1.0000   1.0000   1.0000   1.0000   1.0000   1.0000
     1.0000   1.0000   1.0000   1.0000   1.0000   1.0000   1.0000   0.0000
     0.0000   0.0000   0.0000   0.0000   0.0000   0.0000   0.0000

          k = 0.0000-0.5000-0.5000 ( 18848 PWs)   bands (ev):

   -96.2179 -56.6424 -56.6424 -56.6424 -38.2882 -38.2880 -38.2880 -38.2322
   -38.2320 -38.2320 -38.2320 -38.2320 -38.2318 -38.0704 -38.0702 -38.0699
   -38.0691 -38.0691 -38.0691 -23.5918  -7.0981  -7.0981  -7.0667  -5.8685
    -5.7512  -5.7512   1.4535   2.7297   3.2876   3.4130   3.9998   3.9998
     4.3510   4.3510   5.4285   5.6283   5.7654   5.7654   6.0689   7.6329
    11.6726  11.7929  11.7929  11.8971  12.1585  13.3351  13.3351

     occupation numbers 
     1.0000   1.0000   1.0000   1.0000   1.0000   1.0000   1.0000   1.0000
     1.0000   1.0000   1.0000   1.0000   1.0000   1.0000   1.0000   1.0000
     1.0000   1.0000   1.0000   1.0000   1.0000   1.0000   1.0000   1.0000
     1.0000   1.0000   1.0000   1.0000   1.0000   1.0000   1.0000   1.0000
     1.0000   1.0000   1.0000   1.0000   1.0000   1.0000   1.0490   0.0000
     0.0000   0.0000   0.0000   0.0000   0.0000   0.0000   0.0000

          k = 0.1250 0.1250 0.1250 ( 18991 PWs)   bands (ev):

   -96.2179 -56.6425 -56.6425 -56.6424 -38.2891 -38.2877 -38.2877 -38.2335
   -38.2334 -38.2334 -38.2306 -38.2306 -38.2305 -38.0702 -38.0701 -38.0701
   -38.0696 -38.0696 -38.0682 -23.5921  -7.0914  -7.0733  -7.0733  -6.4704
    -5.4774  -5.4774   2.1945   2.6719   2.6719   4.4444   4.4444   4.5334
     5.0558   5.0558   5.1280   5.4031   5.4159   5.4159   5.9474   5.9474
     8.0714  10.4178  11.2477  11.2477  11.8482  12.1271  12.1271

     occupation numbers 
     1.0000   1.0000   1.0000   1.0000   1.0000   1.0000   1.0000   1.0000
     1.0000   1.0000   1.0000   1.0000   1.0000   1.0000   1.0000   1.0000
     1.0000   1.0000   1.0000   1.0000   1.0000   1.0000   1.0000   1.0000
     1.0000   1.0000   1.0000   1.0000   1.0000   1.0000   1.0000   1.0000
     1.0000   1.0000   1.0000   1.0000   1.0000   1.0000   1.0000   1.0000
     0.0000   0.0000   0.0000   0.0000   0.0000   0.0000   0.0000

          k = 0.1250 0.1250 0.2500 ( 18959 PWs)   bands (ev):

   -96.2179 -56.6425 -56.6424 -56.6424 -38.2889 -38.2878 -38.2877 -38.2335
   -38.2331 -38.2331 -38.2309 -38.2309 -38.2306 -38.0703 -38.0701 -38.0701
   -38.0696 -38.0695 -38.0684 -23.5920  -7.1048  -7.0755  -7.0718  -6.3629
    -5.5727  -5.4739   2.0494   2.7655   2.8567   3.9735   4.0954   4.4795
     4.8776   5.0563   5.1267   5.3995   5.5351   5.5617   5.9201   6.1898
     8.6883  10.9040  11.4978  11.6602  11.9574  12.4977  12.6707

     occupation numbers 
     1.0000   1.0000   1.0000   1.0000   1.0000   1.0000   1.0000   1.0000
     1.0000   1.0000   1.0000   1.0000   1.0000   1.0000   1.0000   1.0000
     1.0000   1.0000   1.0000   1.0000   1.0000   1.0000   1.0000   1.0000
     1.0000   1.0000   1.0000   1.0000   1.0000   1.0000   1.0000   1.0000
     1.0000   1.0000   1.0000   1.0000   1.0000   1.0000   1.0000   0.4987
     0.0000   0.0000   0.0000   0.0000   0.0000   0.0000   0.0000

          k = 0.1250 0.1250 0.3750 ( 18919 PWs)   bands (ev):

   -96.2179 -56.6425 -56.6424 -56.6424 -38.2887 -38.2879 -38.2877 -38.2335
   -38.2326 -38.2326 -38.2314 -38.2314 -38.2306 -38.0703 -38.0701 -38.0701
   -38.0696 -38.0693 -38.0686 -23.5920  -7.1190  -7.0751  -7.0703  -6.2206
    -5.7056  -5.4704   1.9736   2.8912   3.0051   3.5797   3.8012   4.4943
     4.6855   5.0356   5.0672   5.4016   5.6753   5.7007   5.8662   6.2334
     9.6675  11.4475  11.7011  12.1370  12.2919  12.8095  13.3190

     occupation numbers 
     1.0000   1.0000   1.0000   1.0000   1.0000   1.0000   1.0000   1.0000
     1.0000   1.0000   1.0000   1.0000   1.0000   1.0000   1.0000   1.0000
     1.0000   1.0000   1.0000   1.0000   1.0000   1.0000   1.0000   1.0000
     1.0000   1.0000   1.0000   1.0000   1.0000   1.0000   1.0000   1.0000
     1.0000   1.0000   1.0000   1.0000   1.0000   1.0000   1.0000   0.1357
     0.0000   0.0000   0.0000   0.0000   0.0000   0.0000   0.0000

          k = 0.1250 0.1250-0.5000 ( 18922 PWs)   bands (ev):

   -96.2179 -56.6425 -56.6424 -56.6424 -38.2886 -38.2880 -38.2877 -38.2335
   -38.2320 -38.2320 -38.2320 -38.2320 -38.2306 -38.0703 -38.0701 -38.0701
   -38.0696 -38.0691 -38.0687 -23.5920  -7.1247  -7.0747  -7.0697  -6.1322
    -5.7907  -5.4690   1.9555   2.9633   3.0655   3.4316   3.6715   4.5254
     4.5791   5.0058   5.0592   5.4025   5.7621   5.7801   5.7902   6.2206
    10.5037  11.3042  11.7454  12.1957  12.7369  12.9812  13.3596

     occupation numbers 
     1.0000   1.0000   1.0000   1.0000   1.0000   1.0000   1.0000   1.0000
     1.0000   1.0000   1.0000   1.0000   1.0000   1.0000   1.0000   1.0000
     1.0000   1.0000   1.0000   1.0000   1.0000   1.0000   1.0000   1.0000
     1.0000   1.0000   1.0000   1.0000   1.0000   1.0000   1.0000   1.0000
     1.0000   1.0000   1.0000   1.0000   1.0000   1.0000   1.0000   0.2145
     0.0000   0.0000   0.0000   0.0000   0.0000   0.0000   0.0000

          k = 0.1250 0.2500 0.2500 ( 18957 PWs)   bands (ev):

   -96.2179 -56.6425 -56.6425 -56.6424 -38.2888 -38.2878 -38.2878 -38.2332
   -38.2331 -38.2328 -38.2312 -38.2310 -38.2308 -38.0703 -38.0701 -38.0701
   -38.0695 -38.0694 -38.0685 -23.5920  -7.1044  -7.0818  -7.0715  -6.2691
    -5.5978  -5.5290   1.8173   2.8857   3.0305   3.5630   4.0549   4.0854
     4.9295   4.9584   5.3560   5.4749   5.5443   5.5959   5.9855   6.5418
     9.1053  11.2049  11.8115  11.8179  11.9215  12.9109  13.0558

     occupation numbers 
     1.0000   1.0000   1.0000   1.0000   1.0000   1.0000   1.0000   1.0000
     1.0000   1.0000   1.0000   1.0000   1.0000   1.0000   1.0000   1.0000
     1.0000   1.0000   1.0000   1.0000   1.0000   1.0000   1.0000   1.0000
     1.0000   1.0000   1.0000   1.0000   1.0000   1.0000   1.0000   1.0000
     1.0000   1.0000   1.0000   1.0000   1.0000   1.0000   1.0008   0.0000
     0.0000   0.0000   0.0000   0.0000   0.0000   0.0000   0.0000

          k = 0.1250 0.2500 0.3750 ( 18942 PWs)   bands (ev):

   -96.2179 -56.6425 -56.6425 -56.6424 -38.2886 -38.2879 -38.2878 -38.2331
   -38.2326 -38.2325 -38.2316 -38.2314 -38.2309 -38.0704 -38.0701 -38.0700
   -38.0695 -38.0693 -38.0687 -23.5919  -7.1091  -7.0834  -7.0702  -6.1412
    -5.6985  -5.5435   1.6626   3.0093   3.1728   3.2319   3.7476   4.0992
     4.8051   4.9614   5.4030   5.5045   5.6818   5.7054   5.9357   6.7416
     9.9159  11.4579  11.9106  12.1912  12.3348  12.9440  13.3958

     occupation numbers 
     1.0000   1.0000   1.0000   1.0000   1.0000   1.0000   1.0000   1.0000
     1.0000   1.0000   1.0000   1.0000   1.0000   1.0000   1.0000   1.0000
     1.0000   1.0000   1.0000   1.0000   1.0000   1.0000   1.0000   1.0000
     1.0000   1.0000   1.0000   1.0000   1.0000   1.0000   1.0000   1.0000
     1.0000   1.0000   1.0000   1.0000   1.0000   1.0000   1.0000   0.0000
     0.0000   0.0000   0.0000   0.0000   0.0000   0.0000   0.0000

          k = 0.1250 0.2500-0.5000 ( 18920 PWs)   bands (ev):

   -96.2179 -56.6425 -56.6425 -56.6424 -38.2885 -38.2880 -38.2878 -38.2331
   -38.2321 -38.2320 -38.2320 -38.2319 -38.2309 -38.0704 -38.0701 -38.0700
   -38.0695 -38.0691 -38.0688 -23.5919  -7.1122  -7.0828  -7.0695  -6.0592
    -5.7750  -5.5442   1.6110   3.0893   3.1028   3.2312   3.6028   4.1156
     4.7423   4.9658   5.3900   5.5099   5.7566   5.7920   5.8860   6.7746
    10.7066  11.2499  12.0713  12.1122  12.6050  12.9737  13.2189

     occupation numbers 
     1.0000   1.0000   1.0000   1.0000   1.0000   1.0000   1.0000   1.0000
     1.0000   1.0000   1.0000   1.0000   1.0000   1.0000   1.0000   1.0000
     1.0000   1.0000   1.0000   1.0000   1.0000   1.0000   1.0000   1.0000
     1.0000   1.0000   1.0000   1.0000   1.0000   1.0000   1.0000   1.0000
     1.0000   1.0000   1.0000   1.0000   1.0000   1.0000   1.0000   0.0000
     0.0000   0.0000   0.0000   0.0000   0.0000   0.0000   0.0000

          k = 0.1250 0.3750 0.3750 ( 18933 PWs)   bands (ev):

   -96.2179 -56.6425 -56.6425 -56.6424 -38.2884 -38.2879 -38.2879 -38.2327
   -38.2325 -38.2323 -38.2318 -38.2315 -38.2313 -38.0704 -38.0701 -38.0700
   -38.0694 -38.0692 -38.0688 -23.5919  -7.1008  -7.0911  -7.0691  -6.0284
    -5.7091  -5.6327   1.4358   2.9384   3.1507   3.3019   3.7571   3.7879
     4.8377   4.8432   5.6004   5.6118   5.7174   5.8152   5.8869   7.2176
    10.4388  11.2866  12.2717  12.4661  12.5117  12.7947  13.1485

     occupation numbers 
     1.0000   1.0000   1.0000   1.0000   1.0000   1.0000   1.0000   1.0000
     1.0000   1.0000   1.0000   1.0000   1.0000   1.0000   1.0000   1.0000
     1.0000   1.0000   1.0000   1.0000   1.0000   1.0000   1.0000   1.0000
     1.0000   1.0000   1.0000   1.0000   1.0000   1.0000   1.0000   1.0000
     1.0000   1.0000   1.0000   1.0000   1.0000   1.0000   1.0000   0.0000
     0.0000   0.0000   0.0000   0.0000   0.0000   0.0000   0.0000

          k = 0.1250 0.3750-0.5000 ( 18902 PWs)   bands (ev):

   -96.2179 -56.6425 -56.6425 -56.6424 -38.2883 -38.2880 -38.2879 -38.2326
   -38.2321 -38.2320 -38.2320 -38.2319 -38.2314 -38.0705 -38.0701 -38.0700
   -38.0693 -38.0691 -38.0689 -23.5918  -7.1001  -7.0915  -7.0687  -5.9493
    -5.7593  -5.6562   1.3550   2.8419   3.2272   3.3604   3.6118   3.7877
     4.7865   4.8506   5.6131   5.6313   5.7632   5.8345   5.9431   7.3812
    11.0884  11.1272  11.9175  12.4721  12.7353  12.8991  13.0615

     occupation numbers 
     1.0000   1.0000   1.0000   1.0000   1.0000   1.0000   1.0000   1.0000
     1.0000   1.0000   1.0000   1.0000   1.0000   1.0000   1.0000   1.0000
     1.0000   1.0000   1.0000   1.0000   1.0000   1.0000   1.0000   1.0000
     1.0000   1.0000   1.0000   1.0000   1.0000   1.0000   1.0000   1.0000
     1.0000   1.0000   1.0000   1.0000   1.0000   1.0000   1.0000   0.0000
     0.0000   0.0000   0.0000   0.0000   0.0000   0.0000   0.0000

          k = 0.1250-0.5000-0.5000 ( 18924 PWs)   bands (ev):

   -96.2179 -56.6425 -56.6425 -56.6425 -38.2882 -38.2880 -38.2880 -38.2322
   -38.2321 -38.2321 -38.2319 -38.2319 -38.2318 -38.0705 -38.0701 -38.0699
   -38.0691 -38.0691 -38.0691 -23.5918  -7.0951  -7.0951  -7.0683  -5.8536
    -5.7528  -5.7528   1.2628   2.7502   3.3266   3.4143   3.6177   3.6177
     4.7995   4.7995   5.6323   5.7227   5.7634   5.7634   6.0739   7.6360
    11.0186  11.7703  11.7703  11.9633  12.7799  13.0287  13.0287

     occupation numbers 
     1.0000   1.0000   1.0000   1.0000   1.0000   1.0000   1.0000   1.0000
     1.0000   1.0000   1.0000   1.0000   1.0000   1.0000   1.0000   1.0000
     1.0000   1.0000   1.0000   1.0000   1.0000   1.0000   1.0000   1.0000
     1.0000   1.0000   1.0000   1.0000   1.0000   1.0000   1.0000   1.0000
     1.0000   1.0000   1.0000   1.0000   1.0000   1.0000   1.0559   0.0000
     0.0000   0.0000   0.0000   0.0000   0.0000   0.0000   0.0000

          k = 0.2500 0.2500 0.2500 ( 18952 PWs)   bands (ev):

   -96.2179 -56.6425 -56.6425 -56.6425 -38.2886 -38.2878 -38.2878 -38.2330
   -38.2328 -38.2328 -38.2312 -38.2312 -38.2310 -38.0704 -38.0701 -38.0701
   -38.0694 -38.0694 -38.0686 -23.5919  -7.1015  -7.0781  -7.0781  -6.1857
    -5.5972  -5.5972   1.5376   3.0729   3.0729   3.4843   3.7055   3.7055
     5.1457   5.1457   5.4864   5.5001   5.5696   5.5696   6.5121   6.5121
     9.4107  11.1193  11.7842  11.9708  11.9708  13.3820  13.3820

     occupation numbers 
     1.0000   1.0000   1.0000   1.0000   1.0000   1.0000   1.0000   1.0000
     1.0000   1.0000   1.0000   1.0000   1.0000   1.0000   1.0000   1.0000
     1.0000   1.0000   1.0000   1.0000   1.0000   1.0000   1.0000   1.0000
     1.0000   1.0000   1.0000   1.0000   1.0000   1.0000   1.0000   1.0000
     1.0000   1.0000   1.0000   1.0000   1.0000   1.0000   0.0000   0.0000
     0.0000   0.0000   0.0000   0.0000   0.0000   0.0000   0.0000

          k = 0.2500 0.2500 0.3750 ( 18943 PWs)   bands (ev):

   -96.2179 -56.6425 -56.6425 -56.6425 -38.2885 -38.2879 -38.2878 -38.2329
   -38.2325 -38.2324 -38.2316 -38.2315 -38.2311 -38.0705 -38.0701 -38.0700
   -38.0694 -38.0692 -38.0688 -23.5919  -7.1011  -7.0821  -7.0744  -6.0707
    -5.6976  -5.5966   1.3323   3.1437   3.1641   3.2222   3.4353   3.7022
     5.2074   5.2119   5.4948   5.5352   5.6703   5.7238   6.4559   6.8142
    10.0844  10.9890  11.8847  12.2775  12.3926  12.8622  13.5542

     occupation numbers 
     1.0000   1.0000   1.0000   1.0000   1.0000   1.0000   1.0000   1.0000
     1.0000   1.0000   1.0000   1.0000   1.0000   1.0000   1.0000   1.0000
     1.0000   1.0000   1.0000   1.0000   1.0000   1.0000   1.0000   1.0000
     1.0000   1.0000   1.0000   1.0000   1.0000   1.0000   1.0000   1.0000
     1.0000   1.0000   1.0000   1.0000   1.0000   1.0000   0.0000   0.0000
     0.0000   0.0000   0.0000   0.0000   0.0000   0.0000   0.0000

          k = 0.2500 0.2500-0.5000 ( 18960 PWs)   bands (ev):

   -96.2179 -56.6425 -56.6425 -56.6425 -38.2884 -38.2880 -38.2878 -38.2329
   -38.2321 -38.2320 -38.2320 -38.2319 -38.2311 -38.0705 -38.0701 -38.0700
   -38.0694 -38.0691 -38.0689 -23.5918  -7.1020  -7.0826  -7.0729  -5.9948
    -5.7674  -5.5964   1.2595   3.0793   3.2297   3.2475   3.2634   3.7185
     5.2081   5.2281   5.4758   5.5432   5.7487   5.8170   6.4196   6.8763
    10.7959  10.8636  11.9761  12.0467  12.5261  12.9594  13.0629

     occupation numbers 
     1.0000   1.0000   1.0000   1.0000   1.0000   1.0000   1.0000   1.0000
     1.0000   1.0000   1.0000   1.0000   1.0000   1.0000   1.0000   1.0000
     1.0000   1.0000   1.0000   1.0000   1.0000   1.0000   1.0000   1.0000
     1.0000   1.0000   1.0000   1.0000   1.0000   1.0000   1.0000   1.0000
     1.0000   1.0000   1.0000   1.0000   1.0000   1.0000   0.0000   0.0000
     0.0000   0.0000   0.0000   0.0000   0.0000   0.0000   0.0000

          k = 0.2500 0.3750 0.3750 ( 18913 PWs)   bands (ev):

   -96.2179 -56.6425 -56.6425 -56.6424 -38.2883 -38.2879 -38.2879 -38.2326
   -38.2324 -38.2322 -38.2318 -38.2316 -38.2314 -38.0705 -38.0700 -38.0700
   -38.0693 -38.0692 -38.0689 -23.5918  -7.0939  -7.0849  -7.0739  -5.9714
    -5.7117  -5.6633   1.0770   2.9745   3.2024   3.2182   3.4255   3.4714
     5.3156   5.3387   5.6222   5.6405   5.6984   5.8395   6.5277   7.2054
    10.4127  10.7427  12.0320  12.3025  12.4649  12.6896  13.2251

     occupation numbers 
     1.0000   1.0000   1.0000   1.0000   1.0000   1.0000   1.0000   1.0000
     1.0000   1.0000   1.0000   1.0000   1.0000   1.0000   1.0000   1.0000
     1.0000   1.0000   1.0000   1.0000   1.0000   1.0000   1.0000   1.0000
     1.0000   1.0000   1.0000   1.0000   1.0000   1.0000   1.0000   1.0000
     1.0000   1.0000   1.0000   1.0000   1.0000   1.0000   0.0000   0.0000
     0.0000   0.0000   0.0000   0.0000   0.0000   0.0000   0.0000

          k = 0.2500 0.3750-0.5000 ( 18898 PWs)   bands (ev):

   -96.2179 -56.6425 -56.6425 -56.6424 -38.2882 -38.2880 -38.2879 -38.2325
   -38.2322 -38.2321 -38.2319 -38.2319 -38.2315 -38.0705 -38.0700 -38.0700
   -38.0693 -38.0691 -38.0690 -23.5918  -7.0920  -7.0859  -7.0727  -5.9007
    -5.7599  -5.6780   0.9840   2.8862   3.2095   3.2291   3.3620   3.4767
     5.3374   5.3450   5.6248   5.6727   5.7696   5.9583   6.4918   7.3785
    10.4514  11.1579  11.7129  12.1465  12.5604  12.6941  13.1853

     occupation numbers 
     1.0000   1.0000   1.0000   1.0000   1.0000   1.0000   1.0000   1.0000
     1.0000   1.0000   1.0000   1.0000   1.0000   1.0000   1.0000   1.0000
     1.0000   1.0000   1.0000   1.0000   1.0000   1.0000   1.0000   1.0000
     1.0000   1.0000   1.0000   1.0000   1.0000   1.0000   1.0000   1.0000
     1.0000   1.0000   1.0000   1.0000   1.0000   1.0001   0.0000   0.0000
     0.0000   0.0000   0.0000   0.0000   0.0000   0.0000   0.0000

          k = 0.2500-0.5000-0.5000 ( 18908 PWs)   bands (ev):

   -96.2179 -56.6425 -56.6425 -56.6425 -38.2881 -38.2880 -38.2880 -38.2322
   -38.2322 -38.2322 -38.2318 -38.2318 -38.2318 -38.0706 -38.0700 -38.0699
   -38.0691 -38.0691 -38.0691 -23.5918  -7.0878  -7.0878  -7.0720  -5.8167
    -5.7568  -5.7568   0.8830   2.8006   3.2181   3.2181   3.3815   3.4175
     5.3558   5.3558   5.6425   5.7764   5.7764   6.0860   6.4464   7.6437
    10.3277  11.5516  11.5516  12.0138  12.4116  12.8212  12.8212

     occupation numbers 
     1.0000   1.0000   1.0000   1.0000   1.0000   1.0000   1.0000   1.0000
     1.0000   1.0000   1.0000   1.0000   1.0000   1.0000   1.0000   1.0000
     1.0000   1.0000   1.0000   1.0000   1.0000   1.0000   1.0000   1.0000
     1.0000   1.0000   1.0000   1.0000   1.0000   1.0000   1.0000   1.0000
     1.0000   1.0000   1.0000   1.0000   1.0000   1.0718   0.0000   0.0000
     0.0000   0.0000   0.0000   0.0000   0.0000   0.0000   0.0000

          k = 0.3750 0.3750 0.3750 ( 18895 PWs)   bands (ev):

   -96.2179 -56.6425 -56.6425 -56.6425 -38.2882 -38.2879 -38.2879 -38.2325
   -38.2322 -38.2322 -38.2318 -38.2318 -38.2316 -38.0706 -38.0700 -38.0700
   -38.0692 -38.0692 -38.0690 -23.5918  -7.0870  -7.0787  -7.0787  -5.8934
    -5.7143  -5.7143   0.7888   2.9835   3.0440   3.0440   3.4079   3.4079
     5.6105   5.6292   5.6292   5.7385   5.7385   5.9053   7.1757   7.1757
    10.1520  10.7258  11.9716  11.9716  12.1155  12.9777  12.9777

     occupation numbers 
     1.0000   1.0000   1.0000   1.0000   1.0000   1.0000   1.0000   1.0000
     1.0000   1.0000   1.0000   1.0000   1.0000   1.0000   1.0000   1.0000
     1.0000   1.0000   1.0000   1.0000   1.0000   1.0000   1.0000   1.0000
     1.0000   1.0000   1.0000   1.0000   1.0000   1.0000   1.0000   1.0000
     1.0000   1.0000   1.0000   1.0000   1.0000   1.0000   0.0000   0.0000
     0.0000   0.0000   0.0000   0.0000   0.0000   0.0000   0.0000

          k = 0.3750 0.3750-0.5000 ( 18944 PWs)   bands (ev):

   -96.2179 -56.6425 -56.6425 -56.6425 -38.2881 -38.2880 -38.2879 -38.2324
   -38.2322 -38.2321 -38.2319 -38.2318 -38.2316 -38.0706 -38.0700 -38.0700
   -38.0692 -38.0691 -38.0690 -23.5917  -7.0838  -7.0809  -7.0761  -5.8358
    -5.7606  -5.7154   0.6823   2.9139   2.9697   3.0425   3.4007   3.4227
     5.6134   5.6308   5.6434   5.7885   5.8986   5.9980   7.1546   7.4328
    10.0211  11.0831  11.3500  11.8554  12.2977  12.8009  13.1772

     occupation numbers 
     1.0000   1.0000   1.0000   1.0000   1.0000   1.0000   1.0000   1.0000
     1.0000   1.0000   1.0000   1.0000   1.0000   1.0000   1.0000   1.0000
     1.0000   1.0000   1.0000   1.0000   1.0000   1.0000   1.0000   1.0000
     1.0000   1.0000   1.0000   1.0000   1.0000   1.0000   1.0000   1.0000
     1.0000   1.0000   1.0000   1.0000   1.0000   1.0018   0.0000   0.0000
     0.0000   0.0000   0.0000   0.0000   0.0000   0.0000   0.0000

          k = 0.3750-0.5000-0.5000 ( 18924 PWs)   bands (ev):

   -96.2179 -56.6425 -56.6425 -56.6425 -38.2880 -38.2880 -38.2880 -38.2322
   -38.2322 -38.2322 -38.2318 -38.2318 -38.2318 -38.0706 -38.0700 -38.0699
   -38.0691 -38.0691 -38.0691 -23.5917  -7.0805  -7.0805  -7.0758  -5.7787
    -5.7608  -5.7608   0.5702   2.8525   2.9621   2.9621   3.4125   3.4207
     5.6345   5.6345   5.6539   5.9493   5.9493   6.0983   7.2556   7.6515
     9.8701  11.1825  11.1825  11.3696  12.6363  12.8659  12.8659

     occupation numbers 
     1.0000   1.0000   1.0000   1.0000   1.0000   1.0000   1.0000   1.0000
     1.0000   1.0000   1.0000   1.0000   1.0000   1.0000   1.0000   1.0000
     1.0000   1.0000   1.0000   1.0000   1.0000   1.0000   1.0000   1.0000
     1.0000   1.0000   1.0000   1.0000   1.0000   1.0000   1.0000   1.0000
     1.0000   1.0000   1.0000   1.0000   1.0000   1.0823   0.0000   0.0000
     0.0000   0.0000   0.0000   0.0000   0.0000   0.0000   0.0000

          k =-0.5000-0.5000-0.5000 ( 19064 PWs)   bands (ev):

   -96.2179 -56.6425 -56.6425 -56.6425 -38.2880 -38.2880 -38.2880 -38.2322
   -38.2322 -38.2322 -38.2318 -38.2318 -38.2318 -38.0707 -38.0699 -38.0699
   -38.0691 -38.0691 -38.0691 -23.5917  -7.0774  -7.0774  -7.0774  -5.7626
    -5.7626  -5.7626   0.4533   2.8744   2.8744   2.8744   3.4220   3.4220
     5.6590   5.6590   5.6590   6.1034   6.1034   6.1034   7.6548   7.6548
     9.7098  11.0104  11.0104  11.0104  12.8975  12.8975  12.8975

     occupation numbers 
     1.0000   1.0000   1.0000   1.0000   1.0000   1.0000   1.0000   1.0000
     1.0000   1.0000   1.0000   1.0000   1.0000   1.0000   1.0000   1.0000
     1.0000   1.0000   1.0000   1.0000   1.0000   1.0000   1.0000   1.0000
     1.0000   1.0000   1.0000   1.0000   1.0000   1.0000   1.0000   1.0000
     1.0000   1.0000   1.0000   1.0833   1.0833   1.0833   0.0000   0.0000
     0.0000   0.0000   0.0000   0.0000   0.0000   0.0000   0.0000

     the Fermi energy is     6.1991 ev

!    total energy              =   -2052.57523998 Ry
     estimated scf accuracy    <          7.1E-13 Ry
     smearing contrib. (-TS)   =       0.00007502 Ry
     internal energy E=F+TS    =   -2052.57531500 Ry

     The total energy is F=E-TS. E is the sum of the following terms:
     one-electron contribution =    -814.72732830 Ry
     hartree contribution      =     435.87022269 Ry
     xc contribution           =    -202.81767628 Ry
     ewald contribution        =    -538.05354606 Ry
     one-center paw contrib.   =    -932.84698706 Ry
      -> PAW hartree energy AE =       0.00000000 Ry
      -> PAW hartree energy PS =       0.00000000 Ry
      -> PAW xc energy AE      =       0.00000000 Ry
      -> PAW xc energy PS      =       0.00000000 Ry
      -> total E_H with PAW    =     435.87022269 Ry
      -> total E_XC with PAW   =    -202.81767628 Ry

     convergence has been achieved in  21 iterations

     Forces acting on atoms (cartesian axes, Ry/au):

     atom    1 type  1   force =     0.00000000    0.00000000    0.00000000
     atom    2 type  2   force =     0.00000000    0.00000000    0.00000000
     atom    3 type  3   force =     0.00000000    0.00000000    0.00000000
     atom    4 type  3   force =     0.00000000    0.00000000    0.00000000
     atom    5 type  3   force =     0.00000000    0.00000000    0.00000000
     The non-local contrib.  to forces
     atom    1 type  1   force =     0.00000000    0.00000000    0.00000000
     atom    2 type  2   force =     0.00000000    0.00000000    0.00000000
     atom    3 type  3   force =     0.00000000    0.00000000    0.00000000
     atom    4 type  3   force =     0.00000000    0.00000000    0.00000000
     atom    5 type  3   force =     0.00000000    0.00000000    0.00000000
     The ionic contribution  to forces
     atom    1 type  1   force =    -0.00000000   -0.00000000   -0.00000000
     atom    2 type  2   force =     0.00000000    0.00000000    0.00000000
     atom    3 type  3   force =     0.00000000    0.00000000   -0.00000000
     atom    4 type  3   force =     0.00000000   -0.00000000    0.00000000
     atom    5 type  3   force =    -0.00000000    0.00000000    0.00000000
     The local contribution  to forces
     atom    1 type  1   force =    -0.00000000    0.00000000    0.00000000
     atom    2 type  2   force =     0.00000000    0.00000000    0.00000000
     atom    3 type  3   force =     0.00000000    0.00000000   -0.00000000
     atom    4 type  3   force =     0.00000000    0.00000000    0.00000000
     atom    5 type  3   force =    -0.00000000    0.00000000    0.00000000
     The core correction contribution to forces
     atom    1 type  1   force =    -0.00000000    0.00000000    0.00000000
     atom    2 type  2   force =     0.00000000    0.00000000    0.00000000
     atom    3 type  3   force =     0.00000000    0.00000000   -0.00000000
     atom    4 type  3   force =     0.00000000    0.00000000    0.00000000
     atom    5 type  3   force =    -0.00000000    0.00000000    0.00000000
     The Hubbard contrib.    to forces
     atom    1 type  1   force =     0.00000000    0.00000000    0.00000000
     atom    2 type  2   force =     0.00000000    0.00000000    0.00000000
     atom    3 type  3   force =     0.00000000    0.00000000    0.00000000
     atom    4 type  3   force =     0.00000000    0.00000000    0.00000000
     atom    5 type  3   force =     0.00000000    0.00000000    0.00000000
     The SCF correction term to forces
     atom    1 type  1   force =     0.00000000    0.00000000   -0.00000000
     atom    2 type  2   force =     0.00000000   -0.00000000    0.00000000
     atom    3 type  3   force =    -0.00000000   -0.00000000    0.00000000
     atom    4 type  3   force =     0.00000000    0.00000000   -0.00000000
     atom    5 type  3   force =    -0.00000000    0.00000000   -0.00000000

     Total force =     0.000000     Total SCF correction =     0.000000


     Computing stress (Cartesian axis) and pressure

          total   stress  (Ry/bohr**3)                   (kbar)     P=       -1.38
  -0.00000941   0.00000000   0.00000000           -1.38        0.00        0.00
   0.00000000  -0.00000941   0.00000000            0.00       -1.38        0.00
   0.00000000   0.00000000  -0.00000941            0.00        0.00       -1.38

     kinetic stress (kbar)  20786.06      0.00      0.00
                                0.00  20786.06      0.00
                                0.00      0.00  20786.06

     local   stress (kbar) -10116.47      0.00     -0.00
                                0.00 -10116.47     -0.00
                               -0.00     -0.00 -10116.47

     nonloc. stress (kbar)   -349.67      0.00      0.00
                                0.00   -349.67      0.00
                                0.00      0.00   -349.67

     hartree stress (kbar)  19060.75     -0.00      0.00
                               -0.00  19060.75      0.00
                                0.00      0.00  19060.75

     exc-cor stress (kbar)   5349.91      0.00     -0.00
                                0.00   5349.91     -0.00
                               -0.00     -0.00   5349.91

     corecor stress (kbar) -11202.70      0.00     -0.00
                                0.00 -11202.70     -0.00
                               -0.00     -0.00 -11202.70

     ewald   stress (kbar) -23529.26     -0.00     -0.00
                               -0.00 -23529.26     -0.00
                               -0.00     -0.00 -23529.26

     hubbard stress (kbar)      0.00      0.00      0.00
                                0.00      0.00      0.00
                                0.00      0.00      0.00

     DFT-D   stress (kbar)      0.00      0.00      0.00
                                0.00      0.00      0.00
                                0.00      0.00      0.00

     XDM     stress (kbar)      0.00      0.00      0.00
                                0.00      0.00      0.00
                                0.00      0.00      0.00

     dft-nl  stress (kbar)      0.00      0.00      0.00
                                0.00      0.00      0.00
                                0.00      0.00      0.00

     TS-vdW  stress (kbar)      0.00      0.00      0.00
                                0.00      0.00      0.00
                                0.00      0.00      0.00

     MDB     stress (kbar)      0.00      0.00      0.00
                                0.00      0.00      0.00
                                0.00      0.00      0.00

     3D-RISM stress (kbar)      0.00      0.00      0.00
                                0.00      0.00      0.00
                                0.00      0.00      0.00


     Writing all to output data dir ./tmp/knii3.save/ :
     XML data file, charge density, pseudopotentials, collected wavefunctions

     init_run     :     11.14s CPU     10.10s WALL (       1 calls)
     electrons    :    671.27s CPU    523.99s WALL (       1 calls)
     forces       :      3.99s CPU      3.12s WALL (       1 calls)
     stress       :     26.64s CPU     26.02s WALL (       1 calls)

     Called by init_run:
     wfcinit      :      7.95s CPU      6.66s WALL (       1 calls)
     wfcinit:atom :      0.10s CPU      0.08s WALL (      18 calls)
     wfcinit:wfcr :      7.59s CPU      6.39s WALL (      18 calls)
     potinit      :      0.93s CPU      0.97s WALL (       1 calls)
     hinit0       :      1.04s CPU      1.06s WALL (       1 calls)

     Called by electrons:
     c_bands      :    518.51s CPU    389.17s WALL (      21 calls)
     sum_band     :    122.81s CPU    100.94s WALL (      21 calls)
     v_of_rho     :      5.36s CPU      5.83s WALL (      22 calls)
     v_h          :      0.38s CPU      0.47s WALL (      22 calls)
     v_xc         :      5.43s CPU      5.86s WALL (      24 calls)
     newd         :     20.52s CPU     24.15s WALL (      22 calls)
     PAW_pot      :      4.11s CPU      4.12s WALL (      22 calls)
     mix_rho      :      0.63s CPU      0.65s WALL (      21 calls)

     Called by c_bands:
     init_us_2    :     11.01s CPU      7.84s WALL (     810 calls)
     cegterg      :    465.73s CPU    348.62s WALL (     378 calls)

     Called by sum_band:
     sum_band:wei :      0.09s CPU      0.06s WALL (      21 calls)
     sum_band:loo :     92.82s CPU     72.15s WALL (      21 calls)
     sum_band:buf :      1.00s CPU      0.69s WALL (     378 calls)
     sum_band:ini :      5.00s CPU      3.48s WALL (     378 calls)
     sum_band:cal :      7.07s CPU      3.88s WALL (     378 calls)
     sum_band:bec :      0.06s CPU      0.04s WALL (     378 calls)
     addusdens    :     28.44s CPU     27.27s WALL (      21 calls)
                                        0.00s GPU  (      21 calls)
     addusd:skk   :      0.04s CPU      0.04s WALL (      63 calls)
                                        0.00s GPU  (      63 calls)

     Called by *egterg:
     cdiaghg      :     20.07s CPU     14.22s WALL (    2020 calls)
     cegterg:over :     27.17s CPU     14.83s WALL (    1642 calls)
     cegterg:upda :     17.56s CPU      9.53s WALL (    1642 calls)
     cegterg:last :     36.34s CPU     19.36s WALL (     880 calls)
     h_psi        :    334.84s CPU    275.13s WALL (    2038 calls)
     s_psi        :     19.43s CPU     10.26s WALL (    2038 calls)
     g_psi        :      2.50s CPU      1.83s WALL (    1642 calls)

     Called by h_psi:
     h_psi:calbec :     21.01s CPU     11.56s WALL (    2038 calls)
     vloc_psi     :    291.22s CPU    250.95s WALL (    2038 calls)
     add_vuspsi   :     20.41s CPU     10.93s WALL (    2038 calls)

     General routines
     calbec       :     29.88s CPU     16.48s WALL (    2506 calls)
     fft          :      4.10s CPU      4.43s WALL (     309 calls)
     ffts         :      0.55s CPU      0.53s WALL (      43 calls)
     fftw         :    279.39s CPU    236.92s WALL (  113114 calls)
     interpolate  :      0.81s CPU      0.83s WALL (      22 calls)

     Parallel routines

     PAW routines
     PAW_pot      :      4.11s CPU      4.12s WALL (      22 calls)
     PAW_symme    :      0.06s CPU      0.05s WALL (      43 calls)

     PWSCF        :  11m53.76s CPU   9m24.28s WALL


   This run was terminated on:  12:55:52   9May2025            

=------------------------------------------------------------------------------=
   JOB DONE.
=------------------------------------------------------------------------------=
